*SPEF "ieee 1481-1999"
*DESIGN "CF_SRAM_4096x32_wb_wrapper"
*DATE "12:27:21 Sunday July 13, 2025"
*VENDOR "The OpenROAD Project"
*PROGRAM "OpenROAD"
*VERSION "da0053d7b0014ab9c87ea148875ff6c2a0f9b658"
*DESIGN_FLOW "NAME_SCOPE LOCAL" "PIN_CAP NONE"
*DIVIDER /
*DELIMITER :
*BUS_DELIMITER []
*T_UNIT 1 NS
*C_UNIT 1 PF
*R_UNIT 1 OHM
*L_UNIT 1 HENRY

*NAME_MAP
*3 wb_clk_i
*4 wb_rst_i
*5 wbs_ack_o
*6 wbs_adr_i[0]
*7 wbs_adr_i[10]
*8 wbs_adr_i[11]
*9 wbs_adr_i[12]
*10 wbs_adr_i[13]
*11 wbs_adr_i[14]
*12 wbs_adr_i[15]
*13 wbs_adr_i[16]
*14 wbs_adr_i[17]
*15 wbs_adr_i[18]
*16 wbs_adr_i[19]
*17 wbs_adr_i[1]
*18 wbs_adr_i[20]
*19 wbs_adr_i[21]
*20 wbs_adr_i[22]
*21 wbs_adr_i[23]
*22 wbs_adr_i[24]
*23 wbs_adr_i[25]
*24 wbs_adr_i[26]
*25 wbs_adr_i[27]
*26 wbs_adr_i[28]
*27 wbs_adr_i[29]
*28 wbs_adr_i[2]
*29 wbs_adr_i[30]
*30 wbs_adr_i[31]
*31 wbs_adr_i[3]
*32 wbs_adr_i[4]
*33 wbs_adr_i[5]
*34 wbs_adr_i[6]
*35 wbs_adr_i[7]
*36 wbs_adr_i[8]
*37 wbs_adr_i[9]
*38 wbs_cyc_i
*39 wbs_dat_i[0]
*40 wbs_dat_i[10]
*41 wbs_dat_i[11]
*42 wbs_dat_i[12]
*43 wbs_dat_i[13]
*44 wbs_dat_i[14]
*45 wbs_dat_i[15]
*46 wbs_dat_i[16]
*47 wbs_dat_i[17]
*48 wbs_dat_i[18]
*49 wbs_dat_i[19]
*50 wbs_dat_i[1]
*51 wbs_dat_i[20]
*52 wbs_dat_i[21]
*53 wbs_dat_i[22]
*54 wbs_dat_i[23]
*55 wbs_dat_i[24]
*56 wbs_dat_i[25]
*57 wbs_dat_i[26]
*58 wbs_dat_i[27]
*59 wbs_dat_i[28]
*60 wbs_dat_i[29]
*61 wbs_dat_i[2]
*62 wbs_dat_i[30]
*63 wbs_dat_i[31]
*64 wbs_dat_i[3]
*65 wbs_dat_i[4]
*66 wbs_dat_i[5]
*67 wbs_dat_i[6]
*68 wbs_dat_i[7]
*69 wbs_dat_i[8]
*70 wbs_dat_i[9]
*71 wbs_dat_o[0]
*72 wbs_dat_o[10]
*73 wbs_dat_o[11]
*74 wbs_dat_o[12]
*75 wbs_dat_o[13]
*76 wbs_dat_o[14]
*77 wbs_dat_o[15]
*78 wbs_dat_o[16]
*79 wbs_dat_o[17]
*80 wbs_dat_o[18]
*81 wbs_dat_o[19]
*82 wbs_dat_o[1]
*83 wbs_dat_o[20]
*84 wbs_dat_o[21]
*85 wbs_dat_o[22]
*86 wbs_dat_o[23]
*87 wbs_dat_o[24]
*88 wbs_dat_o[25]
*89 wbs_dat_o[26]
*90 wbs_dat_o[27]
*91 wbs_dat_o[28]
*92 wbs_dat_o[29]
*93 wbs_dat_o[2]
*94 wbs_dat_o[30]
*95 wbs_dat_o[31]
*96 wbs_dat_o[3]
*97 wbs_dat_o[4]
*98 wbs_dat_o[5]
*99 wbs_dat_o[6]
*100 wbs_dat_o[7]
*101 wbs_dat_o[8]
*102 wbs_dat_o[9]
*103 wbs_sel_i[0]
*104 wbs_sel_i[1]
*105 wbs_sel_i[2]
*106 wbs_sel_i[3]
*107 wbs_stb_i
*108 wbs_we_i
*109 _000_
*110 _001_
*111 _002_
*112 _003_
*113 _004_
*114 _005_
*115 _006_
*116 _007_
*117 _008_
*118 _009_
*119 _010_
*120 _011_
*121 _012_
*122 _013_
*123 _014_
*124 _015_
*125 _016_
*126 _017_
*127 _018_
*128 _019_
*129 _020_
*130 _021_
*131 _022_
*132 _023_
*133 _024_
*134 _025_
*135 _026_
*136 _027_
*137 _028_
*138 _029_
*139 _030_
*140 _031_
*141 _032_
*142 _033_
*143 _034_
*144 _035_
*145 _036_
*146 _037_
*147 _038_
*148 _039_
*149 _040_
*150 _041_
*151 _042_
*152 _043_
*153 _044_
*154 _045_
*155 _046_
*156 _047_
*157 _048_
*158 _049_
*159 _050_
*160 _051_
*161 _052_
*162 _053_
*163 _054_
*164 _055_
*165 _056_
*166 _057_
*167 _058_
*168 _059_
*169 _060_
*170 _061_
*171 _062_
*172 _063_
*173 _064_
*174 _065_
*175 _066_
*176 _067_
*177 _068_
*178 _069_
*179 _070_
*180 _071_
*181 _072_
*182 _073_
*183 _074_
*184 _075_
*185 _076_
*186 _077_
*187 _078_
*188 _079_
*189 _080_
*190 _081_
*191 _082_
*192 _083_
*193 _084_
*194 _085_
*195 _086_
*196 clknet_0_wb_clk_i
*197 clknet_1_0__leaf_wb_clk_i
*198 clknet_1_1__leaf_wb_clk_i
*199 i_ram_wb_controller\.EN
*200 i_ram_wb_controller\.R_WB
*201 i_sram\.sram_cs\[0\]
*202 i_sram\.sram_cs\[1\]
*203 i_sram\.sram_cs\[2\]
*204 i_sram\.sram_cs\[3\]
*205 i_sram\.sram_do_0\[0\]
*206 i_sram\.sram_do_0\[10\]
*207 i_sram\.sram_do_0\[11\]
*208 i_sram\.sram_do_0\[12\]
*209 i_sram\.sram_do_0\[13\]
*210 i_sram\.sram_do_0\[14\]
*211 i_sram\.sram_do_0\[15\]
*212 i_sram\.sram_do_0\[16\]
*213 i_sram\.sram_do_0\[17\]
*214 i_sram\.sram_do_0\[18\]
*215 i_sram\.sram_do_0\[19\]
*216 i_sram\.sram_do_0\[1\]
*217 i_sram\.sram_do_0\[20\]
*218 i_sram\.sram_do_0\[21\]
*219 i_sram\.sram_do_0\[22\]
*220 i_sram\.sram_do_0\[23\]
*221 i_sram\.sram_do_0\[24\]
*222 i_sram\.sram_do_0\[25\]
*223 i_sram\.sram_do_0\[26\]
*224 i_sram\.sram_do_0\[27\]
*225 i_sram\.sram_do_0\[28\]
*226 i_sram\.sram_do_0\[29\]
*227 i_sram\.sram_do_0\[2\]
*228 i_sram\.sram_do_0\[30\]
*229 i_sram\.sram_do_0\[31\]
*230 i_sram\.sram_do_0\[3\]
*231 i_sram\.sram_do_0\[4\]
*232 i_sram\.sram_do_0\[5\]
*233 i_sram\.sram_do_0\[6\]
*234 i_sram\.sram_do_0\[7\]
*235 i_sram\.sram_do_0\[8\]
*236 i_sram\.sram_do_0\[9\]
*237 i_sram\.sram_do_1\[0\]
*238 i_sram\.sram_do_1\[10\]
*239 i_sram\.sram_do_1\[11\]
*240 i_sram\.sram_do_1\[12\]
*241 i_sram\.sram_do_1\[13\]
*242 i_sram\.sram_do_1\[14\]
*243 i_sram\.sram_do_1\[15\]
*244 i_sram\.sram_do_1\[16\]
*245 i_sram\.sram_do_1\[17\]
*246 i_sram\.sram_do_1\[18\]
*247 i_sram\.sram_do_1\[19\]
*248 i_sram\.sram_do_1\[1\]
*249 i_sram\.sram_do_1\[20\]
*250 i_sram\.sram_do_1\[21\]
*251 i_sram\.sram_do_1\[22\]
*252 i_sram\.sram_do_1\[23\]
*253 i_sram\.sram_do_1\[24\]
*254 i_sram\.sram_do_1\[25\]
*255 i_sram\.sram_do_1\[26\]
*256 i_sram\.sram_do_1\[27\]
*257 i_sram\.sram_do_1\[28\]
*258 i_sram\.sram_do_1\[29\]
*259 i_sram\.sram_do_1\[2\]
*260 i_sram\.sram_do_1\[30\]
*261 i_sram\.sram_do_1\[31\]
*262 i_sram\.sram_do_1\[3\]
*263 i_sram\.sram_do_1\[4\]
*264 i_sram\.sram_do_1\[5\]
*265 i_sram\.sram_do_1\[6\]
*266 i_sram\.sram_do_1\[7\]
*267 i_sram\.sram_do_1\[8\]
*268 i_sram\.sram_do_1\[9\]
*269 i_sram\.sram_do_2\[0\]
*270 i_sram\.sram_do_2\[10\]
*271 i_sram\.sram_do_2\[11\]
*272 i_sram\.sram_do_2\[12\]
*273 i_sram\.sram_do_2\[13\]
*274 i_sram\.sram_do_2\[14\]
*275 i_sram\.sram_do_2\[15\]
*276 i_sram\.sram_do_2\[16\]
*277 i_sram\.sram_do_2\[17\]
*278 i_sram\.sram_do_2\[18\]
*279 i_sram\.sram_do_2\[19\]
*280 i_sram\.sram_do_2\[1\]
*281 i_sram\.sram_do_2\[20\]
*282 i_sram\.sram_do_2\[21\]
*283 i_sram\.sram_do_2\[22\]
*284 i_sram\.sram_do_2\[23\]
*285 i_sram\.sram_do_2\[24\]
*286 i_sram\.sram_do_2\[25\]
*287 i_sram\.sram_do_2\[26\]
*288 i_sram\.sram_do_2\[27\]
*289 i_sram\.sram_do_2\[28\]
*290 i_sram\.sram_do_2\[29\]
*291 i_sram\.sram_do_2\[2\]
*292 i_sram\.sram_do_2\[30\]
*293 i_sram\.sram_do_2\[31\]
*294 i_sram\.sram_do_2\[3\]
*295 i_sram\.sram_do_2\[4\]
*296 i_sram\.sram_do_2\[5\]
*297 i_sram\.sram_do_2\[6\]
*298 i_sram\.sram_do_2\[7\]
*299 i_sram\.sram_do_2\[8\]
*300 i_sram\.sram_do_2\[9\]
*301 i_sram\.sram_do_3\[0\]
*302 i_sram\.sram_do_3\[10\]
*303 i_sram\.sram_do_3\[11\]
*304 i_sram\.sram_do_3\[12\]
*305 i_sram\.sram_do_3\[13\]
*306 i_sram\.sram_do_3\[14\]
*307 i_sram\.sram_do_3\[15\]
*308 i_sram\.sram_do_3\[16\]
*309 i_sram\.sram_do_3\[17\]
*310 i_sram\.sram_do_3\[18\]
*311 i_sram\.sram_do_3\[19\]
*312 i_sram\.sram_do_3\[1\]
*313 i_sram\.sram_do_3\[20\]
*314 i_sram\.sram_do_3\[21\]
*315 i_sram\.sram_do_3\[22\]
*316 i_sram\.sram_do_3\[23\]
*317 i_sram\.sram_do_3\[24\]
*318 i_sram\.sram_do_3\[25\]
*319 i_sram\.sram_do_3\[26\]
*320 i_sram\.sram_do_3\[27\]
*321 i_sram\.sram_do_3\[28\]
*322 i_sram\.sram_do_3\[29\]
*323 i_sram\.sram_do_3\[2\]
*324 i_sram\.sram_do_3\[30\]
*325 i_sram\.sram_do_3\[31\]
*326 i_sram\.sram_do_3\[3\]
*327 i_sram\.sram_do_3\[4\]
*328 i_sram\.sram_do_3\[5\]
*329 i_sram\.sram_do_3\[6\]
*330 i_sram\.sram_do_3\[7\]
*331 i_sram\.sram_do_3\[8\]
*332 i_sram\.sram_do_3\[9\]
*333 i_sram\.sram_scan_out_cc_0
*334 i_sram\.sram_scan_out_cc_1
*335 i_sram\.sram_scan_out_cc_2
*336 i_sram\.sram_scan_out_cc_3
*337 net1
*338 net10
*339 net100
*340 net101
*341 net102
*342 net103
*343 net104
*344 net105
*345 net106
*346 net107
*347 net108
*348 net109
*349 net11
*350 net110
*351 net111
*352 net112
*353 net113
*354 net114
*355 net115
*356 net116
*357 net117
*358 net118
*359 net119
*360 net12
*361 net120
*362 net121
*363 net122
*364 net123
*365 net124
*366 net125
*367 net126
*368 net127
*369 net128
*370 net129
*371 net13
*372 net130
*373 net131
*374 net132
*375 net133
*376 net134
*377 net135
*378 net136
*379 net137
*380 net138
*381 net139
*382 net14
*383 net140
*384 net141
*385 net142
*386 net143
*387 net144
*388 net145
*389 net146
*390 net147
*391 net148
*392 net149
*393 net15
*394 net150
*395 net151
*396 net152
*397 net153
*398 net154
*399 net155
*400 net156
*401 net157
*402 net158
*403 net159
*404 net16
*405 net160
*406 net161
*407 net162
*408 net163
*409 net164
*410 net165
*411 net166
*412 net167
*413 net168
*414 net169
*415 net17
*416 net170
*417 net171
*418 net172
*419 net173
*420 net174
*421 net175
*422 net176
*423 net177
*424 net178
*425 net179
*426 net18
*427 net180
*428 net181
*429 net182
*430 net183
*431 net184
*432 net185
*433 net186
*434 net187
*435 net188
*436 net189
*437 net19
*438 net190
*439 net191
*440 net192
*441 net193
*442 net194
*443 net195
*444 net196
*445 net197
*446 net198
*447 net199
*448 net2
*449 net20
*450 net200
*451 net201
*452 net202
*453 net203
*454 net204
*455 net205
*456 net206
*457 net207
*458 net208
*459 net209
*460 net21
*461 net210
*462 net211
*463 net212
*464 net213
*465 net214
*466 net215
*467 net216
*468 net217
*469 net218
*470 net219
*471 net22
*472 net220
*473 net221
*474 net222
*475 net223
*476 net224
*477 net225
*478 net226
*479 net227
*480 net228
*481 net229
*482 net23
*483 net230
*484 net231
*485 net232
*486 net233
*487 net234
*488 net235
*489 net236
*490 net237
*491 net238
*492 net239
*493 net24
*494 net240
*495 net241
*496 net242
*497 net243
*498 net244
*499 net245
*500 net246
*501 net247
*502 net248
*503 net249
*504 net25
*505 net250
*506 net251
*507 net252
*508 net253
*509 net254
*510 net255
*511 net256
*512 net257
*513 net258
*514 net259
*515 net26
*516 net260
*517 net261
*518 net262
*519 net263
*520 net264
*521 net265
*522 net266
*523 net267
*524 net268
*525 net269
*526 net27
*527 net270
*528 net271
*529 net272
*530 net273
*531 net274
*532 net275
*533 net276
*534 net277
*535 net278
*536 net279
*537 net28
*538 net280
*539 net281
*540 net282
*541 net283
*542 net284
*543 net285
*544 net286
*545 net287
*546 net288
*547 net289
*548 net29
*549 net290
*550 net291
*551 net292
*552 net293
*553 net294
*554 net295
*555 net296
*556 net297
*557 net298
*558 net299
*559 net3
*560 net30
*561 net300
*562 net301
*563 net302
*564 net303
*565 net304
*566 net305
*567 net306
*568 net307
*569 net31
*570 net32
*571 net33
*572 net34
*573 net35
*574 net36
*575 net37
*576 net38
*577 net39
*578 net4
*579 net40
*580 net41
*581 net42
*582 net43
*583 net44
*584 net45
*585 net46
*586 net47
*587 net48
*588 net49
*589 net5
*590 net50
*591 net51
*592 net52
*593 net53
*594 net54
*595 net55
*596 net56
*597 net57
*598 net58
*599 net59
*600 net6
*601 net60
*602 net61
*603 net62
*604 net63
*605 net64
*606 net65
*607 net66
*608 net67
*609 net68
*610 net69
*611 net7
*612 net70
*613 net71
*614 net72
*615 net73
*616 net74
*617 net75
*618 net76
*619 net77
*620 net78
*621 net79
*622 net8
*623 net80
*624 net81
*625 net82
*626 net83
*627 net84
*628 net85
*629 net86
*630 net87
*631 net88
*632 net89
*633 net9
*634 net90
*635 net91
*636 net92
*637 net93
*638 net94
*639 net95
*640 net96
*641 net97
*642 net98
*643 net99
*644 ANTENNA_1
*645 ANTENNA_10
*646 ANTENNA_100
*647 ANTENNA_101
*648 ANTENNA_102
*649 ANTENNA_103
*650 ANTENNA_104
*651 ANTENNA_105
*652 ANTENNA_106
*653 ANTENNA_107
*654 ANTENNA_108
*655 ANTENNA_109
*656 ANTENNA_11
*657 ANTENNA_110
*658 ANTENNA_111
*659 ANTENNA_112
*660 ANTENNA_113
*661 ANTENNA_114
*662 ANTENNA_115
*663 ANTENNA_116
*664 ANTENNA_117
*665 ANTENNA_118
*666 ANTENNA_119
*667 ANTENNA_12
*668 ANTENNA_120
*669 ANTENNA_121
*670 ANTENNA_122
*671 ANTENNA_123
*672 ANTENNA_124
*673 ANTENNA_125
*674 ANTENNA_126
*675 ANTENNA_127
*676 ANTENNA_128
*677 ANTENNA_129
*678 ANTENNA_13
*679 ANTENNA_130
*680 ANTENNA_131
*681 ANTENNA_132
*682 ANTENNA_133
*683 ANTENNA_134
*684 ANTENNA_135
*685 ANTENNA_136
*686 ANTENNA_137
*687 ANTENNA_138
*688 ANTENNA_139
*689 ANTENNA_14
*690 ANTENNA_140
*691 ANTENNA_141
*692 ANTENNA_142
*693 ANTENNA_143
*694 ANTENNA_144
*695 ANTENNA_145
*696 ANTENNA_146
*697 ANTENNA_147
*698 ANTENNA_148
*699 ANTENNA_149
*700 ANTENNA_15
*701 ANTENNA_150
*702 ANTENNA_151
*703 ANTENNA_152
*704 ANTENNA_153
*705 ANTENNA_154
*706 ANTENNA_155
*707 ANTENNA_156
*708 ANTENNA_157
*709 ANTENNA_158
*710 ANTENNA_159
*711 ANTENNA_16
*712 ANTENNA_160
*713 ANTENNA_161
*714 ANTENNA_162
*715 ANTENNA_163
*716 ANTENNA_164
*717 ANTENNA_165
*718 ANTENNA_166
*719 ANTENNA_167
*720 ANTENNA_168
*721 ANTENNA_169
*722 ANTENNA_17
*723 ANTENNA_170
*724 ANTENNA_171
*725 ANTENNA_172
*726 ANTENNA_173
*727 ANTENNA_174
*728 ANTENNA_175
*729 ANTENNA_176
*730 ANTENNA_177
*731 ANTENNA_178
*732 ANTENNA_179
*733 ANTENNA_18
*734 ANTENNA_180
*735 ANTENNA_181
*736 ANTENNA_182
*737 ANTENNA_183
*738 ANTENNA_184
*739 ANTENNA_185
*740 ANTENNA_186
*741 ANTENNA_187
*742 ANTENNA_188
*743 ANTENNA_189
*744 ANTENNA_19
*745 ANTENNA_190
*746 ANTENNA_191
*747 ANTENNA_192
*748 ANTENNA_193
*749 ANTENNA_194
*750 ANTENNA_195
*751 ANTENNA_196
*752 ANTENNA_197
*753 ANTENNA_198
*754 ANTENNA_199
*755 ANTENNA_2
*756 ANTENNA_20
*757 ANTENNA_200
*758 ANTENNA_201
*759 ANTENNA_202
*760 ANTENNA_203
*761 ANTENNA_204
*762 ANTENNA_205
*763 ANTENNA_206
*764 ANTENNA_207
*765 ANTENNA_208
*766 ANTENNA_209
*767 ANTENNA_21
*768 ANTENNA_210
*769 ANTENNA_211
*770 ANTENNA_212
*771 ANTENNA_213
*772 ANTENNA_214
*773 ANTENNA_215
*774 ANTENNA_216
*775 ANTENNA_217
*776 ANTENNA_218
*777 ANTENNA_219
*778 ANTENNA_22
*779 ANTENNA_220
*780 ANTENNA_221
*781 ANTENNA_222
*782 ANTENNA_223
*783 ANTENNA_224
*784 ANTENNA_225
*785 ANTENNA_226
*786 ANTENNA_227
*787 ANTENNA_228
*788 ANTENNA_229
*789 ANTENNA_23
*790 ANTENNA_230
*791 ANTENNA_231
*792 ANTENNA_232
*793 ANTENNA_233
*794 ANTENNA_234
*795 ANTENNA_235
*796 ANTENNA_236
*797 ANTENNA_237
*798 ANTENNA_238
*799 ANTENNA_239
*800 ANTENNA_24
*801 ANTENNA_240
*802 ANTENNA_241
*803 ANTENNA_242
*804 ANTENNA_243
*805 ANTENNA_244
*806 ANTENNA_245
*807 ANTENNA_246
*808 ANTENNA_247
*809 ANTENNA_248
*810 ANTENNA_249
*811 ANTENNA_25
*812 ANTENNA_250
*813 ANTENNA_251
*814 ANTENNA_252
*815 ANTENNA_253
*816 ANTENNA_254
*817 ANTENNA_255
*818 ANTENNA_256
*819 ANTENNA_257
*820 ANTENNA_258
*821 ANTENNA_259
*822 ANTENNA_26
*823 ANTENNA_260
*824 ANTENNA_261
*825 ANTENNA_262
*826 ANTENNA_263
*827 ANTENNA_264
*828 ANTENNA_265
*829 ANTENNA_266
*830 ANTENNA_267
*831 ANTENNA_268
*832 ANTENNA_269
*833 ANTENNA_27
*834 ANTENNA_270
*835 ANTENNA_271
*836 ANTENNA_272
*837 ANTENNA_273
*838 ANTENNA_274
*839 ANTENNA_275
*840 ANTENNA_276
*841 ANTENNA_277
*842 ANTENNA_278
*843 ANTENNA_279
*844 ANTENNA_28
*845 ANTENNA_280
*846 ANTENNA_281
*847 ANTENNA_282
*848 ANTENNA_283
*849 ANTENNA_284
*850 ANTENNA_285
*851 ANTENNA_286
*852 ANTENNA_287
*853 ANTENNA_288
*854 ANTENNA_289
*855 ANTENNA_29
*856 ANTENNA_290
*857 ANTENNA_291
*858 ANTENNA_292
*859 ANTENNA_293
*860 ANTENNA_294
*861 ANTENNA_295
*862 ANTENNA_296
*863 ANTENNA_297
*864 ANTENNA_298
*865 ANTENNA_299
*866 ANTENNA_3
*867 ANTENNA_30
*868 ANTENNA_300
*869 ANTENNA_301
*870 ANTENNA_302
*871 ANTENNA_303
*872 ANTENNA_304
*873 ANTENNA_305
*874 ANTENNA_306
*875 ANTENNA_307
*876 ANTENNA_308
*877 ANTENNA_309
*878 ANTENNA_31
*879 ANTENNA_310
*880 ANTENNA_311
*881 ANTENNA_312
*882 ANTENNA_313
*883 ANTENNA_314
*884 ANTENNA_315
*885 ANTENNA_316
*886 ANTENNA_317
*887 ANTENNA_318
*888 ANTENNA_319
*889 ANTENNA_32
*890 ANTENNA_320
*891 ANTENNA_321
*892 ANTENNA_322
*893 ANTENNA_323
*894 ANTENNA_324
*895 ANTENNA_325
*896 ANTENNA_326
*897 ANTENNA_327
*898 ANTENNA_328
*899 ANTENNA_329
*900 ANTENNA_33
*901 ANTENNA_330
*902 ANTENNA_331
*903 ANTENNA_332
*904 ANTENNA_333
*905 ANTENNA_334
*906 ANTENNA_335
*907 ANTENNA_336
*908 ANTENNA_337
*909 ANTENNA_338
*910 ANTENNA_339
*911 ANTENNA_34
*912 ANTENNA_340
*913 ANTENNA_341
*914 ANTENNA_342
*915 ANTENNA_343
*916 ANTENNA_344
*917 ANTENNA_345
*918 ANTENNA_346
*919 ANTENNA_347
*920 ANTENNA_348
*921 ANTENNA_349
*922 ANTENNA_35
*923 ANTENNA_350
*924 ANTENNA_351
*925 ANTENNA_352
*926 ANTENNA_353
*927 ANTENNA_354
*928 ANTENNA_355
*929 ANTENNA_356
*930 ANTENNA_357
*931 ANTENNA_358
*932 ANTENNA_359
*933 ANTENNA_36
*934 ANTENNA_360
*935 ANTENNA_361
*936 ANTENNA_362
*937 ANTENNA_363
*938 ANTENNA_364
*939 ANTENNA_365
*940 ANTENNA_366
*941 ANTENNA_367
*942 ANTENNA_368
*943 ANTENNA_369
*944 ANTENNA_37
*945 ANTENNA_370
*946 ANTENNA_371
*947 ANTENNA_372
*948 ANTENNA_373
*949 ANTENNA_374
*950 ANTENNA_375
*951 ANTENNA_376
*952 ANTENNA_377
*953 ANTENNA_378
*954 ANTENNA_379
*955 ANTENNA_38
*956 ANTENNA_380
*957 ANTENNA_381
*958 ANTENNA_382
*959 ANTENNA_383
*960 ANTENNA_384
*961 ANTENNA_385
*962 ANTENNA_386
*963 ANTENNA_387
*964 ANTENNA_388
*965 ANTENNA_389
*966 ANTENNA_39
*967 ANTENNA_390
*968 ANTENNA_391
*969 ANTENNA_392
*970 ANTENNA_393
*971 ANTENNA_394
*972 ANTENNA_395
*973 ANTENNA_396
*974 ANTENNA_397
*975 ANTENNA_398
*976 ANTENNA_399
*977 ANTENNA_4
*978 ANTENNA_40
*979 ANTENNA_400
*980 ANTENNA_401
*981 ANTENNA_402
*982 ANTENNA_403
*983 ANTENNA_404
*984 ANTENNA_405
*985 ANTENNA_406
*986 ANTENNA_407
*987 ANTENNA_408
*988 ANTENNA_409
*989 ANTENNA_41
*990 ANTENNA_410
*991 ANTENNA_411
*992 ANTENNA_412
*993 ANTENNA_413
*994 ANTENNA_414
*995 ANTENNA_415
*996 ANTENNA_416
*997 ANTENNA_417
*998 ANTENNA_418
*999 ANTENNA_419
*1000 ANTENNA_42
*1001 ANTENNA_420
*1002 ANTENNA_421
*1003 ANTENNA_422
*1004 ANTENNA_423
*1005 ANTENNA_424
*1006 ANTENNA_425
*1007 ANTENNA_426
*1008 ANTENNA_427
*1009 ANTENNA_428
*1010 ANTENNA_429
*1011 ANTENNA_43
*1012 ANTENNA_430
*1013 ANTENNA_431
*1014 ANTENNA_432
*1015 ANTENNA_433
*1016 ANTENNA_434
*1017 ANTENNA_435
*1018 ANTENNA_436
*1019 ANTENNA_437
*1020 ANTENNA_438
*1021 ANTENNA_439
*1022 ANTENNA_44
*1023 ANTENNA_440
*1024 ANTENNA_441
*1025 ANTENNA_442
*1026 ANTENNA_443
*1027 ANTENNA_444
*1028 ANTENNA_445
*1029 ANTENNA_446
*1030 ANTENNA_447
*1031 ANTENNA_448
*1032 ANTENNA_449
*1033 ANTENNA_45
*1034 ANTENNA_450
*1035 ANTENNA_451
*1036 ANTENNA_452
*1037 ANTENNA_453
*1038 ANTENNA_454
*1039 ANTENNA_455
*1040 ANTENNA_456
*1041 ANTENNA_457
*1042 ANTENNA_458
*1043 ANTENNA_459
*1044 ANTENNA_46
*1045 ANTENNA_460
*1046 ANTENNA_461
*1047 ANTENNA_462
*1048 ANTENNA_463
*1049 ANTENNA_464
*1050 ANTENNA_465
*1051 ANTENNA_466
*1052 ANTENNA_467
*1053 ANTENNA_468
*1054 ANTENNA_469
*1055 ANTENNA_47
*1056 ANTENNA_470
*1057 ANTENNA_471
*1058 ANTENNA_472
*1059 ANTENNA_473
*1060 ANTENNA_474
*1061 ANTENNA_475
*1062 ANTENNA_476
*1063 ANTENNA_477
*1064 ANTENNA_478
*1065 ANTENNA_479
*1066 ANTENNA_48
*1067 ANTENNA_480
*1068 ANTENNA_481
*1069 ANTENNA_482
*1070 ANTENNA_483
*1071 ANTENNA_484
*1072 ANTENNA_485
*1073 ANTENNA_486
*1074 ANTENNA_487
*1075 ANTENNA_488
*1076 ANTENNA_489
*1077 ANTENNA_49
*1078 ANTENNA_490
*1079 ANTENNA_491
*1080 ANTENNA_492
*1081 ANTENNA_493
*1082 ANTENNA_494
*1083 ANTENNA_495
*1084 ANTENNA_496
*1085 ANTENNA_497
*1086 ANTENNA_498
*1087 ANTENNA_499
*1088 ANTENNA_5
*1089 ANTENNA_50
*1090 ANTENNA_500
*1091 ANTENNA_501
*1092 ANTENNA_502
*1093 ANTENNA_503
*1094 ANTENNA_504
*1095 ANTENNA_505
*1096 ANTENNA_506
*1097 ANTENNA_507
*1098 ANTENNA_508
*1099 ANTENNA_509
*1100 ANTENNA_51
*1101 ANTENNA_510
*1102 ANTENNA_511
*1103 ANTENNA_512
*1104 ANTENNA_513
*1105 ANTENNA_514
*1106 ANTENNA_515
*1107 ANTENNA_516
*1108 ANTENNA_517
*1109 ANTENNA_518
*1110 ANTENNA_519
*1111 ANTENNA_52
*1112 ANTENNA_520
*1113 ANTENNA_521
*1114 ANTENNA_522
*1115 ANTENNA_523
*1116 ANTENNA_524
*1117 ANTENNA_525
*1118 ANTENNA_526
*1119 ANTENNA_527
*1120 ANTENNA_528
*1121 ANTENNA_529
*1122 ANTENNA_53
*1123 ANTENNA_530
*1124 ANTENNA_531
*1125 ANTENNA_532
*1126 ANTENNA_533
*1127 ANTENNA_534
*1128 ANTENNA_535
*1129 ANTENNA_536
*1130 ANTENNA_537
*1131 ANTENNA_538
*1132 ANTENNA_539
*1133 ANTENNA_54
*1134 ANTENNA_540
*1135 ANTENNA_541
*1136 ANTENNA_542
*1137 ANTENNA_543
*1138 ANTENNA_544
*1139 ANTENNA_545
*1140 ANTENNA_546
*1141 ANTENNA_547
*1142 ANTENNA_548
*1143 ANTENNA_549
*1144 ANTENNA_55
*1145 ANTENNA_550
*1146 ANTENNA_551
*1147 ANTENNA_552
*1148 ANTENNA_553
*1149 ANTENNA_554
*1150 ANTENNA_555
*1151 ANTENNA_556
*1152 ANTENNA_557
*1153 ANTENNA_558
*1154 ANTENNA_559
*1155 ANTENNA_56
*1156 ANTENNA_560
*1157 ANTENNA_561
*1158 ANTENNA_562
*1159 ANTENNA_563
*1160 ANTENNA_564
*1161 ANTENNA_565
*1162 ANTENNA_566
*1163 ANTENNA_567
*1164 ANTENNA_568
*1165 ANTENNA_569
*1166 ANTENNA_57
*1167 ANTENNA_570
*1168 ANTENNA_571
*1169 ANTENNA_572
*1170 ANTENNA_573
*1171 ANTENNA_574
*1172 ANTENNA_575
*1173 ANTENNA_576
*1174 ANTENNA_577
*1175 ANTENNA_578
*1176 ANTENNA_579
*1177 ANTENNA_58
*1178 ANTENNA_580
*1179 ANTENNA_581
*1180 ANTENNA_582
*1181 ANTENNA_583
*1182 ANTENNA_584
*1183 ANTENNA_585
*1184 ANTENNA_586
*1185 ANTENNA_587
*1186 ANTENNA_588
*1187 ANTENNA_589
*1188 ANTENNA_59
*1189 ANTENNA_590
*1190 ANTENNA_591
*1191 ANTENNA_592
*1192 ANTENNA_593
*1193 ANTENNA_594
*1194 ANTENNA_595
*1195 ANTENNA_596
*1196 ANTENNA_597
*1197 ANTENNA_598
*1198 ANTENNA_599
*1199 ANTENNA_6
*1200 ANTENNA_60
*1201 ANTENNA_600
*1202 ANTENNA_601
*1203 ANTENNA_602
*1204 ANTENNA_603
*1205 ANTENNA_61
*1206 ANTENNA_62
*1207 ANTENNA_63
*1208 ANTENNA_64
*1209 ANTENNA_65
*1210 ANTENNA_66
*1211 ANTENNA_67
*1212 ANTENNA_68
*1213 ANTENNA_69
*1214 ANTENNA_7
*1215 ANTENNA_70
*1216 ANTENNA_71
*1217 ANTENNA_72
*1218 ANTENNA_73
*1219 ANTENNA_74
*1220 ANTENNA_75
*1221 ANTENNA_76
*1222 ANTENNA_77
*1223 ANTENNA_78
*1224 ANTENNA_79
*1225 ANTENNA_8
*1226 ANTENNA_80
*1227 ANTENNA_81
*1228 ANTENNA_82
*1229 ANTENNA_83
*1230 ANTENNA_84
*1231 ANTENNA_85
*1232 ANTENNA_86
*1233 ANTENNA_87
*1234 ANTENNA_88
*1235 ANTENNA_89
*1236 ANTENNA_9
*1237 ANTENNA_90
*1238 ANTENNA_91
*1239 ANTENNA_92
*1240 ANTENNA_93
*1241 ANTENNA_94
*1242 ANTENNA_95
*1243 ANTENNA_96
*1244 ANTENNA_97
*1245 ANTENNA_98
*1246 ANTENNA_99
*1247 FILLER_0_0_1005
*1248 FILLER_0_0_1033
*1249 FILLER_0_0_1061
*1250 FILLER_0_0_1065
*1251 FILLER_0_0_109
*1252 FILLER_0_0_1091
*1253 FILLER_0_0_1093
*1254 FILLER_0_0_1113
*1255 FILLER_0_0_1119
*1256 FILLER_0_0_113
*1257 FILLER_0_0_1145
*1258 FILLER_0_0_1173
*1259 FILLER_0_0_1201
*1260 FILLER_0_0_1221
*1261 FILLER_0_0_1230
*1262 FILLER_0_0_125
*1263 FILLER_0_0_1257
*1264 FILLER_0_0_1285
*1265 FILLER_0_0_1313
*1266 FILLER_0_0_1333
*1267 FILLER_0_0_1369
*1268 FILLER_0_0_137
*1269 FILLER_0_0_1397
*1270 FILLER_0_0_141
*1271 FILLER_0_0_1425
*1272 FILLER_0_0_1453
*1273 FILLER_0_0_1481
*1274 FILLER_0_0_1485
*1275 FILLER_0_0_15
*1276 FILLER_0_0_1503
*1277 FILLER_0_0_153
*1278 FILLER_0_0_165
*1279 FILLER_0_0_169
*1280 FILLER_0_0_181
*1281 FILLER_0_0_193
*1282 FILLER_0_0_197
*1283 FILLER_0_0_209
*1284 FILLER_0_0_221
*1285 FILLER_0_0_225
*1286 FILLER_0_0_237
*1287 FILLER_0_0_249
*1288 FILLER_0_0_253
*1289 FILLER_0_0_265
*1290 FILLER_0_0_27
*1291 FILLER_0_0_277
*1292 FILLER_0_0_281
*1293 FILLER_0_0_29
*1294 FILLER_0_0_293
*1295 FILLER_0_0_3
*1296 FILLER_0_0_305
*1297 FILLER_0_0_309
*1298 FILLER_0_0_321
*1299 FILLER_0_0_333
*1300 FILLER_0_0_337
*1301 FILLER_0_0_349
*1302 FILLER_0_0_361
*1303 FILLER_0_0_365
*1304 FILLER_0_0_377
*1305 FILLER_0_0_389
*1306 FILLER_0_0_393
*1307 FILLER_0_0_405
*1308 FILLER_0_0_41
*1309 FILLER_0_0_417
*1310 FILLER_0_0_421
*1311 FILLER_0_0_433
*1312 FILLER_0_0_445
*1313 FILLER_0_0_449
*1314 FILLER_0_0_460
*1315 FILLER_0_0_472
*1316 FILLER_0_0_481
*1317 FILLER_0_0_491
*1318 FILLER_0_0_495
*1319 FILLER_0_0_505
*1320 FILLER_0_0_53
*1321 FILLER_0_0_533
*1322 FILLER_0_0_553
*1323 FILLER_0_0_559
*1324 FILLER_0_0_561
*1325 FILLER_0_0_57
*1326 FILLER_0_0_583
*1327 FILLER_0_0_587
*1328 FILLER_0_0_589
*1329 FILLER_0_0_617
*1330 FILLER_0_0_643
*1331 FILLER_0_0_645
*1332 FILLER_0_0_673
*1333 FILLER_0_0_69
*1334 FILLER_0_0_701
*1335 FILLER_0_0_729
*1336 FILLER_0_0_757
*1337 FILLER_0_0_783
*1338 FILLER_0_0_809
*1339 FILLER_0_0_81
*1340 FILLER_0_0_837
*1341 FILLER_0_0_85
*1342 FILLER_0_0_865
*1343 FILLER_0_0_893
*1344 FILLER_0_0_921
*1345 FILLER_0_0_949
*1346 FILLER_0_0_97
*1347 FILLER_0_0_977
*1348 FILLER_0_100_1464
*1349 FILLER_0_100_1476
*1350 FILLER_0_100_1488
*1351 FILLER_0_100_1490
*1352 FILLER_0_100_1502
*1353 FILLER_0_100_1506
*1354 FILLER_0_100_703
*1355 FILLER_0_100_715
*1356 FILLER_0_100_727
*1357 FILLER_0_100_729
*1358 FILLER_0_100_741
*1359 FILLER_0_101_1464
*1360 FILLER_0_101_1468
*1361 FILLER_0_101_1480
*1362 FILLER_0_101_1492
*1363 FILLER_0_101_1504
*1364 FILLER_0_101_703
*1365 FILLER_0_101_715
*1366 FILLER_0_101_727
*1367 FILLER_0_101_739
*1368 FILLER_0_102_1464
*1369 FILLER_0_102_1468
*1370 FILLER_0_102_1472
*1371 FILLER_0_102_1484
*1372 FILLER_0_102_1488
*1373 FILLER_0_102_1490
*1374 FILLER_0_102_1502
*1375 FILLER_0_102_1506
*1376 FILLER_0_102_703
*1377 FILLER_0_102_707
*1378 FILLER_0_102_719
*1379 FILLER_0_102_727
*1380 FILLER_0_102_729
*1381 FILLER_0_102_741
*1382 FILLER_0_103_1464
*1383 FILLER_0_103_1476
*1384 FILLER_0_103_1488
*1385 FILLER_0_103_1500
*1386 FILLER_0_103_1506
*1387 FILLER_0_103_703
*1388 FILLER_0_103_715
*1389 FILLER_0_103_727
*1390 FILLER_0_103_739
*1391 FILLER_0_104_1464
*1392 FILLER_0_104_1476
*1393 FILLER_0_104_1488
*1394 FILLER_0_104_1490
*1395 FILLER_0_104_1502
*1396 FILLER_0_104_1506
*1397 FILLER_0_104_703
*1398 FILLER_0_104_715
*1399 FILLER_0_104_727
*1400 FILLER_0_104_729
*1401 FILLER_0_104_741
*1402 FILLER_0_105_1464
*1403 FILLER_0_105_1476
*1404 FILLER_0_105_1488
*1405 FILLER_0_105_1500
*1406 FILLER_0_105_1506
*1407 FILLER_0_105_723
*1408 FILLER_0_105_735
*1409 FILLER_0_106_1464
*1410 FILLER_0_106_1468
*1411 FILLER_0_106_1480
*1412 FILLER_0_106_1488
*1413 FILLER_0_106_1490
*1414 FILLER_0_106_1502
*1415 FILLER_0_106_1506
*1416 FILLER_0_106_703
*1417 FILLER_0_106_707
*1418 FILLER_0_106_719
*1419 FILLER_0_106_727
*1420 FILLER_0_106_729
*1421 FILLER_0_106_741
*1422 FILLER_0_107_1464
*1423 FILLER_0_107_1476
*1424 FILLER_0_107_1488
*1425 FILLER_0_107_1500
*1426 FILLER_0_107_1506
*1427 FILLER_0_107_703
*1428 FILLER_0_107_715
*1429 FILLER_0_107_727
*1430 FILLER_0_107_739
*1431 FILLER_0_108_1464
*1432 FILLER_0_108_1476
*1433 FILLER_0_108_1488
*1434 FILLER_0_108_1490
*1435 FILLER_0_108_1502
*1436 FILLER_0_108_1506
*1437 FILLER_0_108_703
*1438 FILLER_0_108_715
*1439 FILLER_0_108_727
*1440 FILLER_0_108_729
*1441 FILLER_0_108_741
*1442 FILLER_0_109_1464
*1443 FILLER_0_109_1476
*1444 FILLER_0_109_1488
*1445 FILLER_0_109_1500
*1446 FILLER_0_109_1506
*1447 FILLER_0_109_703
*1448 FILLER_0_109_715
*1449 FILLER_0_109_727
*1450 FILLER_0_109_739
*1451 FILLER_0_10_1464
*1452 FILLER_0_10_1476
*1453 FILLER_0_10_1488
*1454 FILLER_0_10_1490
*1455 FILLER_0_10_1502
*1456 FILLER_0_10_1506
*1457 FILLER_0_10_703
*1458 FILLER_0_10_715
*1459 FILLER_0_10_727
*1460 FILLER_0_10_729
*1461 FILLER_0_10_740
*1462 FILLER_0_10_746
*1463 FILLER_0_110_1464
*1464 FILLER_0_110_1468
*1465 FILLER_0_110_1480
*1466 FILLER_0_110_1488
*1467 FILLER_0_110_1490
*1468 FILLER_0_110_1502
*1469 FILLER_0_110_1506
*1470 FILLER_0_110_703
*1471 FILLER_0_110_707
*1472 FILLER_0_110_719
*1473 FILLER_0_110_727
*1474 FILLER_0_110_729
*1475 FILLER_0_110_741
*1476 FILLER_0_111_1464
*1477 FILLER_0_111_1476
*1478 FILLER_0_111_1488
*1479 FILLER_0_111_1500
*1480 FILLER_0_111_1506
*1481 FILLER_0_111_703
*1482 FILLER_0_111_715
*1483 FILLER_0_111_727
*1484 FILLER_0_111_739
*1485 FILLER_0_112_1464
*1486 FILLER_0_112_1476
*1487 FILLER_0_112_1488
*1488 FILLER_0_112_1490
*1489 FILLER_0_112_1502
*1490 FILLER_0_112_1506
*1491 FILLER_0_112_703
*1492 FILLER_0_112_715
*1493 FILLER_0_112_727
*1494 FILLER_0_112_729
*1495 FILLER_0_112_741
*1496 FILLER_0_113_1464
*1497 FILLER_0_113_1476
*1498 FILLER_0_113_1488
*1499 FILLER_0_113_1500
*1500 FILLER_0_113_1506
*1501 FILLER_0_113_703
*1502 FILLER_0_113_715
*1503 FILLER_0_113_727
*1504 FILLER_0_113_739
*1505 FILLER_0_114_1464
*1506 FILLER_0_114_1468
*1507 FILLER_0_114_1480
*1508 FILLER_0_114_1488
*1509 FILLER_0_114_1490
*1510 FILLER_0_114_1502
*1511 FILLER_0_114_1506
*1512 FILLER_0_114_703
*1513 FILLER_0_114_707
*1514 FILLER_0_114_719
*1515 FILLER_0_114_727
*1516 FILLER_0_114_729
*1517 FILLER_0_114_741
*1518 FILLER_0_115_1464
*1519 FILLER_0_115_1476
*1520 FILLER_0_115_1488
*1521 FILLER_0_115_1500
*1522 FILLER_0_115_1506
*1523 FILLER_0_115_703
*1524 FILLER_0_115_715
*1525 FILLER_0_115_727
*1526 FILLER_0_115_739
*1527 FILLER_0_116_1464
*1528 FILLER_0_116_1476
*1529 FILLER_0_116_1488
*1530 FILLER_0_116_1490
*1531 FILLER_0_116_1502
*1532 FILLER_0_116_1506
*1533 FILLER_0_116_703
*1534 FILLER_0_116_715
*1535 FILLER_0_116_727
*1536 FILLER_0_116_729
*1537 FILLER_0_116_741
*1538 FILLER_0_117_1464
*1539 FILLER_0_117_1476
*1540 FILLER_0_117_1488
*1541 FILLER_0_117_1500
*1542 FILLER_0_117_1506
*1543 FILLER_0_117_703
*1544 FILLER_0_117_715
*1545 FILLER_0_117_727
*1546 FILLER_0_117_739
*1547 FILLER_0_118_1464
*1548 FILLER_0_118_1468
*1549 FILLER_0_118_1480
*1550 FILLER_0_118_1488
*1551 FILLER_0_118_1490
*1552 FILLER_0_118_1502
*1553 FILLER_0_118_1506
*1554 FILLER_0_118_703
*1555 FILLER_0_118_707
*1556 FILLER_0_118_719
*1557 FILLER_0_118_727
*1558 FILLER_0_118_729
*1559 FILLER_0_118_735
*1560 FILLER_0_119_1464
*1561 FILLER_0_119_1476
*1562 FILLER_0_119_1488
*1563 FILLER_0_119_1500
*1564 FILLER_0_119_1506
*1565 FILLER_0_119_703
*1566 FILLER_0_119_715
*1567 FILLER_0_119_727
*1568 FILLER_0_119_739
*1569 FILLER_0_11_1464
*1570 FILLER_0_11_1476
*1571 FILLER_0_11_1488
*1572 FILLER_0_11_1500
*1573 FILLER_0_11_1506
*1574 FILLER_0_11_703
*1575 FILLER_0_11_715
*1576 FILLER_0_11_727
*1577 FILLER_0_11_739
*1578 FILLER_0_120_1464
*1579 FILLER_0_120_1476
*1580 FILLER_0_120_1488
*1581 FILLER_0_120_1490
*1582 FILLER_0_120_1502
*1583 FILLER_0_120_1506
*1584 FILLER_0_120_703
*1585 FILLER_0_120_715
*1586 FILLER_0_120_727
*1587 FILLER_0_120_729
*1588 FILLER_0_120_741
*1589 FILLER_0_121_1464
*1590 FILLER_0_121_1476
*1591 FILLER_0_121_1488
*1592 FILLER_0_121_1500
*1593 FILLER_0_121_1506
*1594 FILLER_0_121_703
*1595 FILLER_0_121_715
*1596 FILLER_0_121_727
*1597 FILLER_0_121_739
*1598 FILLER_0_122_1464
*1599 FILLER_0_122_1468
*1600 FILLER_0_122_1480
*1601 FILLER_0_122_1488
*1602 FILLER_0_122_1490
*1603 FILLER_0_122_1502
*1604 FILLER_0_122_1506
*1605 FILLER_0_122_703
*1606 FILLER_0_122_707
*1607 FILLER_0_122_719
*1608 FILLER_0_122_727
*1609 FILLER_0_122_729
*1610 FILLER_0_122_741
*1611 FILLER_0_123_1464
*1612 FILLER_0_123_1476
*1613 FILLER_0_123_1488
*1614 FILLER_0_123_1500
*1615 FILLER_0_123_1506
*1616 FILLER_0_123_703
*1617 FILLER_0_123_707
*1618 FILLER_0_123_719
*1619 FILLER_0_123_731
*1620 FILLER_0_123_743
*1621 FILLER_0_124_1464
*1622 FILLER_0_124_1476
*1623 FILLER_0_124_1488
*1624 FILLER_0_124_1490
*1625 FILLER_0_124_1502
*1626 FILLER_0_124_1506
*1627 FILLER_0_124_703
*1628 FILLER_0_124_707
*1629 FILLER_0_124_711
*1630 FILLER_0_124_723
*1631 FILLER_0_124_727
*1632 FILLER_0_124_729
*1633 FILLER_0_124_741
*1634 FILLER_0_125_1464
*1635 FILLER_0_125_1468
*1636 FILLER_0_125_1472
*1637 FILLER_0_125_1484
*1638 FILLER_0_125_1496
*1639 FILLER_0_125_1504
*1640 FILLER_0_125_703
*1641 FILLER_0_125_715
*1642 FILLER_0_125_719
*1643 FILLER_0_125_723
*1644 FILLER_0_125_735
*1645 FILLER_0_125_739
*1646 FILLER_0_125_743
*1647 FILLER_0_126_1464
*1648 FILLER_0_126_1468
*1649 FILLER_0_126_1472
*1650 FILLER_0_126_1476
*1651 FILLER_0_126_1488
*1652 FILLER_0_126_1490
*1653 FILLER_0_126_1502
*1654 FILLER_0_126_1506
*1655 FILLER_0_126_703
*1656 FILLER_0_126_707
*1657 FILLER_0_126_710
*1658 FILLER_0_126_714
*1659 FILLER_0_126_718
*1660 FILLER_0_126_722
*1661 FILLER_0_126_726
*1662 FILLER_0_126_738
*1663 FILLER_0_126_742
*1664 FILLER_0_127_1464
*1665 FILLER_0_127_1468
*1666 FILLER_0_127_1480
*1667 FILLER_0_127_1492
*1668 FILLER_0_127_1504
*1669 FILLER_0_127_703
*1670 FILLER_0_127_708
*1671 FILLER_0_127_712
*1672 FILLER_0_127_716
*1673 FILLER_0_127_736
*1674 FILLER_0_127_740
*1675 FILLER_0_127_744
*1676 FILLER_0_128_1464
*1677 FILLER_0_128_1476
*1678 FILLER_0_128_1488
*1679 FILLER_0_128_1490
*1680 FILLER_0_128_1502
*1681 FILLER_0_128_1506
*1682 FILLER_0_128_712
*1683 FILLER_0_128_716
*1684 FILLER_0_128_720
*1685 FILLER_0_128_724
*1686 FILLER_0_128_729
*1687 FILLER_0_128_735
*1688 FILLER_0_128_739
*1689 FILLER_0_128_743
*1690 FILLER_0_129_1464
*1691 FILLER_0_129_1476
*1692 FILLER_0_129_1488
*1693 FILLER_0_129_1500
*1694 FILLER_0_129_1506
*1695 FILLER_0_129_703
*1696 FILLER_0_129_707
*1697 FILLER_0_129_712
*1698 FILLER_0_129_716
*1699 FILLER_0_129_720
*1700 FILLER_0_129_724
*1701 FILLER_0_129_728
*1702 FILLER_0_129_732
*1703 FILLER_0_129_743
*1704 FILLER_0_12_1464
*1705 FILLER_0_12_1476
*1706 FILLER_0_12_1488
*1707 FILLER_0_12_1490
*1708 FILLER_0_12_1502
*1709 FILLER_0_12_1506
*1710 FILLER_0_12_703
*1711 FILLER_0_12_715
*1712 FILLER_0_12_727
*1713 FILLER_0_12_729
*1714 FILLER_0_12_741
*1715 FILLER_0_130_1464
*1716 FILLER_0_130_1476
*1717 FILLER_0_130_1488
*1718 FILLER_0_130_1490
*1719 FILLER_0_130_1502
*1720 FILLER_0_130_1506
*1721 FILLER_0_130_703
*1722 FILLER_0_130_707
*1723 FILLER_0_130_719
*1724 FILLER_0_130_727
*1725 FILLER_0_130_729
*1726 FILLER_0_130_741
*1727 FILLER_0_131_1464
*1728 FILLER_0_131_1468
*1729 FILLER_0_131_1480
*1730 FILLER_0_131_1492
*1731 FILLER_0_131_1504
*1732 FILLER_0_131_703
*1733 FILLER_0_131_707
*1734 FILLER_0_131_713
*1735 FILLER_0_131_724
*1736 FILLER_0_131_728
*1737 FILLER_0_131_740
*1738 FILLER_0_131_746
*1739 FILLER_0_132_1464
*1740 FILLER_0_132_1476
*1741 FILLER_0_132_1488
*1742 FILLER_0_132_1490
*1743 FILLER_0_132_1502
*1744 FILLER_0_132_1506
*1745 FILLER_0_132_703
*1746 FILLER_0_132_715
*1747 FILLER_0_132_727
*1748 FILLER_0_132_729
*1749 FILLER_0_132_741
*1750 FILLER_0_133_1464
*1751 FILLER_0_133_1476
*1752 FILLER_0_133_1488
*1753 FILLER_0_133_1500
*1754 FILLER_0_133_1506
*1755 FILLER_0_133_703
*1756 FILLER_0_133_707
*1757 FILLER_0_133_711
*1758 FILLER_0_133_723
*1759 FILLER_0_133_735
*1760 FILLER_0_134_1464
*1761 FILLER_0_134_1476
*1762 FILLER_0_134_1488
*1763 FILLER_0_134_1490
*1764 FILLER_0_134_1502
*1765 FILLER_0_134_1506
*1766 FILLER_0_134_703
*1767 FILLER_0_134_709
*1768 FILLER_0_134_720
*1769 FILLER_0_134_724
*1770 FILLER_0_134_729
*1771 FILLER_0_134_733
*1772 FILLER_0_134_737
*1773 FILLER_0_134_741
*1774 FILLER_0_135_1464
*1775 FILLER_0_135_1468
*1776 FILLER_0_135_1480
*1777 FILLER_0_135_1492
*1778 FILLER_0_135_1504
*1779 FILLER_0_135_703
*1780 FILLER_0_135_707
*1781 FILLER_0_135_711
*1782 FILLER_0_135_719
*1783 FILLER_0_135_724
*1784 FILLER_0_135_735
*1785 FILLER_0_135_739
*1786 FILLER_0_135_743
*1787 FILLER_0_136_1464
*1788 FILLER_0_136_1476
*1789 FILLER_0_136_1488
*1790 FILLER_0_136_1490
*1791 FILLER_0_136_1502
*1792 FILLER_0_136_1506
*1793 FILLER_0_136_703
*1794 FILLER_0_136_711
*1795 FILLER_0_136_714
*1796 FILLER_0_136_718
*1797 FILLER_0_136_722
*1798 FILLER_0_136_726
*1799 FILLER_0_136_729
*1800 FILLER_0_136_733
*1801 FILLER_0_136_736
*1802 FILLER_0_137_1464
*1803 FILLER_0_137_1476
*1804 FILLER_0_137_1488
*1805 FILLER_0_137_1500
*1806 FILLER_0_137_1506
*1807 FILLER_0_137_723
*1808 FILLER_0_137_735
*1809 FILLER_0_137_743
*1810 FILLER_0_138_1464
*1811 FILLER_0_138_1476
*1812 FILLER_0_138_1488
*1813 FILLER_0_138_1490
*1814 FILLER_0_138_1502
*1815 FILLER_0_138_1506
*1816 FILLER_0_138_703
*1817 FILLER_0_138_707
*1818 FILLER_0_138_719
*1819 FILLER_0_138_727
*1820 FILLER_0_138_729
*1821 FILLER_0_138_741
*1822 FILLER_0_139_1464
*1823 FILLER_0_139_1468
*1824 FILLER_0_139_1480
*1825 FILLER_0_139_1492
*1826 FILLER_0_139_1504
*1827 FILLER_0_139_703
*1828 FILLER_0_139_707
*1829 FILLER_0_139_711
*1830 FILLER_0_139_715
*1831 FILLER_0_139_727
*1832 FILLER_0_139_739
*1833 FILLER_0_13_1464
*1834 FILLER_0_13_1476
*1835 FILLER_0_13_1488
*1836 FILLER_0_13_1500
*1837 FILLER_0_13_1506
*1838 FILLER_0_13_703
*1839 FILLER_0_13_715
*1840 FILLER_0_13_727
*1841 FILLER_0_13_739
*1842 FILLER_0_140_1464
*1843 FILLER_0_140_1476
*1844 FILLER_0_140_1488
*1845 FILLER_0_140_1490
*1846 FILLER_0_140_1502
*1847 FILLER_0_140_1506
*1848 FILLER_0_140_703
*1849 FILLER_0_140_709
*1850 FILLER_0_140_720
*1851 FILLER_0_140_724
*1852 FILLER_0_140_729
*1853 FILLER_0_140_733
*1854 FILLER_0_140_737
*1855 FILLER_0_140_741
*1856 FILLER_0_141_1464
*1857 FILLER_0_141_1476
*1858 FILLER_0_141_1488
*1859 FILLER_0_141_1500
*1860 FILLER_0_141_1506
*1861 FILLER_0_141_703
*1862 FILLER_0_141_707
*1863 FILLER_0_141_711
*1864 FILLER_0_141_715
*1865 FILLER_0_141_719
*1866 FILLER_0_141_723
*1867 FILLER_0_141_727
*1868 FILLER_0_142_1464
*1869 FILLER_0_142_1476
*1870 FILLER_0_142_1488
*1871 FILLER_0_142_1490
*1872 FILLER_0_142_1502
*1873 FILLER_0_142_1506
*1874 FILLER_0_142_703
*1875 FILLER_0_142_707
*1876 FILLER_0_142_711
*1877 FILLER_0_142_723
*1878 FILLER_0_142_727
*1879 FILLER_0_142_729
*1880 FILLER_0_142_739
*1881 FILLER_0_142_743
*1882 FILLER_0_143_1464
*1883 FILLER_0_143_1468
*1884 FILLER_0_143_1480
*1885 FILLER_0_143_1492
*1886 FILLER_0_143_1504
*1887 FILLER_0_143_712
*1888 FILLER_0_143_716
*1889 FILLER_0_143_720
*1890 FILLER_0_143_724
*1891 FILLER_0_143_736
*1892 FILLER_0_143_744
*1893 FILLER_0_144_1464
*1894 FILLER_0_144_1476
*1895 FILLER_0_144_1488
*1896 FILLER_0_144_1490
*1897 FILLER_0_144_1502
*1898 FILLER_0_144_1506
*1899 FILLER_0_144_703
*1900 FILLER_0_144_707
*1901 FILLER_0_144_711
*1902 FILLER_0_144_723
*1903 FILLER_0_144_727
*1904 FILLER_0_144_729
*1905 FILLER_0_144_741
*1906 FILLER_0_145_1464
*1907 FILLER_0_145_1476
*1908 FILLER_0_145_1488
*1909 FILLER_0_145_1500
*1910 FILLER_0_145_1506
*1911 FILLER_0_145_703
*1912 FILLER_0_145_707
*1913 FILLER_0_145_719
*1914 FILLER_0_145_731
*1915 FILLER_0_145_743
*1916 FILLER_0_146_1464
*1917 FILLER_0_146_1476
*1918 FILLER_0_146_1488
*1919 FILLER_0_146_1490
*1920 FILLER_0_146_1502
*1921 FILLER_0_146_1506
*1922 FILLER_0_146_712
*1923 FILLER_0_146_716
*1924 FILLER_0_146_720
*1925 FILLER_0_146_724
*1926 FILLER_0_146_729
*1927 FILLER_0_146_741
*1928 FILLER_0_147_1464
*1929 FILLER_0_147_1468
*1930 FILLER_0_147_1480
*1931 FILLER_0_147_1492
*1932 FILLER_0_147_1504
*1933 FILLER_0_147_703
*1934 FILLER_0_147_707
*1935 FILLER_0_147_711
*1936 FILLER_0_147_723
*1937 FILLER_0_147_735
*1938 FILLER_0_148_1464
*1939 FILLER_0_148_1476
*1940 FILLER_0_148_1488
*1941 FILLER_0_148_1490
*1942 FILLER_0_148_1502
*1943 FILLER_0_148_1506
*1944 FILLER_0_148_703
*1945 FILLER_0_148_715
*1946 FILLER_0_148_727
*1947 FILLER_0_148_729
*1948 FILLER_0_148_741
*1949 FILLER_0_149_1464
*1950 FILLER_0_149_1476
*1951 FILLER_0_149_1488
*1952 FILLER_0_149_1500
*1953 FILLER_0_149_1506
*1954 FILLER_0_149_703
*1955 FILLER_0_149_715
*1956 FILLER_0_149_727
*1957 FILLER_0_149_739
*1958 FILLER_0_14_1464
*1959 FILLER_0_14_1476
*1960 FILLER_0_14_1488
*1961 FILLER_0_14_1490
*1962 FILLER_0_14_1502
*1963 FILLER_0_14_1506
*1964 FILLER_0_14_703
*1965 FILLER_0_14_715
*1966 FILLER_0_14_727
*1967 FILLER_0_14_729
*1968 FILLER_0_14_741
*1969 FILLER_0_150_1464
*1970 FILLER_0_150_1476
*1971 FILLER_0_150_1488
*1972 FILLER_0_150_1490
*1973 FILLER_0_150_1502
*1974 FILLER_0_150_1506
*1975 FILLER_0_150_703
*1976 FILLER_0_150_715
*1977 FILLER_0_150_727
*1978 FILLER_0_150_729
*1979 FILLER_0_150_741
*1980 FILLER_0_151_1464
*1981 FILLER_0_151_1468
*1982 FILLER_0_151_1480
*1983 FILLER_0_151_1492
*1984 FILLER_0_151_1504
*1985 FILLER_0_151_703
*1986 FILLER_0_151_707
*1987 FILLER_0_151_719
*1988 FILLER_0_151_731
*1989 FILLER_0_151_743
*1990 FILLER_0_152_1464
*1991 FILLER_0_152_1476
*1992 FILLER_0_152_1488
*1993 FILLER_0_152_1490
*1994 FILLER_0_152_1502
*1995 FILLER_0_152_1506
*1996 FILLER_0_152_703
*1997 FILLER_0_152_715
*1998 FILLER_0_152_727
*1999 FILLER_0_152_729
*2000 FILLER_0_152_741
*2001 FILLER_0_153_1464
*2002 FILLER_0_153_1476
*2003 FILLER_0_153_1488
*2004 FILLER_0_153_1500
*2005 FILLER_0_153_1506
*2006 FILLER_0_153_703
*2007 FILLER_0_153_715
*2008 FILLER_0_153_727
*2009 FILLER_0_153_739
*2010 FILLER_0_154_1464
*2011 FILLER_0_154_1476
*2012 FILLER_0_154_1488
*2013 FILLER_0_154_1490
*2014 FILLER_0_154_1502
*2015 FILLER_0_154_1506
*2016 FILLER_0_154_703
*2017 FILLER_0_154_715
*2018 FILLER_0_154_727
*2019 FILLER_0_154_729
*2020 FILLER_0_154_741
*2021 FILLER_0_155_1464
*2022 FILLER_0_155_1476
*2023 FILLER_0_155_1488
*2024 FILLER_0_155_1500
*2025 FILLER_0_155_1506
*2026 FILLER_0_155_703
*2027 FILLER_0_155_715
*2028 FILLER_0_155_727
*2029 FILLER_0_155_739
*2030 FILLER_0_156_1464
*2031 FILLER_0_156_1476
*2032 FILLER_0_156_1488
*2033 FILLER_0_156_1490
*2034 FILLER_0_156_1502
*2035 FILLER_0_156_1506
*2036 FILLER_0_156_703
*2037 FILLER_0_156_715
*2038 FILLER_0_156_727
*2039 FILLER_0_156_729
*2040 FILLER_0_156_741
*2041 FILLER_0_157_1464
*2042 FILLER_0_157_1476
*2043 FILLER_0_157_1488
*2044 FILLER_0_157_1500
*2045 FILLER_0_157_1506
*2046 FILLER_0_157_703
*2047 FILLER_0_157_715
*2048 FILLER_0_157_727
*2049 FILLER_0_157_739
*2050 FILLER_0_158_1464
*2051 FILLER_0_158_1476
*2052 FILLER_0_158_1488
*2053 FILLER_0_158_1490
*2054 FILLER_0_158_1502
*2055 FILLER_0_158_1506
*2056 FILLER_0_158_703
*2057 FILLER_0_158_715
*2058 FILLER_0_158_727
*2059 FILLER_0_158_729
*2060 FILLER_0_158_741
*2061 FILLER_0_159_1003
*2062 FILLER_0_159_1007
*2063 FILLER_0_159_1009
*2064 FILLER_0_159_1013
*2065 FILLER_0_159_1017
*2066 FILLER_0_159_1021
*2067 FILLER_0_159_1025
*2068 FILLER_0_159_1029
*2069 FILLER_0_159_1035
*2070 FILLER_0_159_1057
*2071 FILLER_0_159_1061
*2072 FILLER_0_159_1065
*2073 FILLER_0_159_1070
*2074 FILLER_0_159_1075
*2075 FILLER_0_159_1080
*2076 FILLER_0_159_109
*2077 FILLER_0_159_1093
*2078 FILLER_0_159_1101
*2079 FILLER_0_159_1105
*2080 FILLER_0_159_1109
*2081 FILLER_0_159_1113
*2082 FILLER_0_159_1117
*2083 FILLER_0_159_1121
*2084 FILLER_0_159_113
*2085 FILLER_0_159_1133
*2086 FILLER_0_159_1141
*2087 FILLER_0_159_1144
*2088 FILLER_0_159_1149
*2089 FILLER_0_159_1161
*2090 FILLER_0_159_1173
*2091 FILLER_0_159_1177
*2092 FILLER_0_159_1182
*2093 FILLER_0_159_1186
*2094 FILLER_0_159_1190
*2095 FILLER_0_159_1194
*2096 FILLER_0_159_1198
*2097 FILLER_0_159_1202
*2098 FILLER_0_159_1217
*2099 FILLER_0_159_1221
*2100 FILLER_0_159_1225
*2101 FILLER_0_159_1229
*2102 FILLER_0_159_1233
*2103 FILLER_0_159_1249
*2104 FILLER_0_159_125
*2105 FILLER_0_159_1253
*2106 FILLER_0_159_1257
*2107 FILLER_0_159_1261
*2108 FILLER_0_159_1273
*2109 FILLER_0_159_1285
*2110 FILLER_0_159_1289
*2111 FILLER_0_159_1294
*2112 FILLER_0_159_1308
*2113 FILLER_0_159_1312
*2114 FILLER_0_159_1317
*2115 FILLER_0_159_1329
*2116 FILLER_0_159_1341
*2117 FILLER_0_159_1345
*2118 FILLER_0_159_1357
*2119 FILLER_0_159_1369
*2120 FILLER_0_159_137
*2121 FILLER_0_159_1373
*2122 FILLER_0_159_1385
*2123 FILLER_0_159_1397
*2124 FILLER_0_159_1401
*2125 FILLER_0_159_141
*2126 FILLER_0_159_1413
*2127 FILLER_0_159_1425
*2128 FILLER_0_159_1429
*2129 FILLER_0_159_1441
*2130 FILLER_0_159_1453
*2131 FILLER_0_159_1457
*2132 FILLER_0_159_1469
*2133 FILLER_0_159_1481
*2134 FILLER_0_159_1485
*2135 FILLER_0_159_1497
*2136 FILLER_0_159_15
*2137 FILLER_0_159_1505
*2138 FILLER_0_159_153
*2139 FILLER_0_159_165
*2140 FILLER_0_159_169
*2141 FILLER_0_159_181
*2142 FILLER_0_159_193
*2143 FILLER_0_159_197
*2144 FILLER_0_159_209
*2145 FILLER_0_159_221
*2146 FILLER_0_159_225
*2147 FILLER_0_159_237
*2148 FILLER_0_159_249
*2149 FILLER_0_159_253
*2150 FILLER_0_159_265
*2151 FILLER_0_159_27
*2152 FILLER_0_159_277
*2153 FILLER_0_159_281
*2154 FILLER_0_159_29
*2155 FILLER_0_159_293
*2156 FILLER_0_159_3
*2157 FILLER_0_159_305
*2158 FILLER_0_159_309
*2159 FILLER_0_159_321
*2160 FILLER_0_159_333
*2161 FILLER_0_159_337
*2162 FILLER_0_159_349
*2163 FILLER_0_159_361
*2164 FILLER_0_159_365
*2165 FILLER_0_159_377
*2166 FILLER_0_159_389
*2167 FILLER_0_159_393
*2168 FILLER_0_159_405
*2169 FILLER_0_159_41
*2170 FILLER_0_159_417
*2171 FILLER_0_159_421
*2172 FILLER_0_159_433
*2173 FILLER_0_159_445
*2174 FILLER_0_159_449
*2175 FILLER_0_159_461
*2176 FILLER_0_159_473
*2177 FILLER_0_159_477
*2178 FILLER_0_159_489
*2179 FILLER_0_159_501
*2180 FILLER_0_159_505
*2181 FILLER_0_159_517
*2182 FILLER_0_159_529
*2183 FILLER_0_159_53
*2184 FILLER_0_159_545
*2185 FILLER_0_159_549
*2186 FILLER_0_159_557
*2187 FILLER_0_159_561
*2188 FILLER_0_159_57
*2189 FILLER_0_159_574
*2190 FILLER_0_159_578
*2191 FILLER_0_159_586
*2192 FILLER_0_159_589
*2193 FILLER_0_159_601
*2194 FILLER_0_159_613
*2195 FILLER_0_159_617
*2196 FILLER_0_159_629
*2197 FILLER_0_159_641
*2198 FILLER_0_159_645
*2199 FILLER_0_159_657
*2200 FILLER_0_159_669
*2201 FILLER_0_159_673
*2202 FILLER_0_159_685
*2203 FILLER_0_159_69
*2204 FILLER_0_159_697
*2205 FILLER_0_159_701
*2206 FILLER_0_159_713
*2207 FILLER_0_159_725
*2208 FILLER_0_159_729
*2209 FILLER_0_159_741
*2210 FILLER_0_159_753
*2211 FILLER_0_159_757
*2212 FILLER_0_159_769
*2213 FILLER_0_159_781
*2214 FILLER_0_159_785
*2215 FILLER_0_159_797
*2216 FILLER_0_159_809
*2217 FILLER_0_159_81
*2218 FILLER_0_159_813
*2219 FILLER_0_159_825
*2220 FILLER_0_159_837
*2221 FILLER_0_159_841
*2222 FILLER_0_159_85
*2223 FILLER_0_159_853
*2224 FILLER_0_159_865
*2225 FILLER_0_159_869
*2226 FILLER_0_159_881
*2227 FILLER_0_159_893
*2228 FILLER_0_159_897
*2229 FILLER_0_159_903
*2230 FILLER_0_159_906
*2231 FILLER_0_159_910
*2232 FILLER_0_159_914
*2233 FILLER_0_159_918
*2234 FILLER_0_159_922
*2235 FILLER_0_159_925
*2236 FILLER_0_159_940
*2237 FILLER_0_159_944
*2238 FILLER_0_159_948
*2239 FILLER_0_159_953
*2240 FILLER_0_159_957
*2241 FILLER_0_159_961
*2242 FILLER_0_159_965
*2243 FILLER_0_159_97
*2244 FILLER_0_159_970
*2245 FILLER_0_159_974
*2246 FILLER_0_159_978
*2247 FILLER_0_159_981
*2248 FILLER_0_159_985
*2249 FILLER_0_159_989
*2250 FILLER_0_15_1464
*2251 FILLER_0_15_1476
*2252 FILLER_0_15_1488
*2253 FILLER_0_15_1500
*2254 FILLER_0_15_1506
*2255 FILLER_0_15_712
*2256 FILLER_0_15_724
*2257 FILLER_0_15_736
*2258 FILLER_0_15_744
*2259 FILLER_0_160_1005
*2260 FILLER_0_160_1013
*2261 FILLER_0_160_1018
*2262 FILLER_0_160_1022
*2263 FILLER_0_160_1026
*2264 FILLER_0_160_1030
*2265 FILLER_0_160_1034
*2266 FILLER_0_160_1037
*2267 FILLER_0_160_1041
*2268 FILLER_0_160_1054
*2269 FILLER_0_160_1058
*2270 FILLER_0_160_1062
*2271 FILLER_0_160_1066
*2272 FILLER_0_160_1070
*2273 FILLER_0_160_1073
*2274 FILLER_0_160_1087
*2275 FILLER_0_160_109
*2276 FILLER_0_160_1091
*2277 FILLER_0_160_1093
*2278 FILLER_0_160_1097
*2279 FILLER_0_160_1101
*2280 FILLER_0_160_1118
*2281 FILLER_0_160_1122
*2282 FILLER_0_160_1126
*2283 FILLER_0_160_1130
*2284 FILLER_0_160_1134
*2285 FILLER_0_160_1138
*2286 FILLER_0_160_1142
*2287 FILLER_0_160_1146
*2288 FILLER_0_160_1161
*2289 FILLER_0_160_1165
*2290 FILLER_0_160_1169
*2291 FILLER_0_160_1173
*2292 FILLER_0_160_1177
*2293 FILLER_0_160_1181
*2294 FILLER_0_160_1185
*2295 FILLER_0_160_1189
*2296 FILLER_0_160_1193
*2297 FILLER_0_160_1197
*2298 FILLER_0_160_1201
*2299 FILLER_0_160_1205
*2300 FILLER_0_160_121
*2301 FILLER_0_160_1217
*2302 FILLER_0_160_1229
*2303 FILLER_0_160_1243
*2304 FILLER_0_160_1255
*2305 FILLER_0_160_1259
*2306 FILLER_0_160_1261
*2307 FILLER_0_160_1273
*2308 FILLER_0_160_1285
*2309 FILLER_0_160_1297
*2310 FILLER_0_160_1309
*2311 FILLER_0_160_1315
*2312 FILLER_0_160_1317
*2313 FILLER_0_160_1329
*2314 FILLER_0_160_133
*2315 FILLER_0_160_1341
*2316 FILLER_0_160_1353
*2317 FILLER_0_160_1365
*2318 FILLER_0_160_1371
*2319 FILLER_0_160_1373
*2320 FILLER_0_160_1385
*2321 FILLER_0_160_139
*2322 FILLER_0_160_1397
*2323 FILLER_0_160_1409
*2324 FILLER_0_160_141
*2325 FILLER_0_160_1421
*2326 FILLER_0_160_1427
*2327 FILLER_0_160_1429
*2328 FILLER_0_160_1441
*2329 FILLER_0_160_1453
*2330 FILLER_0_160_1465
*2331 FILLER_0_160_1477
*2332 FILLER_0_160_1483
*2333 FILLER_0_160_1485
*2334 FILLER_0_160_1497
*2335 FILLER_0_160_15
*2336 FILLER_0_160_1505
*2337 FILLER_0_160_153
*2338 FILLER_0_160_165
*2339 FILLER_0_160_177
*2340 FILLER_0_160_189
*2341 FILLER_0_160_195
*2342 FILLER_0_160_197
*2343 FILLER_0_160_209
*2344 FILLER_0_160_221
*2345 FILLER_0_160_233
*2346 FILLER_0_160_245
*2347 FILLER_0_160_251
*2348 FILLER_0_160_253
*2349 FILLER_0_160_265
*2350 FILLER_0_160_27
*2351 FILLER_0_160_277
*2352 FILLER_0_160_289
*2353 FILLER_0_160_29
*2354 FILLER_0_160_3
*2355 FILLER_0_160_301
*2356 FILLER_0_160_307
*2357 FILLER_0_160_309
*2358 FILLER_0_160_321
*2359 FILLER_0_160_333
*2360 FILLER_0_160_345
*2361 FILLER_0_160_357
*2362 FILLER_0_160_363
*2363 FILLER_0_160_365
*2364 FILLER_0_160_377
*2365 FILLER_0_160_389
*2366 FILLER_0_160_401
*2367 FILLER_0_160_41
*2368 FILLER_0_160_413
*2369 FILLER_0_160_419
*2370 FILLER_0_160_421
*2371 FILLER_0_160_433
*2372 FILLER_0_160_445
*2373 FILLER_0_160_457
*2374 FILLER_0_160_469
*2375 FILLER_0_160_475
*2376 FILLER_0_160_477
*2377 FILLER_0_160_489
*2378 FILLER_0_160_501
*2379 FILLER_0_160_513
*2380 FILLER_0_160_525
*2381 FILLER_0_160_53
*2382 FILLER_0_160_531
*2383 FILLER_0_160_533
*2384 FILLER_0_160_545
*2385 FILLER_0_160_557
*2386 FILLER_0_160_569
*2387 FILLER_0_160_581
*2388 FILLER_0_160_587
*2389 FILLER_0_160_589
*2390 FILLER_0_160_593
*2391 FILLER_0_160_604
*2392 FILLER_0_160_608
*2393 FILLER_0_160_612
*2394 FILLER_0_160_624
*2395 FILLER_0_160_636
*2396 FILLER_0_160_645
*2397 FILLER_0_160_65
*2398 FILLER_0_160_657
*2399 FILLER_0_160_669
*2400 FILLER_0_160_681
*2401 FILLER_0_160_693
*2402 FILLER_0_160_699
*2403 FILLER_0_160_701
*2404 FILLER_0_160_713
*2405 FILLER_0_160_725
*2406 FILLER_0_160_737
*2407 FILLER_0_160_749
*2408 FILLER_0_160_755
*2409 FILLER_0_160_757
*2410 FILLER_0_160_769
*2411 FILLER_0_160_77
*2412 FILLER_0_160_781
*2413 FILLER_0_160_793
*2414 FILLER_0_160_805
*2415 FILLER_0_160_811
*2416 FILLER_0_160_813
*2417 FILLER_0_160_825
*2418 FILLER_0_160_83
*2419 FILLER_0_160_837
*2420 FILLER_0_160_849
*2421 FILLER_0_160_85
*2422 FILLER_0_160_861
*2423 FILLER_0_160_867
*2424 FILLER_0_160_869
*2425 FILLER_0_160_881
*2426 FILLER_0_160_893
*2427 FILLER_0_160_905
*2428 FILLER_0_160_917
*2429 FILLER_0_160_923
*2430 FILLER_0_160_925
*2431 FILLER_0_160_937
*2432 FILLER_0_160_949
*2433 FILLER_0_160_961
*2434 FILLER_0_160_966
*2435 FILLER_0_160_97
*2436 FILLER_0_160_978
*2437 FILLER_0_160_981
*2438 FILLER_0_160_993
*2439 FILLER_0_161_1002
*2440 FILLER_0_161_1006
*2441 FILLER_0_161_1009
*2442 FILLER_0_161_1013
*2443 FILLER_0_161_1016
*2444 FILLER_0_161_1030
*2445 FILLER_0_161_1034
*2446 FILLER_0_161_1038
*2447 FILLER_0_161_1042
*2448 FILLER_0_161_1046
*2449 FILLER_0_161_105
*2450 FILLER_0_161_1050
*2451 FILLER_0_161_1054
*2452 FILLER_0_161_1062
*2453 FILLER_0_161_1065
*2454 FILLER_0_161_1077
*2455 FILLER_0_161_1089
*2456 FILLER_0_161_1101
*2457 FILLER_0_161_1109
*2458 FILLER_0_161_111
*2459 FILLER_0_161_1113
*2460 FILLER_0_161_1117
*2461 FILLER_0_161_1121
*2462 FILLER_0_161_113
*2463 FILLER_0_161_1133
*2464 FILLER_0_161_1141
*2465 FILLER_0_161_1144
*2466 FILLER_0_161_1148
*2467 FILLER_0_161_1152
*2468 FILLER_0_161_1166
*2469 FILLER_0_161_1170
*2470 FILLER_0_161_1174
*2471 FILLER_0_161_1189
*2472 FILLER_0_161_1193
*2473 FILLER_0_161_1197
*2474 FILLER_0_161_1201
*2475 FILLER_0_161_1209
*2476 FILLER_0_161_1223
*2477 FILLER_0_161_1227
*2478 FILLER_0_161_1231
*2479 FILLER_0_161_1233
*2480 FILLER_0_161_1247
*2481 FILLER_0_161_125
*2482 FILLER_0_161_1261
*2483 FILLER_0_161_1265
*2484 FILLER_0_161_1277
*2485 FILLER_0_161_1285
*2486 FILLER_0_161_1289
*2487 FILLER_0_161_1301
*2488 FILLER_0_161_1313
*2489 FILLER_0_161_1325
*2490 FILLER_0_161_1337
*2491 FILLER_0_161_1343
*2492 FILLER_0_161_1345
*2493 FILLER_0_161_1357
*2494 FILLER_0_161_1369
*2495 FILLER_0_161_137
*2496 FILLER_0_161_1381
*2497 FILLER_0_161_1393
*2498 FILLER_0_161_1399
*2499 FILLER_0_161_1401
*2500 FILLER_0_161_1413
*2501 FILLER_0_161_1425
*2502 FILLER_0_161_1437
*2503 FILLER_0_161_1449
*2504 FILLER_0_161_1455
*2505 FILLER_0_161_1457
*2506 FILLER_0_161_1469
*2507 FILLER_0_161_1481
*2508 FILLER_0_161_149
*2509 FILLER_0_161_1493
*2510 FILLER_0_161_15
*2511 FILLER_0_161_1505
*2512 FILLER_0_161_161
*2513 FILLER_0_161_167
*2514 FILLER_0_161_169
*2515 FILLER_0_161_181
*2516 FILLER_0_161_193
*2517 FILLER_0_161_205
*2518 FILLER_0_161_217
*2519 FILLER_0_161_223
*2520 FILLER_0_161_225
*2521 FILLER_0_161_237
*2522 FILLER_0_161_249
*2523 FILLER_0_161_261
*2524 FILLER_0_161_27
*2525 FILLER_0_161_273
*2526 FILLER_0_161_279
*2527 FILLER_0_161_281
*2528 FILLER_0_161_293
*2529 FILLER_0_161_3
*2530 FILLER_0_161_305
*2531 FILLER_0_161_317
*2532 FILLER_0_161_329
*2533 FILLER_0_161_335
*2534 FILLER_0_161_337
*2535 FILLER_0_161_349
*2536 FILLER_0_161_361
*2537 FILLER_0_161_373
*2538 FILLER_0_161_385
*2539 FILLER_0_161_39
*2540 FILLER_0_161_391
*2541 FILLER_0_161_393
*2542 FILLER_0_161_405
*2543 FILLER_0_161_417
*2544 FILLER_0_161_429
*2545 FILLER_0_161_441
*2546 FILLER_0_161_447
*2547 FILLER_0_161_449
*2548 FILLER_0_161_461
*2549 FILLER_0_161_473
*2550 FILLER_0_161_485
*2551 FILLER_0_161_497
*2552 FILLER_0_161_503
*2553 FILLER_0_161_505
*2554 FILLER_0_161_51
*2555 FILLER_0_161_517
*2556 FILLER_0_161_529
*2557 FILLER_0_161_541
*2558 FILLER_0_161_55
*2559 FILLER_0_161_553
*2560 FILLER_0_161_559
*2561 FILLER_0_161_561
*2562 FILLER_0_161_57
*2563 FILLER_0_161_573
*2564 FILLER_0_161_585
*2565 FILLER_0_161_597
*2566 FILLER_0_161_609
*2567 FILLER_0_161_615
*2568 FILLER_0_161_617
*2569 FILLER_0_161_629
*2570 FILLER_0_161_641
*2571 FILLER_0_161_653
*2572 FILLER_0_161_665
*2573 FILLER_0_161_671
*2574 FILLER_0_161_673
*2575 FILLER_0_161_685
*2576 FILLER_0_161_69
*2577 FILLER_0_161_697
*2578 FILLER_0_161_709
*2579 FILLER_0_161_721
*2580 FILLER_0_161_727
*2581 FILLER_0_161_729
*2582 FILLER_0_161_741
*2583 FILLER_0_161_753
*2584 FILLER_0_161_765
*2585 FILLER_0_161_777
*2586 FILLER_0_161_783
*2587 FILLER_0_161_785
*2588 FILLER_0_161_797
*2589 FILLER_0_161_809
*2590 FILLER_0_161_81
*2591 FILLER_0_161_821
*2592 FILLER_0_161_833
*2593 FILLER_0_161_839
*2594 FILLER_0_161_841
*2595 FILLER_0_161_853
*2596 FILLER_0_161_865
*2597 FILLER_0_161_877
*2598 FILLER_0_161_889
*2599 FILLER_0_161_895
*2600 FILLER_0_161_897
*2601 FILLER_0_161_909
*2602 FILLER_0_161_921
*2603 FILLER_0_161_93
*2604 FILLER_0_161_931
*2605 FILLER_0_161_935
*2606 FILLER_0_161_945
*2607 FILLER_0_161_951
*2608 FILLER_0_161_953
*2609 FILLER_0_161_965
*2610 FILLER_0_161_977
*2611 FILLER_0_161_989
*2612 FILLER_0_161_995
*2613 FILLER_0_161_998
*2614 FILLER_0_162_1005
*2615 FILLER_0_162_1017
*2616 FILLER_0_162_1029
*2617 FILLER_0_162_1035
*2618 FILLER_0_162_1037
*2619 FILLER_0_162_1049
*2620 FILLER_0_162_1061
*2621 FILLER_0_162_1073
*2622 FILLER_0_162_1085
*2623 FILLER_0_162_109
*2624 FILLER_0_162_1091
*2625 FILLER_0_162_1093
*2626 FILLER_0_162_1105
*2627 FILLER_0_162_1113
*2628 FILLER_0_162_1125
*2629 FILLER_0_162_1137
*2630 FILLER_0_162_1145
*2631 FILLER_0_162_1149
*2632 FILLER_0_162_1161
*2633 FILLER_0_162_1173
*2634 FILLER_0_162_1187
*2635 FILLER_0_162_1199
*2636 FILLER_0_162_1203
*2637 FILLER_0_162_1205
*2638 FILLER_0_162_121
*2639 FILLER_0_162_1217
*2640 FILLER_0_162_1229
*2641 FILLER_0_162_1241
*2642 FILLER_0_162_1253
*2643 FILLER_0_162_1259
*2644 FILLER_0_162_1261
*2645 FILLER_0_162_1273
*2646 FILLER_0_162_1285
*2647 FILLER_0_162_1297
*2648 FILLER_0_162_1309
*2649 FILLER_0_162_1315
*2650 FILLER_0_162_1317
*2651 FILLER_0_162_1329
*2652 FILLER_0_162_133
*2653 FILLER_0_162_1341
*2654 FILLER_0_162_1353
*2655 FILLER_0_162_1365
*2656 FILLER_0_162_1371
*2657 FILLER_0_162_1373
*2658 FILLER_0_162_1385
*2659 FILLER_0_162_139
*2660 FILLER_0_162_1397
*2661 FILLER_0_162_1409
*2662 FILLER_0_162_141
*2663 FILLER_0_162_1421
*2664 FILLER_0_162_1427
*2665 FILLER_0_162_1429
*2666 FILLER_0_162_1441
*2667 FILLER_0_162_1453
*2668 FILLER_0_162_1465
*2669 FILLER_0_162_1477
*2670 FILLER_0_162_1483
*2671 FILLER_0_162_1485
*2672 FILLER_0_162_1497
*2673 FILLER_0_162_15
*2674 FILLER_0_162_1505
*2675 FILLER_0_162_153
*2676 FILLER_0_162_165
*2677 FILLER_0_162_177
*2678 FILLER_0_162_189
*2679 FILLER_0_162_195
*2680 FILLER_0_162_197
*2681 FILLER_0_162_209
*2682 FILLER_0_162_221
*2683 FILLER_0_162_233
*2684 FILLER_0_162_245
*2685 FILLER_0_162_251
*2686 FILLER_0_162_253
*2687 FILLER_0_162_265
*2688 FILLER_0_162_27
*2689 FILLER_0_162_277
*2690 FILLER_0_162_289
*2691 FILLER_0_162_29
*2692 FILLER_0_162_3
*2693 FILLER_0_162_301
*2694 FILLER_0_162_307
*2695 FILLER_0_162_309
*2696 FILLER_0_162_321
*2697 FILLER_0_162_333
*2698 FILLER_0_162_345
*2699 FILLER_0_162_357
*2700 FILLER_0_162_363
*2701 FILLER_0_162_365
*2702 FILLER_0_162_377
*2703 FILLER_0_162_389
*2704 FILLER_0_162_401
*2705 FILLER_0_162_41
*2706 FILLER_0_162_413
*2707 FILLER_0_162_419
*2708 FILLER_0_162_421
*2709 FILLER_0_162_433
*2710 FILLER_0_162_445
*2711 FILLER_0_162_457
*2712 FILLER_0_162_469
*2713 FILLER_0_162_475
*2714 FILLER_0_162_477
*2715 FILLER_0_162_489
*2716 FILLER_0_162_501
*2717 FILLER_0_162_513
*2718 FILLER_0_162_525
*2719 FILLER_0_162_53
*2720 FILLER_0_162_531
*2721 FILLER_0_162_533
*2722 FILLER_0_162_545
*2723 FILLER_0_162_557
*2724 FILLER_0_162_569
*2725 FILLER_0_162_575
*2726 FILLER_0_162_589
*2727 FILLER_0_162_601
*2728 FILLER_0_162_613
*2729 FILLER_0_162_625
*2730 FILLER_0_162_637
*2731 FILLER_0_162_643
*2732 FILLER_0_162_645
*2733 FILLER_0_162_65
*2734 FILLER_0_162_657
*2735 FILLER_0_162_669
*2736 FILLER_0_162_681
*2737 FILLER_0_162_693
*2738 FILLER_0_162_699
*2739 FILLER_0_162_701
*2740 FILLER_0_162_713
*2741 FILLER_0_162_725
*2742 FILLER_0_162_737
*2743 FILLER_0_162_749
*2744 FILLER_0_162_755
*2745 FILLER_0_162_757
*2746 FILLER_0_162_769
*2747 FILLER_0_162_77
*2748 FILLER_0_162_781
*2749 FILLER_0_162_793
*2750 FILLER_0_162_805
*2751 FILLER_0_162_811
*2752 FILLER_0_162_813
*2753 FILLER_0_162_825
*2754 FILLER_0_162_83
*2755 FILLER_0_162_837
*2756 FILLER_0_162_849
*2757 FILLER_0_162_85
*2758 FILLER_0_162_861
*2759 FILLER_0_162_867
*2760 FILLER_0_162_869
*2761 FILLER_0_162_881
*2762 FILLER_0_162_893
*2763 FILLER_0_162_905
*2764 FILLER_0_162_917
*2765 FILLER_0_162_923
*2766 FILLER_0_162_925
*2767 FILLER_0_162_937
*2768 FILLER_0_162_949
*2769 FILLER_0_162_961
*2770 FILLER_0_162_97
*2771 FILLER_0_162_973
*2772 FILLER_0_162_979
*2773 FILLER_0_162_981
*2774 FILLER_0_162_993
*2775 FILLER_0_163_1001
*2776 FILLER_0_163_1007
*2777 FILLER_0_163_1009
*2778 FILLER_0_163_1021
*2779 FILLER_0_163_1033
*2780 FILLER_0_163_1045
*2781 FILLER_0_163_105
*2782 FILLER_0_163_1057
*2783 FILLER_0_163_1063
*2784 FILLER_0_163_1065
*2785 FILLER_0_163_1080
*2786 FILLER_0_163_1092
*2787 FILLER_0_163_1104
*2788 FILLER_0_163_111
*2789 FILLER_0_163_1116
*2790 FILLER_0_163_1121
*2791 FILLER_0_163_113
*2792 FILLER_0_163_1133
*2793 FILLER_0_163_1145
*2794 FILLER_0_163_1157
*2795 FILLER_0_163_1169
*2796 FILLER_0_163_1175
*2797 FILLER_0_163_1177
*2798 FILLER_0_163_1189
*2799 FILLER_0_163_1201
*2800 FILLER_0_163_1213
*2801 FILLER_0_163_1225
*2802 FILLER_0_163_1231
*2803 FILLER_0_163_1233
*2804 FILLER_0_163_1245
*2805 FILLER_0_163_125
*2806 FILLER_0_163_1257
*2807 FILLER_0_163_1269
*2808 FILLER_0_163_1281
*2809 FILLER_0_163_1287
*2810 FILLER_0_163_1289
*2811 FILLER_0_163_1301
*2812 FILLER_0_163_1313
*2813 FILLER_0_163_1325
*2814 FILLER_0_163_1337
*2815 FILLER_0_163_1343
*2816 FILLER_0_163_1345
*2817 FILLER_0_163_1357
*2818 FILLER_0_163_1369
*2819 FILLER_0_163_137
*2820 FILLER_0_163_1381
*2821 FILLER_0_163_1393
*2822 FILLER_0_163_1399
*2823 FILLER_0_163_1401
*2824 FILLER_0_163_1413
*2825 FILLER_0_163_1425
*2826 FILLER_0_163_1437
*2827 FILLER_0_163_1449
*2828 FILLER_0_163_1455
*2829 FILLER_0_163_1457
*2830 FILLER_0_163_1469
*2831 FILLER_0_163_1481
*2832 FILLER_0_163_149
*2833 FILLER_0_163_1493
*2834 FILLER_0_163_15
*2835 FILLER_0_163_1505
*2836 FILLER_0_163_161
*2837 FILLER_0_163_167
*2838 FILLER_0_163_169
*2839 FILLER_0_163_181
*2840 FILLER_0_163_193
*2841 FILLER_0_163_205
*2842 FILLER_0_163_217
*2843 FILLER_0_163_223
*2844 FILLER_0_163_225
*2845 FILLER_0_163_237
*2846 FILLER_0_163_249
*2847 FILLER_0_163_261
*2848 FILLER_0_163_27
*2849 FILLER_0_163_273
*2850 FILLER_0_163_279
*2851 FILLER_0_163_281
*2852 FILLER_0_163_293
*2853 FILLER_0_163_3
*2854 FILLER_0_163_305
*2855 FILLER_0_163_317
*2856 FILLER_0_163_329
*2857 FILLER_0_163_335
*2858 FILLER_0_163_337
*2859 FILLER_0_163_349
*2860 FILLER_0_163_361
*2861 FILLER_0_163_373
*2862 FILLER_0_163_385
*2863 FILLER_0_163_39
*2864 FILLER_0_163_391
*2865 FILLER_0_163_393
*2866 FILLER_0_163_405
*2867 FILLER_0_163_417
*2868 FILLER_0_163_429
*2869 FILLER_0_163_441
*2870 FILLER_0_163_447
*2871 FILLER_0_163_449
*2872 FILLER_0_163_461
*2873 FILLER_0_163_473
*2874 FILLER_0_163_485
*2875 FILLER_0_163_497
*2876 FILLER_0_163_503
*2877 FILLER_0_163_505
*2878 FILLER_0_163_51
*2879 FILLER_0_163_517
*2880 FILLER_0_163_529
*2881 FILLER_0_163_541
*2882 FILLER_0_163_55
*2883 FILLER_0_163_553
*2884 FILLER_0_163_559
*2885 FILLER_0_163_561
*2886 FILLER_0_163_57
*2887 FILLER_0_163_573
*2888 FILLER_0_163_585
*2889 FILLER_0_163_597
*2890 FILLER_0_163_609
*2891 FILLER_0_163_615
*2892 FILLER_0_163_617
*2893 FILLER_0_163_629
*2894 FILLER_0_163_641
*2895 FILLER_0_163_653
*2896 FILLER_0_163_665
*2897 FILLER_0_163_671
*2898 FILLER_0_163_673
*2899 FILLER_0_163_685
*2900 FILLER_0_163_69
*2901 FILLER_0_163_697
*2902 FILLER_0_163_709
*2903 FILLER_0_163_721
*2904 FILLER_0_163_727
*2905 FILLER_0_163_729
*2906 FILLER_0_163_741
*2907 FILLER_0_163_753
*2908 FILLER_0_163_765
*2909 FILLER_0_163_777
*2910 FILLER_0_163_783
*2911 FILLER_0_163_785
*2912 FILLER_0_163_797
*2913 FILLER_0_163_809
*2914 FILLER_0_163_81
*2915 FILLER_0_163_821
*2916 FILLER_0_163_833
*2917 FILLER_0_163_839
*2918 FILLER_0_163_841
*2919 FILLER_0_163_853
*2920 FILLER_0_163_865
*2921 FILLER_0_163_877
*2922 FILLER_0_163_889
*2923 FILLER_0_163_895
*2924 FILLER_0_163_897
*2925 FILLER_0_163_909
*2926 FILLER_0_163_921
*2927 FILLER_0_163_93
*2928 FILLER_0_163_933
*2929 FILLER_0_163_945
*2930 FILLER_0_163_951
*2931 FILLER_0_163_953
*2932 FILLER_0_163_965
*2933 FILLER_0_163_977
*2934 FILLER_0_163_989
*2935 FILLER_0_164_1005
*2936 FILLER_0_164_1017
*2937 FILLER_0_164_1029
*2938 FILLER_0_164_1035
*2939 FILLER_0_164_1037
*2940 FILLER_0_164_1049
*2941 FILLER_0_164_1061
*2942 FILLER_0_164_1073
*2943 FILLER_0_164_1085
*2944 FILLER_0_164_109
*2945 FILLER_0_164_1091
*2946 FILLER_0_164_1093
*2947 FILLER_0_164_1105
*2948 FILLER_0_164_1117
*2949 FILLER_0_164_1129
*2950 FILLER_0_164_1141
*2951 FILLER_0_164_1147
*2952 FILLER_0_164_1149
*2953 FILLER_0_164_1161
*2954 FILLER_0_164_1173
*2955 FILLER_0_164_1185
*2956 FILLER_0_164_1197
*2957 FILLER_0_164_1203
*2958 FILLER_0_164_1205
*2959 FILLER_0_164_121
*2960 FILLER_0_164_1217
*2961 FILLER_0_164_1229
*2962 FILLER_0_164_1241
*2963 FILLER_0_164_1253
*2964 FILLER_0_164_1259
*2965 FILLER_0_164_1261
*2966 FILLER_0_164_1273
*2967 FILLER_0_164_1285
*2968 FILLER_0_164_1297
*2969 FILLER_0_164_1309
*2970 FILLER_0_164_1315
*2971 FILLER_0_164_1317
*2972 FILLER_0_164_1329
*2973 FILLER_0_164_133
*2974 FILLER_0_164_1341
*2975 FILLER_0_164_1353
*2976 FILLER_0_164_1365
*2977 FILLER_0_164_1371
*2978 FILLER_0_164_1373
*2979 FILLER_0_164_1385
*2980 FILLER_0_164_139
*2981 FILLER_0_164_1397
*2982 FILLER_0_164_1409
*2983 FILLER_0_164_141
*2984 FILLER_0_164_1421
*2985 FILLER_0_164_1427
*2986 FILLER_0_164_1429
*2987 FILLER_0_164_1441
*2988 FILLER_0_164_1453
*2989 FILLER_0_164_1465
*2990 FILLER_0_164_1477
*2991 FILLER_0_164_1483
*2992 FILLER_0_164_1485
*2993 FILLER_0_164_1497
*2994 FILLER_0_164_15
*2995 FILLER_0_164_1505
*2996 FILLER_0_164_153
*2997 FILLER_0_164_165
*2998 FILLER_0_164_177
*2999 FILLER_0_164_189
*3000 FILLER_0_164_195
*3001 FILLER_0_164_197
*3002 FILLER_0_164_209
*3003 FILLER_0_164_221
*3004 FILLER_0_164_233
*3005 FILLER_0_164_245
*3006 FILLER_0_164_251
*3007 FILLER_0_164_253
*3008 FILLER_0_164_265
*3009 FILLER_0_164_27
*3010 FILLER_0_164_277
*3011 FILLER_0_164_289
*3012 FILLER_0_164_29
*3013 FILLER_0_164_3
*3014 FILLER_0_164_301
*3015 FILLER_0_164_307
*3016 FILLER_0_164_309
*3017 FILLER_0_164_321
*3018 FILLER_0_164_333
*3019 FILLER_0_164_345
*3020 FILLER_0_164_357
*3021 FILLER_0_164_363
*3022 FILLER_0_164_365
*3023 FILLER_0_164_377
*3024 FILLER_0_164_389
*3025 FILLER_0_164_401
*3026 FILLER_0_164_41
*3027 FILLER_0_164_413
*3028 FILLER_0_164_419
*3029 FILLER_0_164_421
*3030 FILLER_0_164_433
*3031 FILLER_0_164_445
*3032 FILLER_0_164_457
*3033 FILLER_0_164_469
*3034 FILLER_0_164_475
*3035 FILLER_0_164_477
*3036 FILLER_0_164_489
*3037 FILLER_0_164_501
*3038 FILLER_0_164_513
*3039 FILLER_0_164_525
*3040 FILLER_0_164_53
*3041 FILLER_0_164_531
*3042 FILLER_0_164_533
*3043 FILLER_0_164_545
*3044 FILLER_0_164_557
*3045 FILLER_0_164_569
*3046 FILLER_0_164_581
*3047 FILLER_0_164_587
*3048 FILLER_0_164_589
*3049 FILLER_0_164_601
*3050 FILLER_0_164_613
*3051 FILLER_0_164_625
*3052 FILLER_0_164_637
*3053 FILLER_0_164_643
*3054 FILLER_0_164_645
*3055 FILLER_0_164_65
*3056 FILLER_0_164_657
*3057 FILLER_0_164_669
*3058 FILLER_0_164_681
*3059 FILLER_0_164_693
*3060 FILLER_0_164_699
*3061 FILLER_0_164_701
*3062 FILLER_0_164_713
*3063 FILLER_0_164_725
*3064 FILLER_0_164_737
*3065 FILLER_0_164_749
*3066 FILLER_0_164_755
*3067 FILLER_0_164_757
*3068 FILLER_0_164_769
*3069 FILLER_0_164_77
*3070 FILLER_0_164_781
*3071 FILLER_0_164_793
*3072 FILLER_0_164_805
*3073 FILLER_0_164_811
*3074 FILLER_0_164_813
*3075 FILLER_0_164_825
*3076 FILLER_0_164_83
*3077 FILLER_0_164_837
*3078 FILLER_0_164_849
*3079 FILLER_0_164_85
*3080 FILLER_0_164_861
*3081 FILLER_0_164_867
*3082 FILLER_0_164_869
*3083 FILLER_0_164_881
*3084 FILLER_0_164_893
*3085 FILLER_0_164_905
*3086 FILLER_0_164_917
*3087 FILLER_0_164_923
*3088 FILLER_0_164_925
*3089 FILLER_0_164_937
*3090 FILLER_0_164_949
*3091 FILLER_0_164_961
*3092 FILLER_0_164_97
*3093 FILLER_0_164_973
*3094 FILLER_0_164_979
*3095 FILLER_0_164_981
*3096 FILLER_0_164_993
*3097 FILLER_0_165_1001
*3098 FILLER_0_165_1007
*3099 FILLER_0_165_1009
*3100 FILLER_0_165_1021
*3101 FILLER_0_165_1033
*3102 FILLER_0_165_1045
*3103 FILLER_0_165_105
*3104 FILLER_0_165_1057
*3105 FILLER_0_165_1063
*3106 FILLER_0_165_1065
*3107 FILLER_0_165_1077
*3108 FILLER_0_165_1089
*3109 FILLER_0_165_1101
*3110 FILLER_0_165_111
*3111 FILLER_0_165_1113
*3112 FILLER_0_165_1119
*3113 FILLER_0_165_1121
*3114 FILLER_0_165_113
*3115 FILLER_0_165_1133
*3116 FILLER_0_165_1145
*3117 FILLER_0_165_1157
*3118 FILLER_0_165_1169
*3119 FILLER_0_165_1175
*3120 FILLER_0_165_1177
*3121 FILLER_0_165_1189
*3122 FILLER_0_165_1201
*3123 FILLER_0_165_1213
*3124 FILLER_0_165_1225
*3125 FILLER_0_165_1231
*3126 FILLER_0_165_1233
*3127 FILLER_0_165_1245
*3128 FILLER_0_165_125
*3129 FILLER_0_165_1257
*3130 FILLER_0_165_1269
*3131 FILLER_0_165_1281
*3132 FILLER_0_165_1287
*3133 FILLER_0_165_1289
*3134 FILLER_0_165_1301
*3135 FILLER_0_165_1313
*3136 FILLER_0_165_1325
*3137 FILLER_0_165_1337
*3138 FILLER_0_165_1343
*3139 FILLER_0_165_1345
*3140 FILLER_0_165_1357
*3141 FILLER_0_165_1369
*3142 FILLER_0_165_137
*3143 FILLER_0_165_1381
*3144 FILLER_0_165_1393
*3145 FILLER_0_165_1399
*3146 FILLER_0_165_1401
*3147 FILLER_0_165_1413
*3148 FILLER_0_165_1425
*3149 FILLER_0_165_1437
*3150 FILLER_0_165_1449
*3151 FILLER_0_165_1455
*3152 FILLER_0_165_1457
*3153 FILLER_0_165_1469
*3154 FILLER_0_165_1481
*3155 FILLER_0_165_149
*3156 FILLER_0_165_1493
*3157 FILLER_0_165_15
*3158 FILLER_0_165_1505
*3159 FILLER_0_165_161
*3160 FILLER_0_165_167
*3161 FILLER_0_165_169
*3162 FILLER_0_165_181
*3163 FILLER_0_165_193
*3164 FILLER_0_165_205
*3165 FILLER_0_165_217
*3166 FILLER_0_165_223
*3167 FILLER_0_165_225
*3168 FILLER_0_165_237
*3169 FILLER_0_165_249
*3170 FILLER_0_165_261
*3171 FILLER_0_165_27
*3172 FILLER_0_165_273
*3173 FILLER_0_165_279
*3174 FILLER_0_165_281
*3175 FILLER_0_165_293
*3176 FILLER_0_165_3
*3177 FILLER_0_165_305
*3178 FILLER_0_165_317
*3179 FILLER_0_165_329
*3180 FILLER_0_165_335
*3181 FILLER_0_165_337
*3182 FILLER_0_165_349
*3183 FILLER_0_165_361
*3184 FILLER_0_165_373
*3185 FILLER_0_165_385
*3186 FILLER_0_165_39
*3187 FILLER_0_165_391
*3188 FILLER_0_165_393
*3189 FILLER_0_165_405
*3190 FILLER_0_165_417
*3191 FILLER_0_165_429
*3192 FILLER_0_165_441
*3193 FILLER_0_165_447
*3194 FILLER_0_165_449
*3195 FILLER_0_165_461
*3196 FILLER_0_165_473
*3197 FILLER_0_165_485
*3198 FILLER_0_165_497
*3199 FILLER_0_165_503
*3200 FILLER_0_165_505
*3201 FILLER_0_165_51
*3202 FILLER_0_165_517
*3203 FILLER_0_165_529
*3204 FILLER_0_165_541
*3205 FILLER_0_165_55
*3206 FILLER_0_165_553
*3207 FILLER_0_165_559
*3208 FILLER_0_165_561
*3209 FILLER_0_165_57
*3210 FILLER_0_165_573
*3211 FILLER_0_165_585
*3212 FILLER_0_165_597
*3213 FILLER_0_165_609
*3214 FILLER_0_165_615
*3215 FILLER_0_165_617
*3216 FILLER_0_165_629
*3217 FILLER_0_165_641
*3218 FILLER_0_165_653
*3219 FILLER_0_165_665
*3220 FILLER_0_165_671
*3221 FILLER_0_165_673
*3222 FILLER_0_165_685
*3223 FILLER_0_165_69
*3224 FILLER_0_165_697
*3225 FILLER_0_165_709
*3226 FILLER_0_165_721
*3227 FILLER_0_165_727
*3228 FILLER_0_165_729
*3229 FILLER_0_165_741
*3230 FILLER_0_165_753
*3231 FILLER_0_165_765
*3232 FILLER_0_165_777
*3233 FILLER_0_165_783
*3234 FILLER_0_165_785
*3235 FILLER_0_165_797
*3236 FILLER_0_165_809
*3237 FILLER_0_165_81
*3238 FILLER_0_165_821
*3239 FILLER_0_165_833
*3240 FILLER_0_165_839
*3241 FILLER_0_165_841
*3242 FILLER_0_165_853
*3243 FILLER_0_165_865
*3244 FILLER_0_165_877
*3245 FILLER_0_165_889
*3246 FILLER_0_165_895
*3247 FILLER_0_165_897
*3248 FILLER_0_165_909
*3249 FILLER_0_165_921
*3250 FILLER_0_165_93
*3251 FILLER_0_165_933
*3252 FILLER_0_165_945
*3253 FILLER_0_165_951
*3254 FILLER_0_165_953
*3255 FILLER_0_165_965
*3256 FILLER_0_165_977
*3257 FILLER_0_165_989
*3258 FILLER_0_166_1005
*3259 FILLER_0_166_1017
*3260 FILLER_0_166_1029
*3261 FILLER_0_166_1035
*3262 FILLER_0_166_1037
*3263 FILLER_0_166_1049
*3264 FILLER_0_166_1061
*3265 FILLER_0_166_1073
*3266 FILLER_0_166_1085
*3267 FILLER_0_166_109
*3268 FILLER_0_166_1091
*3269 FILLER_0_166_1093
*3270 FILLER_0_166_1105
*3271 FILLER_0_166_1117
*3272 FILLER_0_166_1129
*3273 FILLER_0_166_1141
*3274 FILLER_0_166_1147
*3275 FILLER_0_166_1149
*3276 FILLER_0_166_1161
*3277 FILLER_0_166_1173
*3278 FILLER_0_166_1185
*3279 FILLER_0_166_1197
*3280 FILLER_0_166_1203
*3281 FILLER_0_166_1205
*3282 FILLER_0_166_121
*3283 FILLER_0_166_1217
*3284 FILLER_0_166_1229
*3285 FILLER_0_166_1241
*3286 FILLER_0_166_1253
*3287 FILLER_0_166_1259
*3288 FILLER_0_166_1261
*3289 FILLER_0_166_1273
*3290 FILLER_0_166_1285
*3291 FILLER_0_166_1297
*3292 FILLER_0_166_1309
*3293 FILLER_0_166_1315
*3294 FILLER_0_166_1317
*3295 FILLER_0_166_1329
*3296 FILLER_0_166_133
*3297 FILLER_0_166_1341
*3298 FILLER_0_166_1353
*3299 FILLER_0_166_1365
*3300 FILLER_0_166_1371
*3301 FILLER_0_166_1373
*3302 FILLER_0_166_1385
*3303 FILLER_0_166_139
*3304 FILLER_0_166_1397
*3305 FILLER_0_166_1409
*3306 FILLER_0_166_141
*3307 FILLER_0_166_1421
*3308 FILLER_0_166_1427
*3309 FILLER_0_166_1429
*3310 FILLER_0_166_1441
*3311 FILLER_0_166_1453
*3312 FILLER_0_166_1465
*3313 FILLER_0_166_1477
*3314 FILLER_0_166_1483
*3315 FILLER_0_166_1485
*3316 FILLER_0_166_1497
*3317 FILLER_0_166_15
*3318 FILLER_0_166_1505
*3319 FILLER_0_166_153
*3320 FILLER_0_166_165
*3321 FILLER_0_166_177
*3322 FILLER_0_166_189
*3323 FILLER_0_166_195
*3324 FILLER_0_166_197
*3325 FILLER_0_166_209
*3326 FILLER_0_166_221
*3327 FILLER_0_166_233
*3328 FILLER_0_166_245
*3329 FILLER_0_166_251
*3330 FILLER_0_166_253
*3331 FILLER_0_166_265
*3332 FILLER_0_166_27
*3333 FILLER_0_166_277
*3334 FILLER_0_166_289
*3335 FILLER_0_166_29
*3336 FILLER_0_166_3
*3337 FILLER_0_166_301
*3338 FILLER_0_166_307
*3339 FILLER_0_166_309
*3340 FILLER_0_166_321
*3341 FILLER_0_166_333
*3342 FILLER_0_166_345
*3343 FILLER_0_166_357
*3344 FILLER_0_166_363
*3345 FILLER_0_166_365
*3346 FILLER_0_166_377
*3347 FILLER_0_166_389
*3348 FILLER_0_166_401
*3349 FILLER_0_166_41
*3350 FILLER_0_166_413
*3351 FILLER_0_166_419
*3352 FILLER_0_166_421
*3353 FILLER_0_166_433
*3354 FILLER_0_166_445
*3355 FILLER_0_166_457
*3356 FILLER_0_166_469
*3357 FILLER_0_166_475
*3358 FILLER_0_166_477
*3359 FILLER_0_166_489
*3360 FILLER_0_166_501
*3361 FILLER_0_166_513
*3362 FILLER_0_166_525
*3363 FILLER_0_166_53
*3364 FILLER_0_166_531
*3365 FILLER_0_166_533
*3366 FILLER_0_166_545
*3367 FILLER_0_166_557
*3368 FILLER_0_166_569
*3369 FILLER_0_166_581
*3370 FILLER_0_166_587
*3371 FILLER_0_166_589
*3372 FILLER_0_166_601
*3373 FILLER_0_166_613
*3374 FILLER_0_166_625
*3375 FILLER_0_166_637
*3376 FILLER_0_166_643
*3377 FILLER_0_166_645
*3378 FILLER_0_166_65
*3379 FILLER_0_166_657
*3380 FILLER_0_166_669
*3381 FILLER_0_166_681
*3382 FILLER_0_166_693
*3383 FILLER_0_166_699
*3384 FILLER_0_166_701
*3385 FILLER_0_166_713
*3386 FILLER_0_166_725
*3387 FILLER_0_166_737
*3388 FILLER_0_166_749
*3389 FILLER_0_166_755
*3390 FILLER_0_166_757
*3391 FILLER_0_166_769
*3392 FILLER_0_166_77
*3393 FILLER_0_166_781
*3394 FILLER_0_166_793
*3395 FILLER_0_166_805
*3396 FILLER_0_166_811
*3397 FILLER_0_166_813
*3398 FILLER_0_166_825
*3399 FILLER_0_166_83
*3400 FILLER_0_166_837
*3401 FILLER_0_166_849
*3402 FILLER_0_166_85
*3403 FILLER_0_166_861
*3404 FILLER_0_166_867
*3405 FILLER_0_166_869
*3406 FILLER_0_166_881
*3407 FILLER_0_166_893
*3408 FILLER_0_166_905
*3409 FILLER_0_166_917
*3410 FILLER_0_166_923
*3411 FILLER_0_166_925
*3412 FILLER_0_166_937
*3413 FILLER_0_166_949
*3414 FILLER_0_166_961
*3415 FILLER_0_166_97
*3416 FILLER_0_166_973
*3417 FILLER_0_166_979
*3418 FILLER_0_166_981
*3419 FILLER_0_166_993
*3420 FILLER_0_167_1001
*3421 FILLER_0_167_1007
*3422 FILLER_0_167_1009
*3423 FILLER_0_167_1021
*3424 FILLER_0_167_1033
*3425 FILLER_0_167_1045
*3426 FILLER_0_167_105
*3427 FILLER_0_167_1057
*3428 FILLER_0_167_1063
*3429 FILLER_0_167_1065
*3430 FILLER_0_167_1077
*3431 FILLER_0_167_1089
*3432 FILLER_0_167_1101
*3433 FILLER_0_167_111
*3434 FILLER_0_167_1113
*3435 FILLER_0_167_1119
*3436 FILLER_0_167_1121
*3437 FILLER_0_167_113
*3438 FILLER_0_167_1133
*3439 FILLER_0_167_1145
*3440 FILLER_0_167_1157
*3441 FILLER_0_167_1169
*3442 FILLER_0_167_1175
*3443 FILLER_0_167_1177
*3444 FILLER_0_167_1189
*3445 FILLER_0_167_1201
*3446 FILLER_0_167_1213
*3447 FILLER_0_167_1225
*3448 FILLER_0_167_1231
*3449 FILLER_0_167_1233
*3450 FILLER_0_167_1245
*3451 FILLER_0_167_125
*3452 FILLER_0_167_1257
*3453 FILLER_0_167_1269
*3454 FILLER_0_167_1281
*3455 FILLER_0_167_1287
*3456 FILLER_0_167_1289
*3457 FILLER_0_167_1301
*3458 FILLER_0_167_1313
*3459 FILLER_0_167_1325
*3460 FILLER_0_167_1337
*3461 FILLER_0_167_1343
*3462 FILLER_0_167_1345
*3463 FILLER_0_167_1357
*3464 FILLER_0_167_1369
*3465 FILLER_0_167_137
*3466 FILLER_0_167_1381
*3467 FILLER_0_167_1393
*3468 FILLER_0_167_1399
*3469 FILLER_0_167_1401
*3470 FILLER_0_167_1413
*3471 FILLER_0_167_1425
*3472 FILLER_0_167_1437
*3473 FILLER_0_167_1449
*3474 FILLER_0_167_1455
*3475 FILLER_0_167_1457
*3476 FILLER_0_167_1469
*3477 FILLER_0_167_1481
*3478 FILLER_0_167_149
*3479 FILLER_0_167_1493
*3480 FILLER_0_167_15
*3481 FILLER_0_167_1505
*3482 FILLER_0_167_161
*3483 FILLER_0_167_167
*3484 FILLER_0_167_169
*3485 FILLER_0_167_181
*3486 FILLER_0_167_193
*3487 FILLER_0_167_205
*3488 FILLER_0_167_217
*3489 FILLER_0_167_223
*3490 FILLER_0_167_225
*3491 FILLER_0_167_237
*3492 FILLER_0_167_249
*3493 FILLER_0_167_261
*3494 FILLER_0_167_27
*3495 FILLER_0_167_273
*3496 FILLER_0_167_279
*3497 FILLER_0_167_281
*3498 FILLER_0_167_293
*3499 FILLER_0_167_3
*3500 FILLER_0_167_305
*3501 FILLER_0_167_317
*3502 FILLER_0_167_329
*3503 FILLER_0_167_335
*3504 FILLER_0_167_337
*3505 FILLER_0_167_349
*3506 FILLER_0_167_361
*3507 FILLER_0_167_373
*3508 FILLER_0_167_385
*3509 FILLER_0_167_39
*3510 FILLER_0_167_391
*3511 FILLER_0_167_393
*3512 FILLER_0_167_405
*3513 FILLER_0_167_417
*3514 FILLER_0_167_429
*3515 FILLER_0_167_441
*3516 FILLER_0_167_447
*3517 FILLER_0_167_449
*3518 FILLER_0_167_461
*3519 FILLER_0_167_473
*3520 FILLER_0_167_485
*3521 FILLER_0_167_497
*3522 FILLER_0_167_503
*3523 FILLER_0_167_505
*3524 FILLER_0_167_51
*3525 FILLER_0_167_517
*3526 FILLER_0_167_529
*3527 FILLER_0_167_541
*3528 FILLER_0_167_55
*3529 FILLER_0_167_553
*3530 FILLER_0_167_559
*3531 FILLER_0_167_561
*3532 FILLER_0_167_57
*3533 FILLER_0_167_573
*3534 FILLER_0_167_585
*3535 FILLER_0_167_597
*3536 FILLER_0_167_609
*3537 FILLER_0_167_615
*3538 FILLER_0_167_617
*3539 FILLER_0_167_629
*3540 FILLER_0_167_641
*3541 FILLER_0_167_653
*3542 FILLER_0_167_665
*3543 FILLER_0_167_671
*3544 FILLER_0_167_673
*3545 FILLER_0_167_685
*3546 FILLER_0_167_69
*3547 FILLER_0_167_697
*3548 FILLER_0_167_709
*3549 FILLER_0_167_721
*3550 FILLER_0_167_727
*3551 FILLER_0_167_729
*3552 FILLER_0_167_741
*3553 FILLER_0_167_753
*3554 FILLER_0_167_765
*3555 FILLER_0_167_777
*3556 FILLER_0_167_783
*3557 FILLER_0_167_785
*3558 FILLER_0_167_797
*3559 FILLER_0_167_809
*3560 FILLER_0_167_81
*3561 FILLER_0_167_821
*3562 FILLER_0_167_833
*3563 FILLER_0_167_839
*3564 FILLER_0_167_841
*3565 FILLER_0_167_853
*3566 FILLER_0_167_865
*3567 FILLER_0_167_877
*3568 FILLER_0_167_889
*3569 FILLER_0_167_895
*3570 FILLER_0_167_897
*3571 FILLER_0_167_909
*3572 FILLER_0_167_921
*3573 FILLER_0_167_93
*3574 FILLER_0_167_933
*3575 FILLER_0_167_945
*3576 FILLER_0_167_951
*3577 FILLER_0_167_953
*3578 FILLER_0_167_965
*3579 FILLER_0_167_977
*3580 FILLER_0_167_989
*3581 FILLER_0_168_1005
*3582 FILLER_0_168_1017
*3583 FILLER_0_168_1029
*3584 FILLER_0_168_1035
*3585 FILLER_0_168_1037
*3586 FILLER_0_168_1049
*3587 FILLER_0_168_1061
*3588 FILLER_0_168_1073
*3589 FILLER_0_168_1085
*3590 FILLER_0_168_109
*3591 FILLER_0_168_1091
*3592 FILLER_0_168_1093
*3593 FILLER_0_168_1105
*3594 FILLER_0_168_1117
*3595 FILLER_0_168_1129
*3596 FILLER_0_168_1141
*3597 FILLER_0_168_1147
*3598 FILLER_0_168_1149
*3599 FILLER_0_168_1161
*3600 FILLER_0_168_1173
*3601 FILLER_0_168_1185
*3602 FILLER_0_168_1197
*3603 FILLER_0_168_1203
*3604 FILLER_0_168_1205
*3605 FILLER_0_168_121
*3606 FILLER_0_168_1217
*3607 FILLER_0_168_1229
*3608 FILLER_0_168_1241
*3609 FILLER_0_168_1253
*3610 FILLER_0_168_1259
*3611 FILLER_0_168_1261
*3612 FILLER_0_168_1273
*3613 FILLER_0_168_1285
*3614 FILLER_0_168_1297
*3615 FILLER_0_168_1309
*3616 FILLER_0_168_1315
*3617 FILLER_0_168_1317
*3618 FILLER_0_168_1329
*3619 FILLER_0_168_133
*3620 FILLER_0_168_1341
*3621 FILLER_0_168_1353
*3622 FILLER_0_168_1365
*3623 FILLER_0_168_1371
*3624 FILLER_0_168_1373
*3625 FILLER_0_168_1385
*3626 FILLER_0_168_139
*3627 FILLER_0_168_1397
*3628 FILLER_0_168_1409
*3629 FILLER_0_168_141
*3630 FILLER_0_168_1421
*3631 FILLER_0_168_1427
*3632 FILLER_0_168_1429
*3633 FILLER_0_168_1441
*3634 FILLER_0_168_1453
*3635 FILLER_0_168_1465
*3636 FILLER_0_168_1477
*3637 FILLER_0_168_1483
*3638 FILLER_0_168_1485
*3639 FILLER_0_168_1497
*3640 FILLER_0_168_15
*3641 FILLER_0_168_1505
*3642 FILLER_0_168_153
*3643 FILLER_0_168_165
*3644 FILLER_0_168_177
*3645 FILLER_0_168_189
*3646 FILLER_0_168_195
*3647 FILLER_0_168_197
*3648 FILLER_0_168_209
*3649 FILLER_0_168_221
*3650 FILLER_0_168_233
*3651 FILLER_0_168_245
*3652 FILLER_0_168_251
*3653 FILLER_0_168_253
*3654 FILLER_0_168_265
*3655 FILLER_0_168_27
*3656 FILLER_0_168_277
*3657 FILLER_0_168_289
*3658 FILLER_0_168_29
*3659 FILLER_0_168_3
*3660 FILLER_0_168_301
*3661 FILLER_0_168_307
*3662 FILLER_0_168_309
*3663 FILLER_0_168_321
*3664 FILLER_0_168_333
*3665 FILLER_0_168_345
*3666 FILLER_0_168_357
*3667 FILLER_0_168_363
*3668 FILLER_0_168_365
*3669 FILLER_0_168_377
*3670 FILLER_0_168_389
*3671 FILLER_0_168_401
*3672 FILLER_0_168_41
*3673 FILLER_0_168_413
*3674 FILLER_0_168_419
*3675 FILLER_0_168_421
*3676 FILLER_0_168_433
*3677 FILLER_0_168_445
*3678 FILLER_0_168_457
*3679 FILLER_0_168_469
*3680 FILLER_0_168_475
*3681 FILLER_0_168_477
*3682 FILLER_0_168_489
*3683 FILLER_0_168_501
*3684 FILLER_0_168_513
*3685 FILLER_0_168_525
*3686 FILLER_0_168_53
*3687 FILLER_0_168_531
*3688 FILLER_0_168_533
*3689 FILLER_0_168_545
*3690 FILLER_0_168_557
*3691 FILLER_0_168_569
*3692 FILLER_0_168_581
*3693 FILLER_0_168_587
*3694 FILLER_0_168_589
*3695 FILLER_0_168_601
*3696 FILLER_0_168_613
*3697 FILLER_0_168_625
*3698 FILLER_0_168_637
*3699 FILLER_0_168_643
*3700 FILLER_0_168_645
*3701 FILLER_0_168_65
*3702 FILLER_0_168_657
*3703 FILLER_0_168_669
*3704 FILLER_0_168_681
*3705 FILLER_0_168_693
*3706 FILLER_0_168_699
*3707 FILLER_0_168_701
*3708 FILLER_0_168_713
*3709 FILLER_0_168_725
*3710 FILLER_0_168_737
*3711 FILLER_0_168_749
*3712 FILLER_0_168_755
*3713 FILLER_0_168_757
*3714 FILLER_0_168_769
*3715 FILLER_0_168_77
*3716 FILLER_0_168_781
*3717 FILLER_0_168_793
*3718 FILLER_0_168_805
*3719 FILLER_0_168_811
*3720 FILLER_0_168_813
*3721 FILLER_0_168_825
*3722 FILLER_0_168_83
*3723 FILLER_0_168_837
*3724 FILLER_0_168_849
*3725 FILLER_0_168_85
*3726 FILLER_0_168_861
*3727 FILLER_0_168_867
*3728 FILLER_0_168_869
*3729 FILLER_0_168_881
*3730 FILLER_0_168_893
*3731 FILLER_0_168_905
*3732 FILLER_0_168_917
*3733 FILLER_0_168_923
*3734 FILLER_0_168_925
*3735 FILLER_0_168_937
*3736 FILLER_0_168_949
*3737 FILLER_0_168_961
*3738 FILLER_0_168_97
*3739 FILLER_0_168_973
*3740 FILLER_0_168_979
*3741 FILLER_0_168_981
*3742 FILLER_0_168_993
*3743 FILLER_0_169_1005
*3744 FILLER_0_169_1009
*3745 FILLER_0_169_1021
*3746 FILLER_0_169_1033
*3747 FILLER_0_169_1037
*3748 FILLER_0_169_1043
*3749 FILLER_0_169_1065
*3750 FILLER_0_169_1077
*3751 FILLER_0_169_1089
*3752 FILLER_0_169_109
*3753 FILLER_0_169_1101
*3754 FILLER_0_169_1113
*3755 FILLER_0_169_1119
*3756 FILLER_0_169_1121
*3757 FILLER_0_169_113
*3758 FILLER_0_169_1133
*3759 FILLER_0_169_1145
*3760 FILLER_0_169_1149
*3761 FILLER_0_169_1161
*3762 FILLER_0_169_1173
*3763 FILLER_0_169_1177
*3764 FILLER_0_169_1189
*3765 FILLER_0_169_1201
*3766 FILLER_0_169_1205
*3767 FILLER_0_169_1217
*3768 FILLER_0_169_1229
*3769 FILLER_0_169_1233
*3770 FILLER_0_169_1245
*3771 FILLER_0_169_125
*3772 FILLER_0_169_1257
*3773 FILLER_0_169_1261
*3774 FILLER_0_169_1273
*3775 FILLER_0_169_1285
*3776 FILLER_0_169_1289
*3777 FILLER_0_169_1301
*3778 FILLER_0_169_1313
*3779 FILLER_0_169_1317
*3780 FILLER_0_169_1329
*3781 FILLER_0_169_1341
*3782 FILLER_0_169_1345
*3783 FILLER_0_169_1357
*3784 FILLER_0_169_1369
*3785 FILLER_0_169_137
*3786 FILLER_0_169_1373
*3787 FILLER_0_169_1385
*3788 FILLER_0_169_1397
*3789 FILLER_0_169_1401
*3790 FILLER_0_169_141
*3791 FILLER_0_169_1413
*3792 FILLER_0_169_1425
*3793 FILLER_0_169_1429
*3794 FILLER_0_169_1441
*3795 FILLER_0_169_1453
*3796 FILLER_0_169_1457
*3797 FILLER_0_169_1469
*3798 FILLER_0_169_1481
*3799 FILLER_0_169_1485
*3800 FILLER_0_169_1497
*3801 FILLER_0_169_15
*3802 FILLER_0_169_1505
*3803 FILLER_0_169_153
*3804 FILLER_0_169_165
*3805 FILLER_0_169_169
*3806 FILLER_0_169_181
*3807 FILLER_0_169_193
*3808 FILLER_0_169_197
*3809 FILLER_0_169_209
*3810 FILLER_0_169_221
*3811 FILLER_0_169_225
*3812 FILLER_0_169_237
*3813 FILLER_0_169_249
*3814 FILLER_0_169_253
*3815 FILLER_0_169_265
*3816 FILLER_0_169_27
*3817 FILLER_0_169_277
*3818 FILLER_0_169_281
*3819 FILLER_0_169_29
*3820 FILLER_0_169_293
*3821 FILLER_0_169_3
*3822 FILLER_0_169_305
*3823 FILLER_0_169_309
*3824 FILLER_0_169_321
*3825 FILLER_0_169_333
*3826 FILLER_0_169_337
*3827 FILLER_0_169_349
*3828 FILLER_0_169_361
*3829 FILLER_0_169_365
*3830 FILLER_0_169_377
*3831 FILLER_0_169_389
*3832 FILLER_0_169_393
*3833 FILLER_0_169_405
*3834 FILLER_0_169_41
*3835 FILLER_0_169_417
*3836 FILLER_0_169_421
*3837 FILLER_0_169_433
*3838 FILLER_0_169_445
*3839 FILLER_0_169_449
*3840 FILLER_0_169_461
*3841 FILLER_0_169_473
*3842 FILLER_0_169_477
*3843 FILLER_0_169_489
*3844 FILLER_0_169_501
*3845 FILLER_0_169_505
*3846 FILLER_0_169_517
*3847 FILLER_0_169_529
*3848 FILLER_0_169_53
*3849 FILLER_0_169_533
*3850 FILLER_0_169_545
*3851 FILLER_0_169_557
*3852 FILLER_0_169_561
*3853 FILLER_0_169_57
*3854 FILLER_0_169_573
*3855 FILLER_0_169_585
*3856 FILLER_0_169_589
*3857 FILLER_0_169_601
*3858 FILLER_0_169_613
*3859 FILLER_0_169_617
*3860 FILLER_0_169_629
*3861 FILLER_0_169_641
*3862 FILLER_0_169_645
*3863 FILLER_0_169_657
*3864 FILLER_0_169_669
*3865 FILLER_0_169_673
*3866 FILLER_0_169_685
*3867 FILLER_0_169_69
*3868 FILLER_0_169_697
*3869 FILLER_0_169_701
*3870 FILLER_0_169_713
*3871 FILLER_0_169_725
*3872 FILLER_0_169_729
*3873 FILLER_0_169_741
*3874 FILLER_0_169_753
*3875 FILLER_0_169_757
*3876 FILLER_0_169_769
*3877 FILLER_0_169_781
*3878 FILLER_0_169_785
*3879 FILLER_0_169_797
*3880 FILLER_0_169_809
*3881 FILLER_0_169_81
*3882 FILLER_0_169_813
*3883 FILLER_0_169_825
*3884 FILLER_0_169_837
*3885 FILLER_0_169_841
*3886 FILLER_0_169_85
*3887 FILLER_0_169_853
*3888 FILLER_0_169_865
*3889 FILLER_0_169_869
*3890 FILLER_0_169_881
*3891 FILLER_0_169_893
*3892 FILLER_0_169_897
*3893 FILLER_0_169_909
*3894 FILLER_0_169_921
*3895 FILLER_0_169_925
*3896 FILLER_0_169_937
*3897 FILLER_0_169_949
*3898 FILLER_0_169_953
*3899 FILLER_0_169_965
*3900 FILLER_0_169_97
*3901 FILLER_0_169_977
*3902 FILLER_0_169_981
*3903 FILLER_0_169_993
*3904 FILLER_0_16_1464
*3905 FILLER_0_16_1476
*3906 FILLER_0_16_1488
*3907 FILLER_0_16_1490
*3908 FILLER_0_16_1502
*3909 FILLER_0_16_1506
*3910 FILLER_0_16_703
*3911 FILLER_0_16_715
*3912 FILLER_0_16_727
*3913 FILLER_0_16_729
*3914 FILLER_0_16_741
*3915 FILLER_0_170_1464
*3916 FILLER_0_170_1476
*3917 FILLER_0_170_1488
*3918 FILLER_0_170_1490
*3919 FILLER_0_170_1502
*3920 FILLER_0_170_1506
*3921 FILLER_0_170_703
*3922 FILLER_0_170_715
*3923 FILLER_0_170_727
*3924 FILLER_0_170_729
*3925 FILLER_0_170_741
*3926 FILLER_0_171_1464
*3927 FILLER_0_171_1476
*3928 FILLER_0_171_1488
*3929 FILLER_0_171_1500
*3930 FILLER_0_171_1506
*3931 FILLER_0_171_703
*3932 FILLER_0_171_715
*3933 FILLER_0_171_727
*3934 FILLER_0_171_739
*3935 FILLER_0_172_1464
*3936 FILLER_0_172_1476
*3937 FILLER_0_172_1488
*3938 FILLER_0_172_1490
*3939 FILLER_0_172_1502
*3940 FILLER_0_172_1506
*3941 FILLER_0_172_703
*3942 FILLER_0_172_715
*3943 FILLER_0_172_727
*3944 FILLER_0_172_729
*3945 FILLER_0_172_741
*3946 FILLER_0_173_1464
*3947 FILLER_0_173_1476
*3948 FILLER_0_173_1488
*3949 FILLER_0_173_1500
*3950 FILLER_0_173_1506
*3951 FILLER_0_173_703
*3952 FILLER_0_173_715
*3953 FILLER_0_173_727
*3954 FILLER_0_173_739
*3955 FILLER_0_174_1464
*3956 FILLER_0_174_1476
*3957 FILLER_0_174_1488
*3958 FILLER_0_174_1490
*3959 FILLER_0_174_1502
*3960 FILLER_0_174_1506
*3961 FILLER_0_174_703
*3962 FILLER_0_174_715
*3963 FILLER_0_174_727
*3964 FILLER_0_174_729
*3965 FILLER_0_174_741
*3966 FILLER_0_175_1464
*3967 FILLER_0_175_1476
*3968 FILLER_0_175_1488
*3969 FILLER_0_175_1500
*3970 FILLER_0_175_1506
*3971 FILLER_0_175_703
*3972 FILLER_0_175_715
*3973 FILLER_0_175_727
*3974 FILLER_0_175_739
*3975 FILLER_0_176_1464
*3976 FILLER_0_176_1476
*3977 FILLER_0_176_1488
*3978 FILLER_0_176_1490
*3979 FILLER_0_176_1502
*3980 FILLER_0_176_1506
*3981 FILLER_0_176_703
*3982 FILLER_0_176_715
*3983 FILLER_0_176_727
*3984 FILLER_0_176_729
*3985 FILLER_0_176_741
*3986 FILLER_0_177_1464
*3987 FILLER_0_177_1476
*3988 FILLER_0_177_1488
*3989 FILLER_0_177_1500
*3990 FILLER_0_177_1506
*3991 FILLER_0_177_703
*3992 FILLER_0_177_715
*3993 FILLER_0_177_727
*3994 FILLER_0_177_739
*3995 FILLER_0_178_1464
*3996 FILLER_0_178_1476
*3997 FILLER_0_178_1488
*3998 FILLER_0_178_1490
*3999 FILLER_0_178_1502
*4000 FILLER_0_178_1506
*4001 FILLER_0_178_703
*4002 FILLER_0_178_715
*4003 FILLER_0_178_727
*4004 FILLER_0_178_729
*4005 FILLER_0_178_741
*4006 FILLER_0_179_1464
*4007 FILLER_0_179_1476
*4008 FILLER_0_179_1488
*4009 FILLER_0_179_1500
*4010 FILLER_0_179_1506
*4011 FILLER_0_179_703
*4012 FILLER_0_179_715
*4013 FILLER_0_179_727
*4014 FILLER_0_179_739
*4015 FILLER_0_17_1464
*4016 FILLER_0_17_1468
*4017 FILLER_0_17_1480
*4018 FILLER_0_17_1492
*4019 FILLER_0_17_1504
*4020 FILLER_0_17_703
*4021 FILLER_0_17_715
*4022 FILLER_0_17_727
*4023 FILLER_0_17_733
*4024 FILLER_0_17_736
*4025 FILLER_0_180_1464
*4026 FILLER_0_180_1476
*4027 FILLER_0_180_1488
*4028 FILLER_0_180_1490
*4029 FILLER_0_180_1502
*4030 FILLER_0_180_1506
*4031 FILLER_0_180_703
*4032 FILLER_0_180_715
*4033 FILLER_0_180_727
*4034 FILLER_0_180_729
*4035 FILLER_0_180_741
*4036 FILLER_0_181_1464
*4037 FILLER_0_181_1476
*4038 FILLER_0_181_1488
*4039 FILLER_0_181_1500
*4040 FILLER_0_181_1506
*4041 FILLER_0_181_703
*4042 FILLER_0_181_715
*4043 FILLER_0_181_727
*4044 FILLER_0_181_739
*4045 FILLER_0_182_1464
*4046 FILLER_0_182_1476
*4047 FILLER_0_182_1488
*4048 FILLER_0_182_1490
*4049 FILLER_0_182_1502
*4050 FILLER_0_182_1506
*4051 FILLER_0_182_703
*4052 FILLER_0_182_715
*4053 FILLER_0_182_727
*4054 FILLER_0_182_729
*4055 FILLER_0_182_741
*4056 FILLER_0_183_1464
*4057 FILLER_0_183_1476
*4058 FILLER_0_183_1488
*4059 FILLER_0_183_1500
*4060 FILLER_0_183_1506
*4061 FILLER_0_183_703
*4062 FILLER_0_183_707
*4063 FILLER_0_183_719
*4064 FILLER_0_183_731
*4065 FILLER_0_183_743
*4066 FILLER_0_184_1464
*4067 FILLER_0_184_1476
*4068 FILLER_0_184_1488
*4069 FILLER_0_184_1490
*4070 FILLER_0_184_1502
*4071 FILLER_0_184_1506
*4072 FILLER_0_184_703
*4073 FILLER_0_184_715
*4074 FILLER_0_184_727
*4075 FILLER_0_184_729
*4076 FILLER_0_184_741
*4077 FILLER_0_185_1464
*4078 FILLER_0_185_1476
*4079 FILLER_0_185_1488
*4080 FILLER_0_185_1500
*4081 FILLER_0_185_1506
*4082 FILLER_0_185_703
*4083 FILLER_0_185_715
*4084 FILLER_0_185_727
*4085 FILLER_0_185_739
*4086 FILLER_0_186_1464
*4087 FILLER_0_186_1476
*4088 FILLER_0_186_1488
*4089 FILLER_0_186_1490
*4090 FILLER_0_186_1502
*4091 FILLER_0_186_1506
*4092 FILLER_0_186_703
*4093 FILLER_0_186_715
*4094 FILLER_0_186_727
*4095 FILLER_0_186_729
*4096 FILLER_0_186_741
*4097 FILLER_0_187_1464
*4098 FILLER_0_187_1476
*4099 FILLER_0_187_1488
*4100 FILLER_0_187_1500
*4101 FILLER_0_187_1506
*4102 FILLER_0_187_703
*4103 FILLER_0_187_715
*4104 FILLER_0_187_727
*4105 FILLER_0_187_739
*4106 FILLER_0_188_1464
*4107 FILLER_0_188_1476
*4108 FILLER_0_188_1488
*4109 FILLER_0_188_1490
*4110 FILLER_0_188_1502
*4111 FILLER_0_188_1506
*4112 FILLER_0_188_703
*4113 FILLER_0_188_715
*4114 FILLER_0_188_727
*4115 FILLER_0_188_729
*4116 FILLER_0_188_741
*4117 FILLER_0_189_1464
*4118 FILLER_0_189_1476
*4119 FILLER_0_189_1488
*4120 FILLER_0_189_1500
*4121 FILLER_0_189_1506
*4122 FILLER_0_189_703
*4123 FILLER_0_189_715
*4124 FILLER_0_189_727
*4125 FILLER_0_189_739
*4126 FILLER_0_18_1464
*4127 FILLER_0_18_1476
*4128 FILLER_0_18_1488
*4129 FILLER_0_18_1490
*4130 FILLER_0_18_1502
*4131 FILLER_0_18_1506
*4132 FILLER_0_18_703
*4133 FILLER_0_18_715
*4134 FILLER_0_18_727
*4135 FILLER_0_18_729
*4136 FILLER_0_18_741
*4137 FILLER_0_190_1464
*4138 FILLER_0_190_1468
*4139 FILLER_0_190_1480
*4140 FILLER_0_190_1488
*4141 FILLER_0_190_1490
*4142 FILLER_0_190_1502
*4143 FILLER_0_190_1506
*4144 FILLER_0_190_703
*4145 FILLER_0_190_715
*4146 FILLER_0_190_727
*4147 FILLER_0_190_729
*4148 FILLER_0_190_741
*4149 FILLER_0_191_1464
*4150 FILLER_0_191_1468
*4151 FILLER_0_191_1472
*4152 FILLER_0_191_1484
*4153 FILLER_0_191_1496
*4154 FILLER_0_191_1504
*4155 FILLER_0_191_703
*4156 FILLER_0_191_707
*4157 FILLER_0_191_719
*4158 FILLER_0_191_731
*4159 FILLER_0_191_743
*4160 FILLER_0_192_1464
*4161 FILLER_0_192_1468
*4162 FILLER_0_192_1480
*4163 FILLER_0_192_1488
*4164 FILLER_0_192_1490
*4165 FILLER_0_192_1502
*4166 FILLER_0_192_1506
*4167 FILLER_0_192_703
*4168 FILLER_0_192_715
*4169 FILLER_0_192_727
*4170 FILLER_0_192_729
*4171 FILLER_0_192_741
*4172 FILLER_0_193_1464
*4173 FILLER_0_193_1476
*4174 FILLER_0_193_1488
*4175 FILLER_0_193_1500
*4176 FILLER_0_193_1506
*4177 FILLER_0_193_703
*4178 FILLER_0_193_715
*4179 FILLER_0_193_727
*4180 FILLER_0_193_739
*4181 FILLER_0_194_1464
*4182 FILLER_0_194_1476
*4183 FILLER_0_194_1488
*4184 FILLER_0_194_1490
*4185 FILLER_0_194_1502
*4186 FILLER_0_194_1506
*4187 FILLER_0_194_703
*4188 FILLER_0_194_715
*4189 FILLER_0_194_727
*4190 FILLER_0_194_729
*4191 FILLER_0_194_741
*4192 FILLER_0_195_1464
*4193 FILLER_0_195_1468
*4194 FILLER_0_195_1480
*4195 FILLER_0_195_1492
*4196 FILLER_0_195_1504
*4197 FILLER_0_195_703
*4198 FILLER_0_195_707
*4199 FILLER_0_195_719
*4200 FILLER_0_195_731
*4201 FILLER_0_195_743
*4202 FILLER_0_196_1464
*4203 FILLER_0_196_1476
*4204 FILLER_0_196_1488
*4205 FILLER_0_196_1490
*4206 FILLER_0_196_1502
*4207 FILLER_0_196_1506
*4208 FILLER_0_196_703
*4209 FILLER_0_196_715
*4210 FILLER_0_196_727
*4211 FILLER_0_196_729
*4212 FILLER_0_196_741
*4213 FILLER_0_197_1464
*4214 FILLER_0_197_1476
*4215 FILLER_0_197_1488
*4216 FILLER_0_197_1500
*4217 FILLER_0_197_1506
*4218 FILLER_0_197_703
*4219 FILLER_0_197_715
*4220 FILLER_0_197_727
*4221 FILLER_0_197_739
*4222 FILLER_0_198_1464
*4223 FILLER_0_198_1468
*4224 FILLER_0_198_1480
*4225 FILLER_0_198_1488
*4226 FILLER_0_198_1490
*4227 FILLER_0_198_1502
*4228 FILLER_0_198_1506
*4229 FILLER_0_198_703
*4230 FILLER_0_198_715
*4231 FILLER_0_198_727
*4232 FILLER_0_198_729
*4233 FILLER_0_198_741
*4234 FILLER_0_199_1464
*4235 FILLER_0_199_1468
*4236 FILLER_0_199_1472
*4237 FILLER_0_199_1484
*4238 FILLER_0_199_1496
*4239 FILLER_0_199_1504
*4240 FILLER_0_199_703
*4241 FILLER_0_199_707
*4242 FILLER_0_199_719
*4243 FILLER_0_199_731
*4244 FILLER_0_199_743
*4245 FILLER_0_19_1464
*4246 FILLER_0_19_1476
*4247 FILLER_0_19_1488
*4248 FILLER_0_19_1500
*4249 FILLER_0_19_1506
*4250 FILLER_0_19_703
*4251 FILLER_0_19_715
*4252 FILLER_0_19_727
*4253 FILLER_0_19_739
*4254 FILLER_0_1_1003
*4255 FILLER_0_1_1007
*4256 FILLER_0_1_1033
*4257 FILLER_0_1_1037
*4258 FILLER_0_1_1046
*4259 FILLER_0_1_105
*4260 FILLER_0_1_1063
*4261 FILLER_0_1_1065
*4262 FILLER_0_1_1076
*4263 FILLER_0_1_1093
*4264 FILLER_0_1_1099
*4265 FILLER_0_1_111
*4266 FILLER_0_1_1116
*4267 FILLER_0_1_1121
*4268 FILLER_0_1_113
*4269 FILLER_0_1_1175
*4270 FILLER_0_1_1177
*4271 FILLER_0_1_1203
*4272 FILLER_0_1_1215
*4273 FILLER_0_1_1223
*4274 FILLER_0_1_125
*4275 FILLER_0_1_1273
*4276 FILLER_0_1_1279
*4277 FILLER_0_1_1305
*4278 FILLER_0_1_1331
*4279 FILLER_0_1_1343
*4280 FILLER_0_1_1345
*4281 FILLER_0_1_1363
*4282 FILLER_0_1_137
*4283 FILLER_0_1_1393
*4284 FILLER_0_1_1399
*4285 FILLER_0_1_1401
*4286 FILLER_0_1_1423
*4287 FILLER_0_1_1427
*4288 FILLER_0_1_1436
*4289 FILLER_0_1_1453
*4290 FILLER_0_1_1457
*4291 FILLER_0_1_1466
*4292 FILLER_0_1_149
*4293 FILLER_0_1_15
*4294 FILLER_0_1_161
*4295 FILLER_0_1_167
*4296 FILLER_0_1_169
*4297 FILLER_0_1_181
*4298 FILLER_0_1_193
*4299 FILLER_0_1_205
*4300 FILLER_0_1_217
*4301 FILLER_0_1_223
*4302 FILLER_0_1_225
*4303 FILLER_0_1_237
*4304 FILLER_0_1_249
*4305 FILLER_0_1_261
*4306 FILLER_0_1_27
*4307 FILLER_0_1_273
*4308 FILLER_0_1_279
*4309 FILLER_0_1_281
*4310 FILLER_0_1_293
*4311 FILLER_0_1_3
*4312 FILLER_0_1_305
*4313 FILLER_0_1_317
*4314 FILLER_0_1_329
*4315 FILLER_0_1_335
*4316 FILLER_0_1_337
*4317 FILLER_0_1_349
*4318 FILLER_0_1_361
*4319 FILLER_0_1_373
*4320 FILLER_0_1_385
*4321 FILLER_0_1_39
*4322 FILLER_0_1_391
*4323 FILLER_0_1_393
*4324 FILLER_0_1_405
*4325 FILLER_0_1_417
*4326 FILLER_0_1_429
*4327 FILLER_0_1_441
*4328 FILLER_0_1_447
*4329 FILLER_0_1_449
*4330 FILLER_0_1_461
*4331 FILLER_0_1_483
*4332 FILLER_0_1_495
*4333 FILLER_0_1_503
*4334 FILLER_0_1_505
*4335 FILLER_0_1_51
*4336 FILLER_0_1_517
*4337 FILLER_0_1_55
*4338 FILLER_0_1_551
*4339 FILLER_0_1_57
*4340 FILLER_0_1_613
*4341 FILLER_0_1_633
*4342 FILLER_0_1_653
*4343 FILLER_0_1_673
*4344 FILLER_0_1_69
*4345 FILLER_0_1_723
*4346 FILLER_0_1_727
*4347 FILLER_0_1_753
*4348 FILLER_0_1_781
*4349 FILLER_0_1_785
*4350 FILLER_0_1_81
*4351 FILLER_0_1_835
*4352 FILLER_0_1_839
*4353 FILLER_0_1_873
*4354 FILLER_0_1_893
*4355 FILLER_0_1_925
*4356 FILLER_0_1_93
*4357 FILLER_0_1_951
*4358 FILLER_0_1_953
*4359 FILLER_0_1_973
*4360 FILLER_0_200_1464
*4361 FILLER_0_200_1476
*4362 FILLER_0_200_1488
*4363 FILLER_0_200_1490
*4364 FILLER_0_200_1502
*4365 FILLER_0_200_1506
*4366 FILLER_0_200_703
*4367 FILLER_0_200_715
*4368 FILLER_0_200_727
*4369 FILLER_0_200_729
*4370 FILLER_0_200_741
*4371 FILLER_0_201_1464
*4372 FILLER_0_201_1476
*4373 FILLER_0_201_1488
*4374 FILLER_0_201_1500
*4375 FILLER_0_201_1506
*4376 FILLER_0_201_703
*4377 FILLER_0_201_715
*4378 FILLER_0_201_727
*4379 FILLER_0_201_739
*4380 FILLER_0_202_1464
*4381 FILLER_0_202_1476
*4382 FILLER_0_202_1488
*4383 FILLER_0_202_1490
*4384 FILLER_0_202_1502
*4385 FILLER_0_202_1506
*4386 FILLER_0_202_703
*4387 FILLER_0_202_715
*4388 FILLER_0_202_727
*4389 FILLER_0_202_729
*4390 FILLER_0_202_741
*4391 FILLER_0_203_1464
*4392 FILLER_0_203_1468
*4393 FILLER_0_203_1480
*4394 FILLER_0_203_1492
*4395 FILLER_0_203_1504
*4396 FILLER_0_203_703
*4397 FILLER_0_203_707
*4398 FILLER_0_203_719
*4399 FILLER_0_203_731
*4400 FILLER_0_203_743
*4401 FILLER_0_204_1464
*4402 FILLER_0_204_1476
*4403 FILLER_0_204_1488
*4404 FILLER_0_204_1490
*4405 FILLER_0_204_1502
*4406 FILLER_0_204_1506
*4407 FILLER_0_204_703
*4408 FILLER_0_204_715
*4409 FILLER_0_204_727
*4410 FILLER_0_204_729
*4411 FILLER_0_204_741
*4412 FILLER_0_205_1464
*4413 FILLER_0_205_1476
*4414 FILLER_0_205_1488
*4415 FILLER_0_205_1500
*4416 FILLER_0_205_1506
*4417 FILLER_0_205_703
*4418 FILLER_0_205_715
*4419 FILLER_0_205_727
*4420 FILLER_0_205_739
*4421 FILLER_0_206_1464
*4422 FILLER_0_206_1468
*4423 FILLER_0_206_1480
*4424 FILLER_0_206_1488
*4425 FILLER_0_206_1490
*4426 FILLER_0_206_1502
*4427 FILLER_0_206_1506
*4428 FILLER_0_206_703
*4429 FILLER_0_206_715
*4430 FILLER_0_206_727
*4431 FILLER_0_206_729
*4432 FILLER_0_206_741
*4433 FILLER_0_207_1464
*4434 FILLER_0_207_1468
*4435 FILLER_0_207_1472
*4436 FILLER_0_207_1484
*4437 FILLER_0_207_1496
*4438 FILLER_0_207_1504
*4439 FILLER_0_207_703
*4440 FILLER_0_207_707
*4441 FILLER_0_207_719
*4442 FILLER_0_207_731
*4443 FILLER_0_207_743
*4444 FILLER_0_208_1464
*4445 FILLER_0_208_1468
*4446 FILLER_0_208_1480
*4447 FILLER_0_208_1488
*4448 FILLER_0_208_1490
*4449 FILLER_0_208_1502
*4450 FILLER_0_208_1506
*4451 FILLER_0_208_703
*4452 FILLER_0_208_715
*4453 FILLER_0_208_727
*4454 FILLER_0_208_729
*4455 FILLER_0_208_741
*4456 FILLER_0_209_1464
*4457 FILLER_0_209_1476
*4458 FILLER_0_209_1488
*4459 FILLER_0_209_1500
*4460 FILLER_0_209_1506
*4461 FILLER_0_209_703
*4462 FILLER_0_209_715
*4463 FILLER_0_209_727
*4464 FILLER_0_209_739
*4465 FILLER_0_20_1464
*4466 FILLER_0_20_1468
*4467 FILLER_0_20_1472
*4468 FILLER_0_20_1484
*4469 FILLER_0_20_1488
*4470 FILLER_0_20_1490
*4471 FILLER_0_20_1502
*4472 FILLER_0_20_1506
*4473 FILLER_0_20_703
*4474 FILLER_0_20_715
*4475 FILLER_0_20_727
*4476 FILLER_0_20_729
*4477 FILLER_0_20_741
*4478 FILLER_0_210_1464
*4479 FILLER_0_210_1476
*4480 FILLER_0_210_1488
*4481 FILLER_0_210_1490
*4482 FILLER_0_210_1502
*4483 FILLER_0_210_1506
*4484 FILLER_0_210_703
*4485 FILLER_0_210_715
*4486 FILLER_0_210_727
*4487 FILLER_0_210_729
*4488 FILLER_0_210_741
*4489 FILLER_0_211_1464
*4490 FILLER_0_211_1468
*4491 FILLER_0_211_1480
*4492 FILLER_0_211_1492
*4493 FILLER_0_211_1504
*4494 FILLER_0_211_703
*4495 FILLER_0_211_707
*4496 FILLER_0_211_719
*4497 FILLER_0_211_731
*4498 FILLER_0_211_743
*4499 FILLER_0_212_1464
*4500 FILLER_0_212_1476
*4501 FILLER_0_212_1488
*4502 FILLER_0_212_1490
*4503 FILLER_0_212_1502
*4504 FILLER_0_212_1506
*4505 FILLER_0_212_703
*4506 FILLER_0_212_715
*4507 FILLER_0_212_727
*4508 FILLER_0_212_729
*4509 FILLER_0_212_741
*4510 FILLER_0_213_1464
*4511 FILLER_0_213_1476
*4512 FILLER_0_213_1488
*4513 FILLER_0_213_1500
*4514 FILLER_0_213_1506
*4515 FILLER_0_213_703
*4516 FILLER_0_213_715
*4517 FILLER_0_213_727
*4518 FILLER_0_213_739
*4519 FILLER_0_214_1464
*4520 FILLER_0_214_1476
*4521 FILLER_0_214_1488
*4522 FILLER_0_214_1490
*4523 FILLER_0_214_1502
*4524 FILLER_0_214_1506
*4525 FILLER_0_214_703
*4526 FILLER_0_214_715
*4527 FILLER_0_214_727
*4528 FILLER_0_214_729
*4529 FILLER_0_214_741
*4530 FILLER_0_215_1464
*4531 FILLER_0_215_1468
*4532 FILLER_0_215_1480
*4533 FILLER_0_215_1492
*4534 FILLER_0_215_1504
*4535 FILLER_0_215_703
*4536 FILLER_0_215_707
*4537 FILLER_0_215_719
*4538 FILLER_0_215_731
*4539 FILLER_0_215_743
*4540 FILLER_0_216_1464
*4541 FILLER_0_216_1476
*4542 FILLER_0_216_1488
*4543 FILLER_0_216_1490
*4544 FILLER_0_216_1502
*4545 FILLER_0_216_1506
*4546 FILLER_0_216_703
*4547 FILLER_0_216_715
*4548 FILLER_0_216_727
*4549 FILLER_0_216_729
*4550 FILLER_0_216_741
*4551 FILLER_0_217_1464
*4552 FILLER_0_217_1476
*4553 FILLER_0_217_1488
*4554 FILLER_0_217_1500
*4555 FILLER_0_217_1506
*4556 FILLER_0_217_703
*4557 FILLER_0_217_715
*4558 FILLER_0_217_727
*4559 FILLER_0_217_739
*4560 FILLER_0_218_1464
*4561 FILLER_0_218_1476
*4562 FILLER_0_218_1488
*4563 FILLER_0_218_1490
*4564 FILLER_0_218_1502
*4565 FILLER_0_218_1506
*4566 FILLER_0_218_703
*4567 FILLER_0_218_715
*4568 FILLER_0_218_727
*4569 FILLER_0_218_729
*4570 FILLER_0_218_741
*4571 FILLER_0_219_1464
*4572 FILLER_0_219_1468
*4573 FILLER_0_219_1480
*4574 FILLER_0_219_1492
*4575 FILLER_0_219_1504
*4576 FILLER_0_219_703
*4577 FILLER_0_219_707
*4578 FILLER_0_219_719
*4579 FILLER_0_219_731
*4580 FILLER_0_219_743
*4581 FILLER_0_21_1464
*4582 FILLER_0_21_1468
*4583 FILLER_0_21_1472
*4584 FILLER_0_21_1476
*4585 FILLER_0_21_1488
*4586 FILLER_0_21_1500
*4587 FILLER_0_21_1506
*4588 FILLER_0_21_703
*4589 FILLER_0_21_715
*4590 FILLER_0_21_727
*4591 FILLER_0_21_739
*4592 FILLER_0_220_1464
*4593 FILLER_0_220_1476
*4594 FILLER_0_220_1488
*4595 FILLER_0_220_1490
*4596 FILLER_0_220_1502
*4597 FILLER_0_220_1506
*4598 FILLER_0_220_703
*4599 FILLER_0_220_715
*4600 FILLER_0_220_727
*4601 FILLER_0_220_729
*4602 FILLER_0_220_741
*4603 FILLER_0_221_1464
*4604 FILLER_0_221_1476
*4605 FILLER_0_221_1488
*4606 FILLER_0_221_1500
*4607 FILLER_0_221_1506
*4608 FILLER_0_221_703
*4609 FILLER_0_221_715
*4610 FILLER_0_221_727
*4611 FILLER_0_221_739
*4612 FILLER_0_222_1464
*4613 FILLER_0_222_1476
*4614 FILLER_0_222_1488
*4615 FILLER_0_222_1490
*4616 FILLER_0_222_1502
*4617 FILLER_0_222_1506
*4618 FILLER_0_222_703
*4619 FILLER_0_222_715
*4620 FILLER_0_222_727
*4621 FILLER_0_222_729
*4622 FILLER_0_222_741
*4623 FILLER_0_223_1464
*4624 FILLER_0_223_1468
*4625 FILLER_0_223_1480
*4626 FILLER_0_223_1492
*4627 FILLER_0_223_1504
*4628 FILLER_0_223_703
*4629 FILLER_0_223_707
*4630 FILLER_0_223_719
*4631 FILLER_0_223_731
*4632 FILLER_0_223_743
*4633 FILLER_0_224_1464
*4634 FILLER_0_224_1476
*4635 FILLER_0_224_1488
*4636 FILLER_0_224_1490
*4637 FILLER_0_224_1502
*4638 FILLER_0_224_1506
*4639 FILLER_0_224_703
*4640 FILLER_0_224_715
*4641 FILLER_0_224_727
*4642 FILLER_0_224_729
*4643 FILLER_0_224_741
*4644 FILLER_0_225_1464
*4645 FILLER_0_225_1476
*4646 FILLER_0_225_1488
*4647 FILLER_0_225_1500
*4648 FILLER_0_225_1506
*4649 FILLER_0_225_703
*4650 FILLER_0_225_715
*4651 FILLER_0_225_727
*4652 FILLER_0_225_739
*4653 FILLER_0_226_1464
*4654 FILLER_0_226_1476
*4655 FILLER_0_226_1488
*4656 FILLER_0_226_1490
*4657 FILLER_0_226_1502
*4658 FILLER_0_226_1506
*4659 FILLER_0_226_703
*4660 FILLER_0_226_715
*4661 FILLER_0_226_727
*4662 FILLER_0_226_729
*4663 FILLER_0_226_741
*4664 FILLER_0_227_1464
*4665 FILLER_0_227_1468
*4666 FILLER_0_227_1472
*4667 FILLER_0_227_1484
*4668 FILLER_0_227_1496
*4669 FILLER_0_227_1504
*4670 FILLER_0_227_703
*4671 FILLER_0_227_707
*4672 FILLER_0_227_719
*4673 FILLER_0_227_731
*4674 FILLER_0_227_743
*4675 FILLER_0_228_1464
*4676 FILLER_0_228_1476
*4677 FILLER_0_228_1488
*4678 FILLER_0_228_1490
*4679 FILLER_0_228_1502
*4680 FILLER_0_228_1506
*4681 FILLER_0_228_703
*4682 FILLER_0_228_715
*4683 FILLER_0_228_727
*4684 FILLER_0_228_729
*4685 FILLER_0_228_741
*4686 FILLER_0_229_1464
*4687 FILLER_0_229_1476
*4688 FILLER_0_229_1488
*4689 FILLER_0_229_1500
*4690 FILLER_0_229_1506
*4691 FILLER_0_229_703
*4692 FILLER_0_229_715
*4693 FILLER_0_229_727
*4694 FILLER_0_229_739
*4695 FILLER_0_22_1464
*4696 FILLER_0_22_1468
*4697 FILLER_0_22_1472
*4698 FILLER_0_22_1484
*4699 FILLER_0_22_1488
*4700 FILLER_0_22_1490
*4701 FILLER_0_22_1502
*4702 FILLER_0_22_1506
*4703 FILLER_0_22_703
*4704 FILLER_0_22_711
*4705 FILLER_0_22_721
*4706 FILLER_0_22_727
*4707 FILLER_0_22_729
*4708 FILLER_0_22_741
*4709 FILLER_0_22_745
*4710 FILLER_0_230_1464
*4711 FILLER_0_230_1476
*4712 FILLER_0_230_1488
*4713 FILLER_0_230_1490
*4714 FILLER_0_230_1502
*4715 FILLER_0_230_1506
*4716 FILLER_0_230_703
*4717 FILLER_0_230_715
*4718 FILLER_0_230_727
*4719 FILLER_0_230_729
*4720 FILLER_0_230_741
*4721 FILLER_0_231_1464
*4722 FILLER_0_231_1468
*4723 FILLER_0_231_1480
*4724 FILLER_0_231_1492
*4725 FILLER_0_231_1504
*4726 FILLER_0_231_703
*4727 FILLER_0_231_707
*4728 FILLER_0_231_719
*4729 FILLER_0_231_731
*4730 FILLER_0_231_743
*4731 FILLER_0_232_1464
*4732 FILLER_0_232_1476
*4733 FILLER_0_232_1488
*4734 FILLER_0_232_1490
*4735 FILLER_0_232_1502
*4736 FILLER_0_232_1506
*4737 FILLER_0_232_703
*4738 FILLER_0_232_715
*4739 FILLER_0_232_727
*4740 FILLER_0_232_729
*4741 FILLER_0_232_741
*4742 FILLER_0_233_1464
*4743 FILLER_0_233_1476
*4744 FILLER_0_233_1488
*4745 FILLER_0_233_1500
*4746 FILLER_0_233_1506
*4747 FILLER_0_233_703
*4748 FILLER_0_233_715
*4749 FILLER_0_233_727
*4750 FILLER_0_233_739
*4751 FILLER_0_234_1464
*4752 FILLER_0_234_1476
*4753 FILLER_0_234_1488
*4754 FILLER_0_234_1490
*4755 FILLER_0_234_1502
*4756 FILLER_0_234_1506
*4757 FILLER_0_234_703
*4758 FILLER_0_234_715
*4759 FILLER_0_234_727
*4760 FILLER_0_234_729
*4761 FILLER_0_234_741
*4762 FILLER_0_235_1464
*4763 FILLER_0_235_1468
*4764 FILLER_0_235_1480
*4765 FILLER_0_235_1492
*4766 FILLER_0_235_1504
*4767 FILLER_0_235_703
*4768 FILLER_0_235_707
*4769 FILLER_0_235_719
*4770 FILLER_0_235_731
*4771 FILLER_0_235_743
*4772 FILLER_0_236_1464
*4773 FILLER_0_236_1476
*4774 FILLER_0_236_1488
*4775 FILLER_0_236_1490
*4776 FILLER_0_236_1502
*4777 FILLER_0_236_1506
*4778 FILLER_0_236_703
*4779 FILLER_0_236_715
*4780 FILLER_0_236_727
*4781 FILLER_0_236_729
*4782 FILLER_0_236_741
*4783 FILLER_0_237_1464
*4784 FILLER_0_237_1476
*4785 FILLER_0_237_1488
*4786 FILLER_0_237_1500
*4787 FILLER_0_237_1506
*4788 FILLER_0_237_703
*4789 FILLER_0_237_715
*4790 FILLER_0_237_727
*4791 FILLER_0_237_739
*4792 FILLER_0_238_1467
*4793 FILLER_0_238_1479
*4794 FILLER_0_238_1487
*4795 FILLER_0_238_1490
*4796 FILLER_0_238_1502
*4797 FILLER_0_238_1506
*4798 FILLER_0_238_706
*4799 FILLER_0_238_718
*4800 FILLER_0_238_726
*4801 FILLER_0_238_729
*4802 FILLER_0_238_741
*4803 FILLER_0_239_1464
*4804 FILLER_0_239_1468
*4805 FILLER_0_239_1480
*4806 FILLER_0_239_1492
*4807 FILLER_0_239_1504
*4808 FILLER_0_239_703
*4809 FILLER_0_239_707
*4810 FILLER_0_239_719
*4811 FILLER_0_239_731
*4812 FILLER_0_239_743
*4813 FILLER_0_23_1464
*4814 FILLER_0_23_1476
*4815 FILLER_0_23_1488
*4816 FILLER_0_23_1500
*4817 FILLER_0_23_1506
*4818 FILLER_0_23_703
*4819 FILLER_0_23_715
*4820 FILLER_0_23_727
*4821 FILLER_0_23_739
*4822 FILLER_0_240_1467
*4823 FILLER_0_240_1479
*4824 FILLER_0_240_1487
*4825 FILLER_0_240_1490
*4826 FILLER_0_240_1502
*4827 FILLER_0_240_1506
*4828 FILLER_0_240_706
*4829 FILLER_0_240_718
*4830 FILLER_0_240_726
*4831 FILLER_0_240_729
*4832 FILLER_0_240_741
*4833 FILLER_0_241_1464
*4834 FILLER_0_241_1476
*4835 FILLER_0_241_1488
*4836 FILLER_0_241_1500
*4837 FILLER_0_241_1506
*4838 FILLER_0_241_703
*4839 FILLER_0_241_715
*4840 FILLER_0_241_727
*4841 FILLER_0_241_739
*4842 FILLER_0_242_1464
*4843 FILLER_0_242_1476
*4844 FILLER_0_242_1488
*4845 FILLER_0_242_1490
*4846 FILLER_0_242_1502
*4847 FILLER_0_242_1506
*4848 FILLER_0_242_703
*4849 FILLER_0_242_715
*4850 FILLER_0_242_727
*4851 FILLER_0_242_729
*4852 FILLER_0_242_741
*4853 FILLER_0_243_1464
*4854 FILLER_0_243_1476
*4855 FILLER_0_243_1488
*4856 FILLER_0_243_1500
*4857 FILLER_0_243_1506
*4858 FILLER_0_243_703
*4859 FILLER_0_243_715
*4860 FILLER_0_243_727
*4861 FILLER_0_243_739
*4862 FILLER_0_244_1464
*4863 FILLER_0_244_1476
*4864 FILLER_0_244_1488
*4865 FILLER_0_244_1490
*4866 FILLER_0_244_1502
*4867 FILLER_0_244_1506
*4868 FILLER_0_244_703
*4869 FILLER_0_244_715
*4870 FILLER_0_244_727
*4871 FILLER_0_244_729
*4872 FILLER_0_244_741
*4873 FILLER_0_245_1464
*4874 FILLER_0_245_1476
*4875 FILLER_0_245_1488
*4876 FILLER_0_245_1500
*4877 FILLER_0_245_1506
*4878 FILLER_0_245_703
*4879 FILLER_0_245_715
*4880 FILLER_0_245_727
*4881 FILLER_0_245_739
*4882 FILLER_0_246_1470
*4883 FILLER_0_246_1482
*4884 FILLER_0_246_1488
*4885 FILLER_0_246_1490
*4886 FILLER_0_246_1502
*4887 FILLER_0_246_1506
*4888 FILLER_0_246_709
*4889 FILLER_0_246_721
*4890 FILLER_0_246_727
*4891 FILLER_0_246_729
*4892 FILLER_0_246_741
*4893 FILLER_0_247_1464
*4894 FILLER_0_247_1476
*4895 FILLER_0_247_1488
*4896 FILLER_0_247_1500
*4897 FILLER_0_247_1506
*4898 FILLER_0_247_703
*4899 FILLER_0_247_715
*4900 FILLER_0_247_727
*4901 FILLER_0_247_739
*4902 FILLER_0_248_1464
*4903 FILLER_0_248_1476
*4904 FILLER_0_248_1488
*4905 FILLER_0_248_1490
*4906 FILLER_0_248_1502
*4907 FILLER_0_248_1506
*4908 FILLER_0_248_703
*4909 FILLER_0_248_715
*4910 FILLER_0_248_727
*4911 FILLER_0_248_729
*4912 FILLER_0_248_741
*4913 FILLER_0_249_1464
*4914 FILLER_0_249_1476
*4915 FILLER_0_249_1488
*4916 FILLER_0_249_1500
*4917 FILLER_0_249_1506
*4918 FILLER_0_249_703
*4919 FILLER_0_249_715
*4920 FILLER_0_249_727
*4921 FILLER_0_249_739
*4922 FILLER_0_24_1464
*4923 FILLER_0_24_1468
*4924 FILLER_0_24_1480
*4925 FILLER_0_24_1488
*4926 FILLER_0_24_1490
*4927 FILLER_0_24_1502
*4928 FILLER_0_24_1506
*4929 FILLER_0_24_719
*4930 FILLER_0_24_727
*4931 FILLER_0_24_729
*4932 FILLER_0_24_741
*4933 FILLER_0_250_1464
*4934 FILLER_0_250_1476
*4935 FILLER_0_250_1488
*4936 FILLER_0_250_1490
*4937 FILLER_0_250_1502
*4938 FILLER_0_250_1506
*4939 FILLER_0_250_703
*4940 FILLER_0_250_715
*4941 FILLER_0_250_727
*4942 FILLER_0_250_729
*4943 FILLER_0_250_741
*4944 FILLER_0_251_1467
*4945 FILLER_0_251_1479
*4946 FILLER_0_251_1491
*4947 FILLER_0_251_1503
*4948 FILLER_0_251_706
*4949 FILLER_0_251_718
*4950 FILLER_0_251_730
*4951 FILLER_0_251_742
*4952 FILLER_0_251_746
*4953 FILLER_0_252_1467
*4954 FILLER_0_252_1471
*4955 FILLER_0_252_1483
*4956 FILLER_0_252_1490
*4957 FILLER_0_252_1502
*4958 FILLER_0_252_1506
*4959 FILLER_0_252_706
*4960 FILLER_0_252_710
*4961 FILLER_0_252_722
*4962 FILLER_0_252_729
*4963 FILLER_0_252_741
*4964 FILLER_0_253_1464
*4965 FILLER_0_253_1476
*4966 FILLER_0_253_1488
*4967 FILLER_0_253_1500
*4968 FILLER_0_253_1506
*4969 FILLER_0_253_703
*4970 FILLER_0_253_715
*4971 FILLER_0_253_727
*4972 FILLER_0_253_739
*4973 FILLER_0_254_1464
*4974 FILLER_0_254_1476
*4975 FILLER_0_254_1488
*4976 FILLER_0_254_1490
*4977 FILLER_0_254_1502
*4978 FILLER_0_254_1506
*4979 FILLER_0_254_703
*4980 FILLER_0_254_715
*4981 FILLER_0_254_727
*4982 FILLER_0_254_729
*4983 FILLER_0_254_741
*4984 FILLER_0_255_1464
*4985 FILLER_0_255_1468
*4986 FILLER_0_255_1480
*4987 FILLER_0_255_1492
*4988 FILLER_0_255_1504
*4989 FILLER_0_255_703
*4990 FILLER_0_255_707
*4991 FILLER_0_255_719
*4992 FILLER_0_255_731
*4993 FILLER_0_255_743
*4994 FILLER_0_256_1470
*4995 FILLER_0_256_1474
*4996 FILLER_0_256_1486
*4997 FILLER_0_256_1490
*4998 FILLER_0_256_1502
*4999 FILLER_0_256_1506
*5000 FILLER_0_256_709
*5001 FILLER_0_256_721
*5002 FILLER_0_256_727
*5003 FILLER_0_256_729
*5004 FILLER_0_256_741
*5005 FILLER_0_257_1464
*5006 FILLER_0_257_1476
*5007 FILLER_0_257_1488
*5008 FILLER_0_257_1500
*5009 FILLER_0_257_1506
*5010 FILLER_0_257_703
*5011 FILLER_0_257_715
*5012 FILLER_0_257_727
*5013 FILLER_0_257_739
*5014 FILLER_0_258_1464
*5015 FILLER_0_258_1476
*5016 FILLER_0_258_1488
*5017 FILLER_0_258_1490
*5018 FILLER_0_258_1502
*5019 FILLER_0_258_1506
*5020 FILLER_0_258_703
*5021 FILLER_0_258_715
*5022 FILLER_0_258_727
*5023 FILLER_0_258_729
*5024 FILLER_0_258_741
*5025 FILLER_0_259_1464
*5026 FILLER_0_259_1476
*5027 FILLER_0_259_1488
*5028 FILLER_0_259_1500
*5029 FILLER_0_259_1506
*5030 FILLER_0_259_703
*5031 FILLER_0_259_715
*5032 FILLER_0_259_727
*5033 FILLER_0_259_739
*5034 FILLER_0_25_1464
*5035 FILLER_0_25_1468
*5036 FILLER_0_25_1472
*5037 FILLER_0_25_1484
*5038 FILLER_0_25_1496
*5039 FILLER_0_25_1504
*5040 FILLER_0_25_703
*5041 FILLER_0_25_715
*5042 FILLER_0_25_727
*5043 FILLER_0_25_739
*5044 FILLER_0_260_1464
*5045 FILLER_0_260_1468
*5046 FILLER_0_260_1472
*5047 FILLER_0_260_1484
*5048 FILLER_0_260_1488
*5049 FILLER_0_260_1490
*5050 FILLER_0_260_1502
*5051 FILLER_0_260_1506
*5052 FILLER_0_260_703
*5053 FILLER_0_260_707
*5054 FILLER_0_260_719
*5055 FILLER_0_260_727
*5056 FILLER_0_260_729
*5057 FILLER_0_260_741
*5058 FILLER_0_261_1464
*5059 FILLER_0_261_1476
*5060 FILLER_0_261_1488
*5061 FILLER_0_261_1500
*5062 FILLER_0_261_1506
*5063 FILLER_0_261_703
*5064 FILLER_0_261_715
*5065 FILLER_0_261_727
*5066 FILLER_0_261_739
*5067 FILLER_0_262_1464
*5068 FILLER_0_262_1476
*5069 FILLER_0_262_1488
*5070 FILLER_0_262_1490
*5071 FILLER_0_262_1502
*5072 FILLER_0_262_1506
*5073 FILLER_0_262_703
*5074 FILLER_0_262_715
*5075 FILLER_0_262_727
*5076 FILLER_0_262_729
*5077 FILLER_0_262_741
*5078 FILLER_0_263_1464
*5079 FILLER_0_263_1476
*5080 FILLER_0_263_1488
*5081 FILLER_0_263_1500
*5082 FILLER_0_263_1506
*5083 FILLER_0_263_703
*5084 FILLER_0_263_715
*5085 FILLER_0_263_727
*5086 FILLER_0_263_739
*5087 FILLER_0_264_1464
*5088 FILLER_0_264_1468
*5089 FILLER_0_264_1480
*5090 FILLER_0_264_1488
*5091 FILLER_0_264_1490
*5092 FILLER_0_264_1502
*5093 FILLER_0_264_1506
*5094 FILLER_0_264_703
*5095 FILLER_0_264_707
*5096 FILLER_0_264_719
*5097 FILLER_0_264_727
*5098 FILLER_0_264_729
*5099 FILLER_0_264_741
*5100 FILLER_0_265_1464
*5101 FILLER_0_265_1476
*5102 FILLER_0_265_1488
*5103 FILLER_0_265_1500
*5104 FILLER_0_265_1506
*5105 FILLER_0_265_703
*5106 FILLER_0_265_715
*5107 FILLER_0_265_727
*5108 FILLER_0_265_739
*5109 FILLER_0_266_1464
*5110 FILLER_0_266_1476
*5111 FILLER_0_266_1488
*5112 FILLER_0_266_1490
*5113 FILLER_0_266_1502
*5114 FILLER_0_266_1506
*5115 FILLER_0_266_703
*5116 FILLER_0_266_715
*5117 FILLER_0_266_727
*5118 FILLER_0_266_729
*5119 FILLER_0_266_741
*5120 FILLER_0_267_1464
*5121 FILLER_0_267_1476
*5122 FILLER_0_267_1488
*5123 FILLER_0_267_1500
*5124 FILLER_0_267_1506
*5125 FILLER_0_267_703
*5126 FILLER_0_267_715
*5127 FILLER_0_267_727
*5128 FILLER_0_267_739
*5129 FILLER_0_268_1464
*5130 FILLER_0_268_1468
*5131 FILLER_0_268_1480
*5132 FILLER_0_268_1488
*5133 FILLER_0_268_1490
*5134 FILLER_0_268_1502
*5135 FILLER_0_268_1506
*5136 FILLER_0_268_703
*5137 FILLER_0_268_707
*5138 FILLER_0_268_719
*5139 FILLER_0_268_727
*5140 FILLER_0_268_729
*5141 FILLER_0_268_741
*5142 FILLER_0_269_1464
*5143 FILLER_0_269_1476
*5144 FILLER_0_269_1488
*5145 FILLER_0_269_1500
*5146 FILLER_0_269_1506
*5147 FILLER_0_269_703
*5148 FILLER_0_269_715
*5149 FILLER_0_269_727
*5150 FILLER_0_269_739
*5151 FILLER_0_26_1464
*5152 FILLER_0_26_1468
*5153 FILLER_0_26_1480
*5154 FILLER_0_26_1488
*5155 FILLER_0_26_1490
*5156 FILLER_0_26_1502
*5157 FILLER_0_26_1506
*5158 FILLER_0_26_712
*5159 FILLER_0_26_724
*5160 FILLER_0_26_729
*5161 FILLER_0_26_741
*5162 FILLER_0_270_1464
*5163 FILLER_0_270_1476
*5164 FILLER_0_270_1488
*5165 FILLER_0_270_1490
*5166 FILLER_0_270_1502
*5167 FILLER_0_270_1506
*5168 FILLER_0_270_703
*5169 FILLER_0_270_715
*5170 FILLER_0_270_727
*5171 FILLER_0_270_729
*5172 FILLER_0_270_741
*5173 FILLER_0_271_1464
*5174 FILLER_0_271_1476
*5175 FILLER_0_271_1488
*5176 FILLER_0_271_1500
*5177 FILLER_0_271_1506
*5178 FILLER_0_271_703
*5179 FILLER_0_271_715
*5180 FILLER_0_271_727
*5181 FILLER_0_271_739
*5182 FILLER_0_272_1464
*5183 FILLER_0_272_1468
*5184 FILLER_0_272_1480
*5185 FILLER_0_272_1488
*5186 FILLER_0_272_1490
*5187 FILLER_0_272_1502
*5188 FILLER_0_272_1506
*5189 FILLER_0_272_703
*5190 FILLER_0_272_707
*5191 FILLER_0_272_719
*5192 FILLER_0_272_727
*5193 FILLER_0_272_729
*5194 FILLER_0_272_741
*5195 FILLER_0_273_1464
*5196 FILLER_0_273_1476
*5197 FILLER_0_273_1488
*5198 FILLER_0_273_1500
*5199 FILLER_0_273_1506
*5200 FILLER_0_273_703
*5201 FILLER_0_273_715
*5202 FILLER_0_273_727
*5203 FILLER_0_273_739
*5204 FILLER_0_274_1464
*5205 FILLER_0_274_1476
*5206 FILLER_0_274_1488
*5207 FILLER_0_274_1490
*5208 FILLER_0_274_1502
*5209 FILLER_0_274_1506
*5210 FILLER_0_274_703
*5211 FILLER_0_274_715
*5212 FILLER_0_274_727
*5213 FILLER_0_274_729
*5214 FILLER_0_274_741
*5215 FILLER_0_275_1464
*5216 FILLER_0_275_1476
*5217 FILLER_0_275_1488
*5218 FILLER_0_275_1500
*5219 FILLER_0_275_1506
*5220 FILLER_0_275_703
*5221 FILLER_0_275_715
*5222 FILLER_0_275_727
*5223 FILLER_0_275_739
*5224 FILLER_0_276_1464
*5225 FILLER_0_276_1468
*5226 FILLER_0_276_1480
*5227 FILLER_0_276_1488
*5228 FILLER_0_276_1490
*5229 FILLER_0_276_1502
*5230 FILLER_0_276_1506
*5231 FILLER_0_276_703
*5232 FILLER_0_276_707
*5233 FILLER_0_276_719
*5234 FILLER_0_276_727
*5235 FILLER_0_276_729
*5236 FILLER_0_276_741
*5237 FILLER_0_277_1464
*5238 FILLER_0_277_1476
*5239 FILLER_0_277_1488
*5240 FILLER_0_277_1500
*5241 FILLER_0_277_1506
*5242 FILLER_0_277_703
*5243 FILLER_0_277_715
*5244 FILLER_0_277_727
*5245 FILLER_0_277_739
*5246 FILLER_0_278_1464
*5247 FILLER_0_278_1476
*5248 FILLER_0_278_1488
*5249 FILLER_0_278_1490
*5250 FILLER_0_278_1502
*5251 FILLER_0_278_1506
*5252 FILLER_0_278_703
*5253 FILLER_0_278_715
*5254 FILLER_0_278_727
*5255 FILLER_0_278_729
*5256 FILLER_0_278_741
*5257 FILLER_0_279_1464
*5258 FILLER_0_279_1476
*5259 FILLER_0_279_1488
*5260 FILLER_0_279_1500
*5261 FILLER_0_279_1506
*5262 FILLER_0_279_703
*5263 FILLER_0_279_715
*5264 FILLER_0_279_727
*5265 FILLER_0_279_739
*5266 FILLER_0_27_1464
*5267 FILLER_0_27_1476
*5268 FILLER_0_27_1488
*5269 FILLER_0_27_1500
*5270 FILLER_0_27_1506
*5271 FILLER_0_27_703
*5272 FILLER_0_27_715
*5273 FILLER_0_27_727
*5274 FILLER_0_27_739
*5275 FILLER_0_280_1464
*5276 FILLER_0_280_1468
*5277 FILLER_0_280_1480
*5278 FILLER_0_280_1488
*5279 FILLER_0_280_1490
*5280 FILLER_0_280_1502
*5281 FILLER_0_280_1506
*5282 FILLER_0_280_703
*5283 FILLER_0_280_707
*5284 FILLER_0_280_719
*5285 FILLER_0_280_727
*5286 FILLER_0_280_729
*5287 FILLER_0_280_741
*5288 FILLER_0_281_1464
*5289 FILLER_0_281_1476
*5290 FILLER_0_281_1488
*5291 FILLER_0_281_1500
*5292 FILLER_0_281_1506
*5293 FILLER_0_281_703
*5294 FILLER_0_281_715
*5295 FILLER_0_281_727
*5296 FILLER_0_281_739
*5297 FILLER_0_282_1464
*5298 FILLER_0_282_1476
*5299 FILLER_0_282_1488
*5300 FILLER_0_282_1490
*5301 FILLER_0_282_1502
*5302 FILLER_0_282_1506
*5303 FILLER_0_282_703
*5304 FILLER_0_282_715
*5305 FILLER_0_282_727
*5306 FILLER_0_282_729
*5307 FILLER_0_282_741
*5308 FILLER_0_283_1464
*5309 FILLER_0_283_1476
*5310 FILLER_0_283_1488
*5311 FILLER_0_283_1500
*5312 FILLER_0_283_1506
*5313 FILLER_0_283_703
*5314 FILLER_0_283_715
*5315 FILLER_0_283_727
*5316 FILLER_0_283_739
*5317 FILLER_0_284_1464
*5318 FILLER_0_284_1468
*5319 FILLER_0_284_1480
*5320 FILLER_0_284_1488
*5321 FILLER_0_284_1490
*5322 FILLER_0_284_1502
*5323 FILLER_0_284_1506
*5324 FILLER_0_284_703
*5325 FILLER_0_284_707
*5326 FILLER_0_284_719
*5327 FILLER_0_284_727
*5328 FILLER_0_284_729
*5329 FILLER_0_284_741
*5330 FILLER_0_285_1464
*5331 FILLER_0_285_1476
*5332 FILLER_0_285_1488
*5333 FILLER_0_285_1500
*5334 FILLER_0_285_1506
*5335 FILLER_0_285_703
*5336 FILLER_0_285_715
*5337 FILLER_0_285_727
*5338 FILLER_0_285_739
*5339 FILLER_0_286_1464
*5340 FILLER_0_286_1476
*5341 FILLER_0_286_1488
*5342 FILLER_0_286_1490
*5343 FILLER_0_286_1502
*5344 FILLER_0_286_1506
*5345 FILLER_0_286_703
*5346 FILLER_0_286_715
*5347 FILLER_0_286_727
*5348 FILLER_0_286_729
*5349 FILLER_0_286_741
*5350 FILLER_0_287_1464
*5351 FILLER_0_287_1476
*5352 FILLER_0_287_1488
*5353 FILLER_0_287_1500
*5354 FILLER_0_287_1506
*5355 FILLER_0_287_703
*5356 FILLER_0_287_715
*5357 FILLER_0_287_727
*5358 FILLER_0_287_739
*5359 FILLER_0_288_1464
*5360 FILLER_0_288_1468
*5361 FILLER_0_288_1480
*5362 FILLER_0_288_1488
*5363 FILLER_0_288_1490
*5364 FILLER_0_288_1502
*5365 FILLER_0_288_1506
*5366 FILLER_0_288_703
*5367 FILLER_0_288_707
*5368 FILLER_0_288_719
*5369 FILLER_0_288_727
*5370 FILLER_0_288_729
*5371 FILLER_0_288_741
*5372 FILLER_0_289_1464
*5373 FILLER_0_289_1476
*5374 FILLER_0_289_1488
*5375 FILLER_0_289_1500
*5376 FILLER_0_289_1506
*5377 FILLER_0_289_703
*5378 FILLER_0_289_715
*5379 FILLER_0_289_727
*5380 FILLER_0_289_739
*5381 FILLER_0_28_1464
*5382 FILLER_0_28_1468
*5383 FILLER_0_28_1472
*5384 FILLER_0_28_1484
*5385 FILLER_0_28_1488
*5386 FILLER_0_28_1490
*5387 FILLER_0_28_1502
*5388 FILLER_0_28_1506
*5389 FILLER_0_28_703
*5390 FILLER_0_28_715
*5391 FILLER_0_28_727
*5392 FILLER_0_28_729
*5393 FILLER_0_28_741
*5394 FILLER_0_290_1464
*5395 FILLER_0_290_1476
*5396 FILLER_0_290_1488
*5397 FILLER_0_290_1490
*5398 FILLER_0_290_1502
*5399 FILLER_0_290_1506
*5400 FILLER_0_290_703
*5401 FILLER_0_290_715
*5402 FILLER_0_290_727
*5403 FILLER_0_290_729
*5404 FILLER_0_290_741
*5405 FILLER_0_291_1464
*5406 FILLER_0_291_1476
*5407 FILLER_0_291_1488
*5408 FILLER_0_291_1500
*5409 FILLER_0_291_1506
*5410 FILLER_0_291_703
*5411 FILLER_0_291_715
*5412 FILLER_0_291_727
*5413 FILLER_0_291_739
*5414 FILLER_0_292_1464
*5415 FILLER_0_292_1468
*5416 FILLER_0_292_1480
*5417 FILLER_0_292_1488
*5418 FILLER_0_292_1490
*5419 FILLER_0_292_1502
*5420 FILLER_0_292_1506
*5421 FILLER_0_292_703
*5422 FILLER_0_292_707
*5423 FILLER_0_292_719
*5424 FILLER_0_292_727
*5425 FILLER_0_292_729
*5426 FILLER_0_292_741
*5427 FILLER_0_293_1464
*5428 FILLER_0_293_1476
*5429 FILLER_0_293_1488
*5430 FILLER_0_293_1500
*5431 FILLER_0_293_1506
*5432 FILLER_0_293_703
*5433 FILLER_0_293_715
*5434 FILLER_0_293_727
*5435 FILLER_0_293_739
*5436 FILLER_0_294_1464
*5437 FILLER_0_294_1476
*5438 FILLER_0_294_1488
*5439 FILLER_0_294_1490
*5440 FILLER_0_294_1502
*5441 FILLER_0_294_1506
*5442 FILLER_0_294_703
*5443 FILLER_0_294_715
*5444 FILLER_0_294_727
*5445 FILLER_0_294_729
*5446 FILLER_0_294_741
*5447 FILLER_0_295_1464
*5448 FILLER_0_295_1476
*5449 FILLER_0_295_1488
*5450 FILLER_0_295_1500
*5451 FILLER_0_295_1506
*5452 FILLER_0_295_703
*5453 FILLER_0_295_715
*5454 FILLER_0_295_727
*5455 FILLER_0_295_739
*5456 FILLER_0_296_1464
*5457 FILLER_0_296_1468
*5458 FILLER_0_296_1480
*5459 FILLER_0_296_1488
*5460 FILLER_0_296_1490
*5461 FILLER_0_296_1502
*5462 FILLER_0_296_1506
*5463 FILLER_0_296_703
*5464 FILLER_0_296_707
*5465 FILLER_0_296_719
*5466 FILLER_0_296_727
*5467 FILLER_0_296_729
*5468 FILLER_0_296_741
*5469 FILLER_0_297_1464
*5470 FILLER_0_297_1476
*5471 FILLER_0_297_1488
*5472 FILLER_0_297_1500
*5473 FILLER_0_297_1506
*5474 FILLER_0_297_703
*5475 FILLER_0_297_715
*5476 FILLER_0_297_727
*5477 FILLER_0_297_739
*5478 FILLER_0_298_1464
*5479 FILLER_0_298_1476
*5480 FILLER_0_298_1488
*5481 FILLER_0_298_1490
*5482 FILLER_0_298_1502
*5483 FILLER_0_298_1506
*5484 FILLER_0_298_703
*5485 FILLER_0_298_715
*5486 FILLER_0_298_727
*5487 FILLER_0_298_729
*5488 FILLER_0_298_741
*5489 FILLER_0_299_1464
*5490 FILLER_0_299_1476
*5491 FILLER_0_299_1488
*5492 FILLER_0_299_1500
*5493 FILLER_0_299_1506
*5494 FILLER_0_299_703
*5495 FILLER_0_299_715
*5496 FILLER_0_299_727
*5497 FILLER_0_299_739
*5498 FILLER_0_29_1464
*5499 FILLER_0_29_1468
*5500 FILLER_0_29_1472
*5501 FILLER_0_29_1476
*5502 FILLER_0_29_1488
*5503 FILLER_0_29_1500
*5504 FILLER_0_29_1506
*5505 FILLER_0_29_703
*5506 FILLER_0_29_715
*5507 FILLER_0_29_727
*5508 FILLER_0_29_739
*5509 FILLER_0_2_1005
*5510 FILLER_0_2_1013
*5511 FILLER_0_2_1022
*5512 FILLER_0_2_1034
*5513 FILLER_0_2_1037
*5514 FILLER_0_2_1041
*5515 FILLER_0_2_1050
*5516 FILLER_0_2_1062
*5517 FILLER_0_2_1070
*5518 FILLER_0_2_1080
*5519 FILLER_0_2_109
*5520 FILLER_0_2_1093
*5521 FILLER_0_2_1101
*5522 FILLER_0_2_1106
*5523 FILLER_0_2_1125
*5524 FILLER_0_2_1131
*5525 FILLER_0_2_1140
*5526 FILLER_0_2_1149
*5527 FILLER_0_2_1161
*5528 FILLER_0_2_1170
*5529 FILLER_0_2_1182
*5530 FILLER_0_2_1190
*5531 FILLER_0_2_1200
*5532 FILLER_0_2_1205
*5533 FILLER_0_2_121
*5534 FILLER_0_2_1217
*5535 FILLER_0_2_1229
*5536 FILLER_0_2_1241
*5537 FILLER_0_2_1257
*5538 FILLER_0_2_1261
*5539 FILLER_0_2_1273
*5540 FILLER_0_2_1281
*5541 FILLER_0_2_1292
*5542 FILLER_0_2_1304
*5543 FILLER_0_2_1325
*5544 FILLER_0_2_133
*5545 FILLER_0_2_1337
*5546 FILLER_0_2_1345
*5547 FILLER_0_2_1356
*5548 FILLER_0_2_1368
*5549 FILLER_0_2_1373
*5550 FILLER_0_2_1385
*5551 FILLER_0_2_139
*5552 FILLER_0_2_1397
*5553 FILLER_0_2_141
*5554 FILLER_0_2_1416
*5555 FILLER_0_2_1429
*5556 FILLER_0_2_1433
*5557 FILLER_0_2_1442
*5558 FILLER_0_2_1454
*5559 FILLER_0_2_1470
*5560 FILLER_0_2_1482
*5561 FILLER_0_2_1485
*5562 FILLER_0_2_15
*5563 FILLER_0_2_1504
*5564 FILLER_0_2_153
*5565 FILLER_0_2_165
*5566 FILLER_0_2_177
*5567 FILLER_0_2_189
*5568 FILLER_0_2_195
*5569 FILLER_0_2_197
*5570 FILLER_0_2_209
*5571 FILLER_0_2_221
*5572 FILLER_0_2_233
*5573 FILLER_0_2_245
*5574 FILLER_0_2_251
*5575 FILLER_0_2_253
*5576 FILLER_0_2_265
*5577 FILLER_0_2_27
*5578 FILLER_0_2_277
*5579 FILLER_0_2_289
*5580 FILLER_0_2_29
*5581 FILLER_0_2_3
*5582 FILLER_0_2_301
*5583 FILLER_0_2_307
*5584 FILLER_0_2_309
*5585 FILLER_0_2_321
*5586 FILLER_0_2_333
*5587 FILLER_0_2_345
*5588 FILLER_0_2_357
*5589 FILLER_0_2_363
*5590 FILLER_0_2_365
*5591 FILLER_0_2_377
*5592 FILLER_0_2_389
*5593 FILLER_0_2_401
*5594 FILLER_0_2_41
*5595 FILLER_0_2_413
*5596 FILLER_0_2_419
*5597 FILLER_0_2_421
*5598 FILLER_0_2_433
*5599 FILLER_0_2_445
*5600 FILLER_0_2_457
*5601 FILLER_0_2_469
*5602 FILLER_0_2_475
*5603 FILLER_0_2_477
*5604 FILLER_0_2_489
*5605 FILLER_0_2_501
*5606 FILLER_0_2_513
*5607 FILLER_0_2_525
*5608 FILLER_0_2_53
*5609 FILLER_0_2_531
*5610 FILLER_0_2_533
*5611 FILLER_0_2_537
*5612 FILLER_0_2_546
*5613 FILLER_0_2_552
*5614 FILLER_0_2_585
*5615 FILLER_0_2_605
*5616 FILLER_0_2_611
*5617 FILLER_0_2_645
*5618 FILLER_0_2_65
*5619 FILLER_0_2_663
*5620 FILLER_0_2_689
*5621 FILLER_0_2_701
*5622 FILLER_0_2_743
*5623 FILLER_0_2_747
*5624 FILLER_0_2_757
*5625 FILLER_0_2_761
*5626 FILLER_0_2_77
*5627 FILLER_0_2_770
*5628 FILLER_0_2_780
*5629 FILLER_0_2_808
*5630 FILLER_0_2_821
*5631 FILLER_0_2_83
*5632 FILLER_0_2_840
*5633 FILLER_0_2_846
*5634 FILLER_0_2_85
*5635 FILLER_0_2_863
*5636 FILLER_0_2_867
*5637 FILLER_0_2_909
*5638 FILLER_0_2_921
*5639 FILLER_0_2_945
*5640 FILLER_0_2_965
*5641 FILLER_0_2_97
*5642 FILLER_0_2_977
*5643 FILLER_0_2_981
*5644 FILLER_0_2_993
*5645 FILLER_0_300_1464
*5646 FILLER_0_300_1468
*5647 FILLER_0_300_1480
*5648 FILLER_0_300_1488
*5649 FILLER_0_300_1490
*5650 FILLER_0_300_1502
*5651 FILLER_0_300_1506
*5652 FILLER_0_300_703
*5653 FILLER_0_300_707
*5654 FILLER_0_300_719
*5655 FILLER_0_300_727
*5656 FILLER_0_300_729
*5657 FILLER_0_300_741
*5658 FILLER_0_301_1464
*5659 FILLER_0_301_1476
*5660 FILLER_0_301_1488
*5661 FILLER_0_301_1500
*5662 FILLER_0_301_1506
*5663 FILLER_0_301_703
*5664 FILLER_0_301_715
*5665 FILLER_0_301_727
*5666 FILLER_0_301_739
*5667 FILLER_0_302_1464
*5668 FILLER_0_302_1476
*5669 FILLER_0_302_1488
*5670 FILLER_0_302_1490
*5671 FILLER_0_302_1502
*5672 FILLER_0_302_1506
*5673 FILLER_0_302_703
*5674 FILLER_0_302_715
*5675 FILLER_0_302_727
*5676 FILLER_0_302_729
*5677 FILLER_0_302_741
*5678 FILLER_0_303_1464
*5679 FILLER_0_303_1476
*5680 FILLER_0_303_1488
*5681 FILLER_0_303_1500
*5682 FILLER_0_303_1506
*5683 FILLER_0_303_703
*5684 FILLER_0_303_715
*5685 FILLER_0_303_727
*5686 FILLER_0_303_739
*5687 FILLER_0_304_1464
*5688 FILLER_0_304_1468
*5689 FILLER_0_304_1480
*5690 FILLER_0_304_1488
*5691 FILLER_0_304_1490
*5692 FILLER_0_304_1502
*5693 FILLER_0_304_1506
*5694 FILLER_0_304_703
*5695 FILLER_0_304_707
*5696 FILLER_0_304_719
*5697 FILLER_0_304_727
*5698 FILLER_0_304_729
*5699 FILLER_0_304_741
*5700 FILLER_0_305_1464
*5701 FILLER_0_305_1476
*5702 FILLER_0_305_1488
*5703 FILLER_0_305_1500
*5704 FILLER_0_305_1506
*5705 FILLER_0_305_703
*5706 FILLER_0_305_715
*5707 FILLER_0_305_727
*5708 FILLER_0_305_739
*5709 FILLER_0_306_1464
*5710 FILLER_0_306_1476
*5711 FILLER_0_306_1488
*5712 FILLER_0_306_1490
*5713 FILLER_0_306_1502
*5714 FILLER_0_306_1506
*5715 FILLER_0_306_703
*5716 FILLER_0_306_715
*5717 FILLER_0_306_727
*5718 FILLER_0_306_729
*5719 FILLER_0_306_741
*5720 FILLER_0_307_1464
*5721 FILLER_0_307_1476
*5722 FILLER_0_307_1488
*5723 FILLER_0_307_1500
*5724 FILLER_0_307_1506
*5725 FILLER_0_307_703
*5726 FILLER_0_307_715
*5727 FILLER_0_307_727
*5728 FILLER_0_307_739
*5729 FILLER_0_308_1464
*5730 FILLER_0_308_1468
*5731 FILLER_0_308_1480
*5732 FILLER_0_308_1488
*5733 FILLER_0_308_1490
*5734 FILLER_0_308_1502
*5735 FILLER_0_308_1506
*5736 FILLER_0_308_703
*5737 FILLER_0_308_707
*5738 FILLER_0_308_719
*5739 FILLER_0_308_727
*5740 FILLER_0_308_729
*5741 FILLER_0_308_741
*5742 FILLER_0_309_1464
*5743 FILLER_0_309_1476
*5744 FILLER_0_309_1488
*5745 FILLER_0_309_1500
*5746 FILLER_0_309_1506
*5747 FILLER_0_309_703
*5748 FILLER_0_309_715
*5749 FILLER_0_309_727
*5750 FILLER_0_309_739
*5751 FILLER_0_30_1464
*5752 FILLER_0_30_1468
*5753 FILLER_0_30_1480
*5754 FILLER_0_30_1488
*5755 FILLER_0_30_1490
*5756 FILLER_0_30_1502
*5757 FILLER_0_30_1506
*5758 FILLER_0_30_703
*5759 FILLER_0_30_715
*5760 FILLER_0_30_727
*5761 FILLER_0_30_729
*5762 FILLER_0_30_743
*5763 FILLER_0_310_1464
*5764 FILLER_0_310_1476
*5765 FILLER_0_310_1488
*5766 FILLER_0_310_1490
*5767 FILLER_0_310_1502
*5768 FILLER_0_310_1506
*5769 FILLER_0_310_703
*5770 FILLER_0_310_715
*5771 FILLER_0_310_727
*5772 FILLER_0_310_729
*5773 FILLER_0_310_741
*5774 FILLER_0_311_1464
*5775 FILLER_0_311_1476
*5776 FILLER_0_311_1488
*5777 FILLER_0_311_1500
*5778 FILLER_0_311_1506
*5779 FILLER_0_311_703
*5780 FILLER_0_311_715
*5781 FILLER_0_311_727
*5782 FILLER_0_311_739
*5783 FILLER_0_312_1464
*5784 FILLER_0_312_1468
*5785 FILLER_0_312_1480
*5786 FILLER_0_312_1488
*5787 FILLER_0_312_1490
*5788 FILLER_0_312_1502
*5789 FILLER_0_312_1506
*5790 FILLER_0_312_703
*5791 FILLER_0_312_707
*5792 FILLER_0_312_719
*5793 FILLER_0_312_727
*5794 FILLER_0_312_729
*5795 FILLER_0_312_741
*5796 FILLER_0_313_1464
*5797 FILLER_0_313_1476
*5798 FILLER_0_313_1488
*5799 FILLER_0_313_1500
*5800 FILLER_0_313_1506
*5801 FILLER_0_313_703
*5802 FILLER_0_313_715
*5803 FILLER_0_313_727
*5804 FILLER_0_313_739
*5805 FILLER_0_314_1464
*5806 FILLER_0_314_1476
*5807 FILLER_0_314_1488
*5808 FILLER_0_314_1490
*5809 FILLER_0_314_1502
*5810 FILLER_0_314_1506
*5811 FILLER_0_314_703
*5812 FILLER_0_314_715
*5813 FILLER_0_314_727
*5814 FILLER_0_314_729
*5815 FILLER_0_314_741
*5816 FILLER_0_315_1464
*5817 FILLER_0_315_1476
*5818 FILLER_0_315_1488
*5819 FILLER_0_315_1500
*5820 FILLER_0_315_1506
*5821 FILLER_0_315_703
*5822 FILLER_0_315_715
*5823 FILLER_0_315_727
*5824 FILLER_0_315_739
*5825 FILLER_0_316_1464
*5826 FILLER_0_316_1476
*5827 FILLER_0_316_1488
*5828 FILLER_0_316_1490
*5829 FILLER_0_316_1502
*5830 FILLER_0_316_1506
*5831 FILLER_0_316_703
*5832 FILLER_0_316_715
*5833 FILLER_0_316_727
*5834 FILLER_0_316_729
*5835 FILLER_0_316_741
*5836 FILLER_0_317_1464
*5837 FILLER_0_317_1476
*5838 FILLER_0_317_1488
*5839 FILLER_0_317_1500
*5840 FILLER_0_317_1506
*5841 FILLER_0_317_703
*5842 FILLER_0_317_715
*5843 FILLER_0_317_727
*5844 FILLER_0_317_739
*5845 FILLER_0_318_1464
*5846 FILLER_0_318_1476
*5847 FILLER_0_318_1488
*5848 FILLER_0_318_1490
*5849 FILLER_0_318_1502
*5850 FILLER_0_318_1506
*5851 FILLER_0_318_703
*5852 FILLER_0_318_715
*5853 FILLER_0_318_727
*5854 FILLER_0_318_729
*5855 FILLER_0_318_741
*5856 FILLER_0_319_1464
*5857 FILLER_0_319_1476
*5858 FILLER_0_319_1488
*5859 FILLER_0_319_1500
*5860 FILLER_0_319_1506
*5861 FILLER_0_319_703
*5862 FILLER_0_319_715
*5863 FILLER_0_319_727
*5864 FILLER_0_319_739
*5865 FILLER_0_31_1464
*5866 FILLER_0_31_1476
*5867 FILLER_0_31_1488
*5868 FILLER_0_31_1500
*5869 FILLER_0_31_1506
*5870 FILLER_0_31_703
*5871 FILLER_0_31_715
*5872 FILLER_0_31_721
*5873 FILLER_0_31_724
*5874 FILLER_0_31_728
*5875 FILLER_0_31_732
*5876 FILLER_0_31_736
*5877 FILLER_0_320_1464
*5878 FILLER_0_320_1476
*5879 FILLER_0_320_1488
*5880 FILLER_0_320_1490
*5881 FILLER_0_320_1502
*5882 FILLER_0_320_1506
*5883 FILLER_0_320_703
*5884 FILLER_0_320_715
*5885 FILLER_0_320_727
*5886 FILLER_0_320_729
*5887 FILLER_0_320_741
*5888 FILLER_0_321_1005
*5889 FILLER_0_321_1009
*5890 FILLER_0_321_1021
*5891 FILLER_0_321_1033
*5892 FILLER_0_321_1037
*5893 FILLER_0_321_1049
*5894 FILLER_0_321_1061
*5895 FILLER_0_321_1065
*5896 FILLER_0_321_1077
*5897 FILLER_0_321_1089
*5898 FILLER_0_321_109
*5899 FILLER_0_321_1093
*5900 FILLER_0_321_1105
*5901 FILLER_0_321_1117
*5902 FILLER_0_321_1121
*5903 FILLER_0_321_113
*5904 FILLER_0_321_1133
*5905 FILLER_0_321_1145
*5906 FILLER_0_321_1149
*5907 FILLER_0_321_1161
*5908 FILLER_0_321_1173
*5909 FILLER_0_321_1177
*5910 FILLER_0_321_1189
*5911 FILLER_0_321_1201
*5912 FILLER_0_321_1205
*5913 FILLER_0_321_1217
*5914 FILLER_0_321_1229
*5915 FILLER_0_321_1233
*5916 FILLER_0_321_1245
*5917 FILLER_0_321_125
*5918 FILLER_0_321_1257
*5919 FILLER_0_321_1261
*5920 FILLER_0_321_1273
*5921 FILLER_0_321_1285
*5922 FILLER_0_321_1289
*5923 FILLER_0_321_1301
*5924 FILLER_0_321_1313
*5925 FILLER_0_321_1317
*5926 FILLER_0_321_1329
*5927 FILLER_0_321_1341
*5928 FILLER_0_321_1345
*5929 FILLER_0_321_1357
*5930 FILLER_0_321_1369
*5931 FILLER_0_321_137
*5932 FILLER_0_321_1373
*5933 FILLER_0_321_1385
*5934 FILLER_0_321_1397
*5935 FILLER_0_321_1401
*5936 FILLER_0_321_141
*5937 FILLER_0_321_1413
*5938 FILLER_0_321_1425
*5939 FILLER_0_321_1429
*5940 FILLER_0_321_1441
*5941 FILLER_0_321_1453
*5942 FILLER_0_321_1457
*5943 FILLER_0_321_1469
*5944 FILLER_0_321_1481
*5945 FILLER_0_321_1485
*5946 FILLER_0_321_1497
*5947 FILLER_0_321_15
*5948 FILLER_0_321_1505
*5949 FILLER_0_321_153
*5950 FILLER_0_321_165
*5951 FILLER_0_321_169
*5952 FILLER_0_321_181
*5953 FILLER_0_321_193
*5954 FILLER_0_321_197
*5955 FILLER_0_321_209
*5956 FILLER_0_321_221
*5957 FILLER_0_321_225
*5958 FILLER_0_321_237
*5959 FILLER_0_321_249
*5960 FILLER_0_321_253
*5961 FILLER_0_321_265
*5962 FILLER_0_321_27
*5963 FILLER_0_321_277
*5964 FILLER_0_321_281
*5965 FILLER_0_321_29
*5966 FILLER_0_321_293
*5967 FILLER_0_321_3
*5968 FILLER_0_321_305
*5969 FILLER_0_321_309
*5970 FILLER_0_321_321
*5971 FILLER_0_321_333
*5972 FILLER_0_321_337
*5973 FILLER_0_321_349
*5974 FILLER_0_321_361
*5975 FILLER_0_321_365
*5976 FILLER_0_321_377
*5977 FILLER_0_321_389
*5978 FILLER_0_321_393
*5979 FILLER_0_321_405
*5980 FILLER_0_321_41
*5981 FILLER_0_321_417
*5982 FILLER_0_321_421
*5983 FILLER_0_321_433
*5984 FILLER_0_321_445
*5985 FILLER_0_321_449
*5986 FILLER_0_321_461
*5987 FILLER_0_321_473
*5988 FILLER_0_321_477
*5989 FILLER_0_321_489
*5990 FILLER_0_321_501
*5991 FILLER_0_321_505
*5992 FILLER_0_321_517
*5993 FILLER_0_321_529
*5994 FILLER_0_321_53
*5995 FILLER_0_321_533
*5996 FILLER_0_321_545
*5997 FILLER_0_321_557
*5998 FILLER_0_321_561
*5999 FILLER_0_321_57
*6000 FILLER_0_321_573
*6001 FILLER_0_321_585
*6002 FILLER_0_321_589
*6003 FILLER_0_321_601
*6004 FILLER_0_321_613
*6005 FILLER_0_321_617
*6006 FILLER_0_321_629
*6007 FILLER_0_321_641
*6008 FILLER_0_321_645
*6009 FILLER_0_321_657
*6010 FILLER_0_321_669
*6011 FILLER_0_321_673
*6012 FILLER_0_321_685
*6013 FILLER_0_321_69
*6014 FILLER_0_321_697
*6015 FILLER_0_321_701
*6016 FILLER_0_321_713
*6017 FILLER_0_321_725
*6018 FILLER_0_321_729
*6019 FILLER_0_321_741
*6020 FILLER_0_321_753
*6021 FILLER_0_321_757
*6022 FILLER_0_321_769
*6023 FILLER_0_321_781
*6024 FILLER_0_321_785
*6025 FILLER_0_321_797
*6026 FILLER_0_321_809
*6027 FILLER_0_321_81
*6028 FILLER_0_321_813
*6029 FILLER_0_321_825
*6030 FILLER_0_321_837
*6031 FILLER_0_321_841
*6032 FILLER_0_321_85
*6033 FILLER_0_321_853
*6034 FILLER_0_321_865
*6035 FILLER_0_321_869
*6036 FILLER_0_321_881
*6037 FILLER_0_321_893
*6038 FILLER_0_321_897
*6039 FILLER_0_321_909
*6040 FILLER_0_321_921
*6041 FILLER_0_321_925
*6042 FILLER_0_321_937
*6043 FILLER_0_321_949
*6044 FILLER_0_321_953
*6045 FILLER_0_321_965
*6046 FILLER_0_321_97
*6047 FILLER_0_321_977
*6048 FILLER_0_321_981
*6049 FILLER_0_321_993
*6050 FILLER_0_322_1005
*6051 FILLER_0_322_1017
*6052 FILLER_0_322_1029
*6053 FILLER_0_322_1035
*6054 FILLER_0_322_1037
*6055 FILLER_0_322_1049
*6056 FILLER_0_322_1061
*6057 FILLER_0_322_1073
*6058 FILLER_0_322_1085
*6059 FILLER_0_322_109
*6060 FILLER_0_322_1091
*6061 FILLER_0_322_1093
*6062 FILLER_0_322_1105
*6063 FILLER_0_322_1117
*6064 FILLER_0_322_1129
*6065 FILLER_0_322_1141
*6066 FILLER_0_322_1147
*6067 FILLER_0_322_1149
*6068 FILLER_0_322_1161
*6069 FILLER_0_322_1173
*6070 FILLER_0_322_1185
*6071 FILLER_0_322_1197
*6072 FILLER_0_322_1203
*6073 FILLER_0_322_1205
*6074 FILLER_0_322_121
*6075 FILLER_0_322_1217
*6076 FILLER_0_322_1229
*6077 FILLER_0_322_1241
*6078 FILLER_0_322_1253
*6079 FILLER_0_322_1259
*6080 FILLER_0_322_1261
*6081 FILLER_0_322_1273
*6082 FILLER_0_322_1285
*6083 FILLER_0_322_1297
*6084 FILLER_0_322_1309
*6085 FILLER_0_322_1315
*6086 FILLER_0_322_1317
*6087 FILLER_0_322_1329
*6088 FILLER_0_322_133
*6089 FILLER_0_322_1341
*6090 FILLER_0_322_1353
*6091 FILLER_0_322_1365
*6092 FILLER_0_322_1371
*6093 FILLER_0_322_1373
*6094 FILLER_0_322_1385
*6095 FILLER_0_322_139
*6096 FILLER_0_322_1397
*6097 FILLER_0_322_1409
*6098 FILLER_0_322_141
*6099 FILLER_0_322_1421
*6100 FILLER_0_322_1427
*6101 FILLER_0_322_1429
*6102 FILLER_0_322_1441
*6103 FILLER_0_322_1453
*6104 FILLER_0_322_1465
*6105 FILLER_0_322_1477
*6106 FILLER_0_322_1483
*6107 FILLER_0_322_1485
*6108 FILLER_0_322_1497
*6109 FILLER_0_322_15
*6110 FILLER_0_322_1505
*6111 FILLER_0_322_153
*6112 FILLER_0_322_165
*6113 FILLER_0_322_177
*6114 FILLER_0_322_189
*6115 FILLER_0_322_195
*6116 FILLER_0_322_197
*6117 FILLER_0_322_209
*6118 FILLER_0_322_221
*6119 FILLER_0_322_233
*6120 FILLER_0_322_245
*6121 FILLER_0_322_251
*6122 FILLER_0_322_253
*6123 FILLER_0_322_265
*6124 FILLER_0_322_27
*6125 FILLER_0_322_277
*6126 FILLER_0_322_289
*6127 FILLER_0_322_29
*6128 FILLER_0_322_3
*6129 FILLER_0_322_301
*6130 FILLER_0_322_307
*6131 FILLER_0_322_309
*6132 FILLER_0_322_321
*6133 FILLER_0_322_333
*6134 FILLER_0_322_345
*6135 FILLER_0_322_357
*6136 FILLER_0_322_363
*6137 FILLER_0_322_365
*6138 FILLER_0_322_377
*6139 FILLER_0_322_389
*6140 FILLER_0_322_401
*6141 FILLER_0_322_41
*6142 FILLER_0_322_413
*6143 FILLER_0_322_419
*6144 FILLER_0_322_421
*6145 FILLER_0_322_433
*6146 FILLER_0_322_445
*6147 FILLER_0_322_457
*6148 FILLER_0_322_469
*6149 FILLER_0_322_475
*6150 FILLER_0_322_477
*6151 FILLER_0_322_489
*6152 FILLER_0_322_501
*6153 FILLER_0_322_513
*6154 FILLER_0_322_525
*6155 FILLER_0_322_53
*6156 FILLER_0_322_531
*6157 FILLER_0_322_533
*6158 FILLER_0_322_545
*6159 FILLER_0_322_557
*6160 FILLER_0_322_569
*6161 FILLER_0_322_581
*6162 FILLER_0_322_587
*6163 FILLER_0_322_589
*6164 FILLER_0_322_601
*6165 FILLER_0_322_613
*6166 FILLER_0_322_625
*6167 FILLER_0_322_637
*6168 FILLER_0_322_643
*6169 FILLER_0_322_645
*6170 FILLER_0_322_65
*6171 FILLER_0_322_657
*6172 FILLER_0_322_669
*6173 FILLER_0_322_681
*6174 FILLER_0_322_693
*6175 FILLER_0_322_699
*6176 FILLER_0_322_701
*6177 FILLER_0_322_713
*6178 FILLER_0_322_725
*6179 FILLER_0_322_737
*6180 FILLER_0_322_749
*6181 FILLER_0_322_755
*6182 FILLER_0_322_757
*6183 FILLER_0_322_769
*6184 FILLER_0_322_77
*6185 FILLER_0_322_781
*6186 FILLER_0_322_793
*6187 FILLER_0_322_805
*6188 FILLER_0_322_811
*6189 FILLER_0_322_813
*6190 FILLER_0_322_825
*6191 FILLER_0_322_83
*6192 FILLER_0_322_837
*6193 FILLER_0_322_849
*6194 FILLER_0_322_85
*6195 FILLER_0_322_861
*6196 FILLER_0_322_867
*6197 FILLER_0_322_869
*6198 FILLER_0_322_881
*6199 FILLER_0_322_893
*6200 FILLER_0_322_905
*6201 FILLER_0_322_917
*6202 FILLER_0_322_923
*6203 FILLER_0_322_925
*6204 FILLER_0_322_937
*6205 FILLER_0_322_949
*6206 FILLER_0_322_961
*6207 FILLER_0_322_97
*6208 FILLER_0_322_973
*6209 FILLER_0_322_979
*6210 FILLER_0_322_981
*6211 FILLER_0_322_993
*6212 FILLER_0_323_1001
*6213 FILLER_0_323_1007
*6214 FILLER_0_323_1009
*6215 FILLER_0_323_1021
*6216 FILLER_0_323_1033
*6217 FILLER_0_323_1045
*6218 FILLER_0_323_105
*6219 FILLER_0_323_1057
*6220 FILLER_0_323_1063
*6221 FILLER_0_323_1065
*6222 FILLER_0_323_1077
*6223 FILLER_0_323_1089
*6224 FILLER_0_323_1101
*6225 FILLER_0_323_111
*6226 FILLER_0_323_1113
*6227 FILLER_0_323_1119
*6228 FILLER_0_323_1121
*6229 FILLER_0_323_113
*6230 FILLER_0_323_1133
*6231 FILLER_0_323_1145
*6232 FILLER_0_323_1157
*6233 FILLER_0_323_1169
*6234 FILLER_0_323_1175
*6235 FILLER_0_323_1177
*6236 FILLER_0_323_1189
*6237 FILLER_0_323_1201
*6238 FILLER_0_323_1213
*6239 FILLER_0_323_1225
*6240 FILLER_0_323_1231
*6241 FILLER_0_323_1233
*6242 FILLER_0_323_1245
*6243 FILLER_0_323_125
*6244 FILLER_0_323_1257
*6245 FILLER_0_323_1269
*6246 FILLER_0_323_1281
*6247 FILLER_0_323_1287
*6248 FILLER_0_323_1289
*6249 FILLER_0_323_1301
*6250 FILLER_0_323_1313
*6251 FILLER_0_323_1325
*6252 FILLER_0_323_1337
*6253 FILLER_0_323_1343
*6254 FILLER_0_323_1345
*6255 FILLER_0_323_1357
*6256 FILLER_0_323_1369
*6257 FILLER_0_323_137
*6258 FILLER_0_323_1381
*6259 FILLER_0_323_1393
*6260 FILLER_0_323_1399
*6261 FILLER_0_323_1401
*6262 FILLER_0_323_1413
*6263 FILLER_0_323_1425
*6264 FILLER_0_323_1437
*6265 FILLER_0_323_1449
*6266 FILLER_0_323_1455
*6267 FILLER_0_323_1457
*6268 FILLER_0_323_1469
*6269 FILLER_0_323_1481
*6270 FILLER_0_323_149
*6271 FILLER_0_323_1493
*6272 FILLER_0_323_15
*6273 FILLER_0_323_1505
*6274 FILLER_0_323_161
*6275 FILLER_0_323_167
*6276 FILLER_0_323_169
*6277 FILLER_0_323_181
*6278 FILLER_0_323_193
*6279 FILLER_0_323_205
*6280 FILLER_0_323_217
*6281 FILLER_0_323_223
*6282 FILLER_0_323_225
*6283 FILLER_0_323_237
*6284 FILLER_0_323_249
*6285 FILLER_0_323_261
*6286 FILLER_0_323_27
*6287 FILLER_0_323_273
*6288 FILLER_0_323_279
*6289 FILLER_0_323_281
*6290 FILLER_0_323_293
*6291 FILLER_0_323_3
*6292 FILLER_0_323_305
*6293 FILLER_0_323_317
*6294 FILLER_0_323_329
*6295 FILLER_0_323_335
*6296 FILLER_0_323_337
*6297 FILLER_0_323_349
*6298 FILLER_0_323_361
*6299 FILLER_0_323_373
*6300 FILLER_0_323_385
*6301 FILLER_0_323_39
*6302 FILLER_0_323_391
*6303 FILLER_0_323_393
*6304 FILLER_0_323_405
*6305 FILLER_0_323_417
*6306 FILLER_0_323_429
*6307 FILLER_0_323_441
*6308 FILLER_0_323_447
*6309 FILLER_0_323_449
*6310 FILLER_0_323_461
*6311 FILLER_0_323_473
*6312 FILLER_0_323_485
*6313 FILLER_0_323_497
*6314 FILLER_0_323_503
*6315 FILLER_0_323_505
*6316 FILLER_0_323_51
*6317 FILLER_0_323_517
*6318 FILLER_0_323_529
*6319 FILLER_0_323_541
*6320 FILLER_0_323_55
*6321 FILLER_0_323_553
*6322 FILLER_0_323_559
*6323 FILLER_0_323_561
*6324 FILLER_0_323_57
*6325 FILLER_0_323_573
*6326 FILLER_0_323_585
*6327 FILLER_0_323_597
*6328 FILLER_0_323_609
*6329 FILLER_0_323_615
*6330 FILLER_0_323_617
*6331 FILLER_0_323_629
*6332 FILLER_0_323_641
*6333 FILLER_0_323_653
*6334 FILLER_0_323_665
*6335 FILLER_0_323_671
*6336 FILLER_0_323_673
*6337 FILLER_0_323_685
*6338 FILLER_0_323_69
*6339 FILLER_0_323_697
*6340 FILLER_0_323_709
*6341 FILLER_0_323_721
*6342 FILLER_0_323_727
*6343 FILLER_0_323_729
*6344 FILLER_0_323_741
*6345 FILLER_0_323_753
*6346 FILLER_0_323_765
*6347 FILLER_0_323_777
*6348 FILLER_0_323_783
*6349 FILLER_0_323_785
*6350 FILLER_0_323_797
*6351 FILLER_0_323_809
*6352 FILLER_0_323_81
*6353 FILLER_0_323_821
*6354 FILLER_0_323_833
*6355 FILLER_0_323_839
*6356 FILLER_0_323_841
*6357 FILLER_0_323_853
*6358 FILLER_0_323_865
*6359 FILLER_0_323_877
*6360 FILLER_0_323_889
*6361 FILLER_0_323_895
*6362 FILLER_0_323_897
*6363 FILLER_0_323_909
*6364 FILLER_0_323_921
*6365 FILLER_0_323_93
*6366 FILLER_0_323_933
*6367 FILLER_0_323_945
*6368 FILLER_0_323_951
*6369 FILLER_0_323_953
*6370 FILLER_0_323_965
*6371 FILLER_0_323_977
*6372 FILLER_0_323_989
*6373 FILLER_0_324_1005
*6374 FILLER_0_324_1017
*6375 FILLER_0_324_1029
*6376 FILLER_0_324_1035
*6377 FILLER_0_324_1037
*6378 FILLER_0_324_1049
*6379 FILLER_0_324_1061
*6380 FILLER_0_324_1073
*6381 FILLER_0_324_1085
*6382 FILLER_0_324_109
*6383 FILLER_0_324_1091
*6384 FILLER_0_324_1093
*6385 FILLER_0_324_1105
*6386 FILLER_0_324_1117
*6387 FILLER_0_324_1129
*6388 FILLER_0_324_1141
*6389 FILLER_0_324_1147
*6390 FILLER_0_324_1149
*6391 FILLER_0_324_1161
*6392 FILLER_0_324_1173
*6393 FILLER_0_324_1185
*6394 FILLER_0_324_1197
*6395 FILLER_0_324_1203
*6396 FILLER_0_324_1205
*6397 FILLER_0_324_121
*6398 FILLER_0_324_1217
*6399 FILLER_0_324_1229
*6400 FILLER_0_324_1241
*6401 FILLER_0_324_1253
*6402 FILLER_0_324_1259
*6403 FILLER_0_324_1261
*6404 FILLER_0_324_1273
*6405 FILLER_0_324_1285
*6406 FILLER_0_324_1297
*6407 FILLER_0_324_1309
*6408 FILLER_0_324_1315
*6409 FILLER_0_324_1317
*6410 FILLER_0_324_1329
*6411 FILLER_0_324_133
*6412 FILLER_0_324_1341
*6413 FILLER_0_324_1353
*6414 FILLER_0_324_1365
*6415 FILLER_0_324_1371
*6416 FILLER_0_324_1373
*6417 FILLER_0_324_1385
*6418 FILLER_0_324_139
*6419 FILLER_0_324_1397
*6420 FILLER_0_324_1409
*6421 FILLER_0_324_141
*6422 FILLER_0_324_1421
*6423 FILLER_0_324_1427
*6424 FILLER_0_324_1429
*6425 FILLER_0_324_1441
*6426 FILLER_0_324_1453
*6427 FILLER_0_324_1465
*6428 FILLER_0_324_1477
*6429 FILLER_0_324_1483
*6430 FILLER_0_324_1485
*6431 FILLER_0_324_1497
*6432 FILLER_0_324_15
*6433 FILLER_0_324_1505
*6434 FILLER_0_324_153
*6435 FILLER_0_324_165
*6436 FILLER_0_324_177
*6437 FILLER_0_324_189
*6438 FILLER_0_324_195
*6439 FILLER_0_324_197
*6440 FILLER_0_324_209
*6441 FILLER_0_324_221
*6442 FILLER_0_324_233
*6443 FILLER_0_324_245
*6444 FILLER_0_324_251
*6445 FILLER_0_324_253
*6446 FILLER_0_324_265
*6447 FILLER_0_324_27
*6448 FILLER_0_324_277
*6449 FILLER_0_324_289
*6450 FILLER_0_324_29
*6451 FILLER_0_324_3
*6452 FILLER_0_324_301
*6453 FILLER_0_324_307
*6454 FILLER_0_324_309
*6455 FILLER_0_324_321
*6456 FILLER_0_324_333
*6457 FILLER_0_324_345
*6458 FILLER_0_324_357
*6459 FILLER_0_324_363
*6460 FILLER_0_324_365
*6461 FILLER_0_324_377
*6462 FILLER_0_324_389
*6463 FILLER_0_324_401
*6464 FILLER_0_324_41
*6465 FILLER_0_324_413
*6466 FILLER_0_324_419
*6467 FILLER_0_324_421
*6468 FILLER_0_324_433
*6469 FILLER_0_324_445
*6470 FILLER_0_324_457
*6471 FILLER_0_324_469
*6472 FILLER_0_324_475
*6473 FILLER_0_324_477
*6474 FILLER_0_324_489
*6475 FILLER_0_324_501
*6476 FILLER_0_324_513
*6477 FILLER_0_324_525
*6478 FILLER_0_324_53
*6479 FILLER_0_324_531
*6480 FILLER_0_324_533
*6481 FILLER_0_324_545
*6482 FILLER_0_324_557
*6483 FILLER_0_324_569
*6484 FILLER_0_324_581
*6485 FILLER_0_324_587
*6486 FILLER_0_324_589
*6487 FILLER_0_324_601
*6488 FILLER_0_324_613
*6489 FILLER_0_324_625
*6490 FILLER_0_324_637
*6491 FILLER_0_324_643
*6492 FILLER_0_324_645
*6493 FILLER_0_324_65
*6494 FILLER_0_324_657
*6495 FILLER_0_324_669
*6496 FILLER_0_324_681
*6497 FILLER_0_324_693
*6498 FILLER_0_324_699
*6499 FILLER_0_324_701
*6500 FILLER_0_324_713
*6501 FILLER_0_324_725
*6502 FILLER_0_324_737
*6503 FILLER_0_324_749
*6504 FILLER_0_324_755
*6505 FILLER_0_324_757
*6506 FILLER_0_324_769
*6507 FILLER_0_324_77
*6508 FILLER_0_324_781
*6509 FILLER_0_324_793
*6510 FILLER_0_324_805
*6511 FILLER_0_324_811
*6512 FILLER_0_324_813
*6513 FILLER_0_324_825
*6514 FILLER_0_324_83
*6515 FILLER_0_324_837
*6516 FILLER_0_324_849
*6517 FILLER_0_324_85
*6518 FILLER_0_324_861
*6519 FILLER_0_324_867
*6520 FILLER_0_324_869
*6521 FILLER_0_324_881
*6522 FILLER_0_324_893
*6523 FILLER_0_324_905
*6524 FILLER_0_324_917
*6525 FILLER_0_324_923
*6526 FILLER_0_324_925
*6527 FILLER_0_324_937
*6528 FILLER_0_324_949
*6529 FILLER_0_324_961
*6530 FILLER_0_324_97
*6531 FILLER_0_324_973
*6532 FILLER_0_324_979
*6533 FILLER_0_324_981
*6534 FILLER_0_324_993
*6535 FILLER_0_325_1001
*6536 FILLER_0_325_1007
*6537 FILLER_0_325_1009
*6538 FILLER_0_325_1021
*6539 FILLER_0_325_1033
*6540 FILLER_0_325_1045
*6541 FILLER_0_325_105
*6542 FILLER_0_325_1057
*6543 FILLER_0_325_1063
*6544 FILLER_0_325_1065
*6545 FILLER_0_325_1077
*6546 FILLER_0_325_1089
*6547 FILLER_0_325_1101
*6548 FILLER_0_325_111
*6549 FILLER_0_325_1113
*6550 FILLER_0_325_1119
*6551 FILLER_0_325_1121
*6552 FILLER_0_325_113
*6553 FILLER_0_325_1133
*6554 FILLER_0_325_1145
*6555 FILLER_0_325_1157
*6556 FILLER_0_325_1169
*6557 FILLER_0_325_1175
*6558 FILLER_0_325_1177
*6559 FILLER_0_325_1189
*6560 FILLER_0_325_1201
*6561 FILLER_0_325_1213
*6562 FILLER_0_325_1225
*6563 FILLER_0_325_1231
*6564 FILLER_0_325_1233
*6565 FILLER_0_325_1245
*6566 FILLER_0_325_125
*6567 FILLER_0_325_1257
*6568 FILLER_0_325_1269
*6569 FILLER_0_325_1281
*6570 FILLER_0_325_1287
*6571 FILLER_0_325_1289
*6572 FILLER_0_325_1301
*6573 FILLER_0_325_1313
*6574 FILLER_0_325_1325
*6575 FILLER_0_325_1337
*6576 FILLER_0_325_1343
*6577 FILLER_0_325_1345
*6578 FILLER_0_325_1357
*6579 FILLER_0_325_1369
*6580 FILLER_0_325_137
*6581 FILLER_0_325_1381
*6582 FILLER_0_325_1393
*6583 FILLER_0_325_1399
*6584 FILLER_0_325_1401
*6585 FILLER_0_325_1413
*6586 FILLER_0_325_1425
*6587 FILLER_0_325_1437
*6588 FILLER_0_325_1449
*6589 FILLER_0_325_1455
*6590 FILLER_0_325_1457
*6591 FILLER_0_325_1469
*6592 FILLER_0_325_1481
*6593 FILLER_0_325_149
*6594 FILLER_0_325_1493
*6595 FILLER_0_325_15
*6596 FILLER_0_325_1505
*6597 FILLER_0_325_161
*6598 FILLER_0_325_167
*6599 FILLER_0_325_169
*6600 FILLER_0_325_181
*6601 FILLER_0_325_193
*6602 FILLER_0_325_205
*6603 FILLER_0_325_217
*6604 FILLER_0_325_223
*6605 FILLER_0_325_225
*6606 FILLER_0_325_237
*6607 FILLER_0_325_249
*6608 FILLER_0_325_261
*6609 FILLER_0_325_27
*6610 FILLER_0_325_273
*6611 FILLER_0_325_279
*6612 FILLER_0_325_281
*6613 FILLER_0_325_293
*6614 FILLER_0_325_3
*6615 FILLER_0_325_305
*6616 FILLER_0_325_317
*6617 FILLER_0_325_329
*6618 FILLER_0_325_335
*6619 FILLER_0_325_337
*6620 FILLER_0_325_349
*6621 FILLER_0_325_361
*6622 FILLER_0_325_373
*6623 FILLER_0_325_385
*6624 FILLER_0_325_39
*6625 FILLER_0_325_391
*6626 FILLER_0_325_393
*6627 FILLER_0_325_405
*6628 FILLER_0_325_417
*6629 FILLER_0_325_429
*6630 FILLER_0_325_441
*6631 FILLER_0_325_447
*6632 FILLER_0_325_449
*6633 FILLER_0_325_461
*6634 FILLER_0_325_473
*6635 FILLER_0_325_485
*6636 FILLER_0_325_497
*6637 FILLER_0_325_503
*6638 FILLER_0_325_505
*6639 FILLER_0_325_51
*6640 FILLER_0_325_517
*6641 FILLER_0_325_529
*6642 FILLER_0_325_541
*6643 FILLER_0_325_55
*6644 FILLER_0_325_553
*6645 FILLER_0_325_559
*6646 FILLER_0_325_561
*6647 FILLER_0_325_57
*6648 FILLER_0_325_573
*6649 FILLER_0_325_585
*6650 FILLER_0_325_597
*6651 FILLER_0_325_609
*6652 FILLER_0_325_615
*6653 FILLER_0_325_617
*6654 FILLER_0_325_629
*6655 FILLER_0_325_641
*6656 FILLER_0_325_653
*6657 FILLER_0_325_665
*6658 FILLER_0_325_671
*6659 FILLER_0_325_673
*6660 FILLER_0_325_685
*6661 FILLER_0_325_69
*6662 FILLER_0_325_697
*6663 FILLER_0_325_709
*6664 FILLER_0_325_721
*6665 FILLER_0_325_727
*6666 FILLER_0_325_729
*6667 FILLER_0_325_741
*6668 FILLER_0_325_753
*6669 FILLER_0_325_765
*6670 FILLER_0_325_777
*6671 FILLER_0_325_783
*6672 FILLER_0_325_785
*6673 FILLER_0_325_797
*6674 FILLER_0_325_809
*6675 FILLER_0_325_81
*6676 FILLER_0_325_821
*6677 FILLER_0_325_833
*6678 FILLER_0_325_839
*6679 FILLER_0_325_841
*6680 FILLER_0_325_853
*6681 FILLER_0_325_865
*6682 FILLER_0_325_877
*6683 FILLER_0_325_889
*6684 FILLER_0_325_895
*6685 FILLER_0_325_897
*6686 FILLER_0_325_909
*6687 FILLER_0_325_921
*6688 FILLER_0_325_93
*6689 FILLER_0_325_933
*6690 FILLER_0_325_945
*6691 FILLER_0_325_951
*6692 FILLER_0_325_953
*6693 FILLER_0_325_965
*6694 FILLER_0_325_977
*6695 FILLER_0_325_989
*6696 FILLER_0_326_1005
*6697 FILLER_0_326_1017
*6698 FILLER_0_326_1029
*6699 FILLER_0_326_1035
*6700 FILLER_0_326_1037
*6701 FILLER_0_326_1049
*6702 FILLER_0_326_1061
*6703 FILLER_0_326_1073
*6704 FILLER_0_326_1085
*6705 FILLER_0_326_109
*6706 FILLER_0_326_1091
*6707 FILLER_0_326_1093
*6708 FILLER_0_326_1105
*6709 FILLER_0_326_1117
*6710 FILLER_0_326_1129
*6711 FILLER_0_326_1141
*6712 FILLER_0_326_1147
*6713 FILLER_0_326_1149
*6714 FILLER_0_326_1161
*6715 FILLER_0_326_1173
*6716 FILLER_0_326_1185
*6717 FILLER_0_326_1197
*6718 FILLER_0_326_1203
*6719 FILLER_0_326_1205
*6720 FILLER_0_326_121
*6721 FILLER_0_326_1217
*6722 FILLER_0_326_1229
*6723 FILLER_0_326_1241
*6724 FILLER_0_326_1253
*6725 FILLER_0_326_1259
*6726 FILLER_0_326_1261
*6727 FILLER_0_326_1273
*6728 FILLER_0_326_1285
*6729 FILLER_0_326_1297
*6730 FILLER_0_326_1309
*6731 FILLER_0_326_1315
*6732 FILLER_0_326_1317
*6733 FILLER_0_326_1329
*6734 FILLER_0_326_133
*6735 FILLER_0_326_1341
*6736 FILLER_0_326_1353
*6737 FILLER_0_326_1365
*6738 FILLER_0_326_1371
*6739 FILLER_0_326_1373
*6740 FILLER_0_326_1385
*6741 FILLER_0_326_139
*6742 FILLER_0_326_1397
*6743 FILLER_0_326_1409
*6744 FILLER_0_326_141
*6745 FILLER_0_326_1421
*6746 FILLER_0_326_1427
*6747 FILLER_0_326_1429
*6748 FILLER_0_326_1441
*6749 FILLER_0_326_1453
*6750 FILLER_0_326_1465
*6751 FILLER_0_326_1477
*6752 FILLER_0_326_1483
*6753 FILLER_0_326_1485
*6754 FILLER_0_326_1497
*6755 FILLER_0_326_15
*6756 FILLER_0_326_1505
*6757 FILLER_0_326_153
*6758 FILLER_0_326_165
*6759 FILLER_0_326_177
*6760 FILLER_0_326_189
*6761 FILLER_0_326_195
*6762 FILLER_0_326_197
*6763 FILLER_0_326_209
*6764 FILLER_0_326_221
*6765 FILLER_0_326_233
*6766 FILLER_0_326_245
*6767 FILLER_0_326_251
*6768 FILLER_0_326_253
*6769 FILLER_0_326_265
*6770 FILLER_0_326_27
*6771 FILLER_0_326_277
*6772 FILLER_0_326_289
*6773 FILLER_0_326_29
*6774 FILLER_0_326_3
*6775 FILLER_0_326_301
*6776 FILLER_0_326_307
*6777 FILLER_0_326_309
*6778 FILLER_0_326_321
*6779 FILLER_0_326_333
*6780 FILLER_0_326_345
*6781 FILLER_0_326_357
*6782 FILLER_0_326_363
*6783 FILLER_0_326_365
*6784 FILLER_0_326_377
*6785 FILLER_0_326_389
*6786 FILLER_0_326_401
*6787 FILLER_0_326_41
*6788 FILLER_0_326_413
*6789 FILLER_0_326_419
*6790 FILLER_0_326_421
*6791 FILLER_0_326_433
*6792 FILLER_0_326_445
*6793 FILLER_0_326_457
*6794 FILLER_0_326_469
*6795 FILLER_0_326_475
*6796 FILLER_0_326_477
*6797 FILLER_0_326_489
*6798 FILLER_0_326_501
*6799 FILLER_0_326_513
*6800 FILLER_0_326_525
*6801 FILLER_0_326_53
*6802 FILLER_0_326_531
*6803 FILLER_0_326_533
*6804 FILLER_0_326_545
*6805 FILLER_0_326_557
*6806 FILLER_0_326_569
*6807 FILLER_0_326_581
*6808 FILLER_0_326_587
*6809 FILLER_0_326_589
*6810 FILLER_0_326_601
*6811 FILLER_0_326_613
*6812 FILLER_0_326_625
*6813 FILLER_0_326_637
*6814 FILLER_0_326_643
*6815 FILLER_0_326_645
*6816 FILLER_0_326_65
*6817 FILLER_0_326_657
*6818 FILLER_0_326_669
*6819 FILLER_0_326_681
*6820 FILLER_0_326_693
*6821 FILLER_0_326_699
*6822 FILLER_0_326_701
*6823 FILLER_0_326_713
*6824 FILLER_0_326_725
*6825 FILLER_0_326_737
*6826 FILLER_0_326_749
*6827 FILLER_0_326_755
*6828 FILLER_0_326_757
*6829 FILLER_0_326_769
*6830 FILLER_0_326_77
*6831 FILLER_0_326_781
*6832 FILLER_0_326_793
*6833 FILLER_0_326_805
*6834 FILLER_0_326_811
*6835 FILLER_0_326_813
*6836 FILLER_0_326_825
*6837 FILLER_0_326_83
*6838 FILLER_0_326_837
*6839 FILLER_0_326_849
*6840 FILLER_0_326_85
*6841 FILLER_0_326_861
*6842 FILLER_0_326_867
*6843 FILLER_0_326_869
*6844 FILLER_0_326_881
*6845 FILLER_0_326_893
*6846 FILLER_0_326_905
*6847 FILLER_0_326_917
*6848 FILLER_0_326_923
*6849 FILLER_0_326_925
*6850 FILLER_0_326_937
*6851 FILLER_0_326_949
*6852 FILLER_0_326_961
*6853 FILLER_0_326_97
*6854 FILLER_0_326_973
*6855 FILLER_0_326_979
*6856 FILLER_0_326_981
*6857 FILLER_0_326_993
*6858 FILLER_0_327_1005
*6859 FILLER_0_327_1009
*6860 FILLER_0_327_1021
*6861 FILLER_0_327_1033
*6862 FILLER_0_327_1037
*6863 FILLER_0_327_1049
*6864 FILLER_0_327_1061
*6865 FILLER_0_327_1065
*6866 FILLER_0_327_1077
*6867 FILLER_0_327_1089
*6868 FILLER_0_327_109
*6869 FILLER_0_327_1093
*6870 FILLER_0_327_1105
*6871 FILLER_0_327_1117
*6872 FILLER_0_327_1121
*6873 FILLER_0_327_113
*6874 FILLER_0_327_1133
*6875 FILLER_0_327_1145
*6876 FILLER_0_327_1149
*6877 FILLER_0_327_1161
*6878 FILLER_0_327_1173
*6879 FILLER_0_327_1177
*6880 FILLER_0_327_1189
*6881 FILLER_0_327_1201
*6882 FILLER_0_327_1205
*6883 FILLER_0_327_1217
*6884 FILLER_0_327_1229
*6885 FILLER_0_327_1233
*6886 FILLER_0_327_1245
*6887 FILLER_0_327_125
*6888 FILLER_0_327_1257
*6889 FILLER_0_327_1261
*6890 FILLER_0_327_1273
*6891 FILLER_0_327_1285
*6892 FILLER_0_327_1289
*6893 FILLER_0_327_1301
*6894 FILLER_0_327_1313
*6895 FILLER_0_327_1317
*6896 FILLER_0_327_1329
*6897 FILLER_0_327_1341
*6898 FILLER_0_327_1345
*6899 FILLER_0_327_1357
*6900 FILLER_0_327_1369
*6901 FILLER_0_327_137
*6902 FILLER_0_327_1373
*6903 FILLER_0_327_1385
*6904 FILLER_0_327_1397
*6905 FILLER_0_327_1401
*6906 FILLER_0_327_141
*6907 FILLER_0_327_1413
*6908 FILLER_0_327_1425
*6909 FILLER_0_327_1429
*6910 FILLER_0_327_1441
*6911 FILLER_0_327_1453
*6912 FILLER_0_327_1457
*6913 FILLER_0_327_1469
*6914 FILLER_0_327_1481
*6915 FILLER_0_327_1485
*6916 FILLER_0_327_1497
*6917 FILLER_0_327_15
*6918 FILLER_0_327_1505
*6919 FILLER_0_327_153
*6920 FILLER_0_327_165
*6921 FILLER_0_327_169
*6922 FILLER_0_327_181
*6923 FILLER_0_327_193
*6924 FILLER_0_327_197
*6925 FILLER_0_327_209
*6926 FILLER_0_327_221
*6927 FILLER_0_327_225
*6928 FILLER_0_327_237
*6929 FILLER_0_327_249
*6930 FILLER_0_327_253
*6931 FILLER_0_327_265
*6932 FILLER_0_327_27
*6933 FILLER_0_327_277
*6934 FILLER_0_327_281
*6935 FILLER_0_327_29
*6936 FILLER_0_327_293
*6937 FILLER_0_327_3
*6938 FILLER_0_327_305
*6939 FILLER_0_327_309
*6940 FILLER_0_327_321
*6941 FILLER_0_327_333
*6942 FILLER_0_327_337
*6943 FILLER_0_327_349
*6944 FILLER_0_327_361
*6945 FILLER_0_327_365
*6946 FILLER_0_327_377
*6947 FILLER_0_327_389
*6948 FILLER_0_327_393
*6949 FILLER_0_327_405
*6950 FILLER_0_327_41
*6951 FILLER_0_327_417
*6952 FILLER_0_327_421
*6953 FILLER_0_327_433
*6954 FILLER_0_327_445
*6955 FILLER_0_327_449
*6956 FILLER_0_327_461
*6957 FILLER_0_327_473
*6958 FILLER_0_327_477
*6959 FILLER_0_327_489
*6960 FILLER_0_327_501
*6961 FILLER_0_327_505
*6962 FILLER_0_327_517
*6963 FILLER_0_327_529
*6964 FILLER_0_327_53
*6965 FILLER_0_327_533
*6966 FILLER_0_327_545
*6967 FILLER_0_327_557
*6968 FILLER_0_327_561
*6969 FILLER_0_327_57
*6970 FILLER_0_327_573
*6971 FILLER_0_327_585
*6972 FILLER_0_327_589
*6973 FILLER_0_327_601
*6974 FILLER_0_327_613
*6975 FILLER_0_327_617
*6976 FILLER_0_327_629
*6977 FILLER_0_327_641
*6978 FILLER_0_327_645
*6979 FILLER_0_327_657
*6980 FILLER_0_327_669
*6981 FILLER_0_327_673
*6982 FILLER_0_327_685
*6983 FILLER_0_327_69
*6984 FILLER_0_327_697
*6985 FILLER_0_327_701
*6986 FILLER_0_327_713
*6987 FILLER_0_327_725
*6988 FILLER_0_327_729
*6989 FILLER_0_327_741
*6990 FILLER_0_327_753
*6991 FILLER_0_327_757
*6992 FILLER_0_327_769
*6993 FILLER_0_327_781
*6994 FILLER_0_327_785
*6995 FILLER_0_327_797
*6996 FILLER_0_327_809
*6997 FILLER_0_327_81
*6998 FILLER_0_327_813
*6999 FILLER_0_327_825
*7000 FILLER_0_327_837
*7001 FILLER_0_327_841
*7002 FILLER_0_327_85
*7003 FILLER_0_327_853
*7004 FILLER_0_327_865
*7005 FILLER_0_327_869
*7006 FILLER_0_327_881
*7007 FILLER_0_327_893
*7008 FILLER_0_327_897
*7009 FILLER_0_327_909
*7010 FILLER_0_327_921
*7011 FILLER_0_327_925
*7012 FILLER_0_327_937
*7013 FILLER_0_327_949
*7014 FILLER_0_327_953
*7015 FILLER_0_327_965
*7016 FILLER_0_327_97
*7017 FILLER_0_327_977
*7018 FILLER_0_327_981
*7019 FILLER_0_327_993
*7020 FILLER_0_32_1464
*7021 FILLER_0_32_1468
*7022 FILLER_0_32_1472
*7023 FILLER_0_32_1484
*7024 FILLER_0_32_1488
*7025 FILLER_0_32_1490
*7026 FILLER_0_32_1502
*7027 FILLER_0_32_1506
*7028 FILLER_0_32_703
*7029 FILLER_0_32_715
*7030 FILLER_0_32_727
*7031 FILLER_0_32_729
*7032 FILLER_0_32_741
*7033 FILLER_0_33_1464
*7034 FILLER_0_33_1468
*7035 FILLER_0_33_1472
*7036 FILLER_0_33_1476
*7037 FILLER_0_33_1488
*7038 FILLER_0_33_1500
*7039 FILLER_0_33_1506
*7040 FILLER_0_33_703
*7041 FILLER_0_33_715
*7042 FILLER_0_33_727
*7043 FILLER_0_33_739
*7044 FILLER_0_34_1464
*7045 FILLER_0_34_1468
*7046 FILLER_0_34_1480
*7047 FILLER_0_34_1488
*7048 FILLER_0_34_1490
*7049 FILLER_0_34_1502
*7050 FILLER_0_34_1506
*7051 FILLER_0_34_703
*7052 FILLER_0_34_715
*7053 FILLER_0_34_727
*7054 FILLER_0_34_729
*7055 FILLER_0_34_741
*7056 FILLER_0_35_1464
*7057 FILLER_0_35_1476
*7058 FILLER_0_35_1488
*7059 FILLER_0_35_1500
*7060 FILLER_0_35_1506
*7061 FILLER_0_35_703
*7062 FILLER_0_35_715
*7063 FILLER_0_35_727
*7064 FILLER_0_35_739
*7065 FILLER_0_36_1464
*7066 FILLER_0_36_1468
*7067 FILLER_0_36_1472
*7068 FILLER_0_36_1484
*7069 FILLER_0_36_1488
*7070 FILLER_0_36_1490
*7071 FILLER_0_36_1502
*7072 FILLER_0_36_1506
*7073 FILLER_0_36_703
*7074 FILLER_0_36_715
*7075 FILLER_0_36_727
*7076 FILLER_0_36_729
*7077 FILLER_0_36_741
*7078 FILLER_0_37_1464
*7079 FILLER_0_37_1468
*7080 FILLER_0_37_1472
*7081 FILLER_0_37_1476
*7082 FILLER_0_37_1480
*7083 FILLER_0_37_1484
*7084 FILLER_0_37_1496
*7085 FILLER_0_37_1504
*7086 FILLER_0_37_703
*7087 FILLER_0_37_715
*7088 FILLER_0_37_727
*7089 FILLER_0_37_739
*7090 FILLER_0_38_1473
*7091 FILLER_0_38_1477
*7092 FILLER_0_38_1481
*7093 FILLER_0_38_1485
*7094 FILLER_0_38_1490
*7095 FILLER_0_38_1502
*7096 FILLER_0_38_1506
*7097 FILLER_0_38_703
*7098 FILLER_0_38_709
*7099 FILLER_0_38_726
*7100 FILLER_0_38_729
*7101 FILLER_0_38_741
*7102 FILLER_0_39_1473
*7103 FILLER_0_39_1477
*7104 FILLER_0_39_1489
*7105 FILLER_0_39_1501
*7106 FILLER_0_39_703
*7107 FILLER_0_39_715
*7108 FILLER_0_39_727
*7109 FILLER_0_39_739
*7110 FILLER_0_3_1004
*7111 FILLER_0_3_1009
*7112 FILLER_0_3_1013
*7113 FILLER_0_3_1023
*7114 FILLER_0_3_1033
*7115 FILLER_0_3_1039
*7116 FILLER_0_3_1042
*7117 FILLER_0_3_105
*7118 FILLER_0_3_1053
*7119 FILLER_0_3_1061
*7120 FILLER_0_3_1074
*7121 FILLER_0_3_1078
*7122 FILLER_0_3_1082
*7123 FILLER_0_3_1085
*7124 FILLER_0_3_1096
*7125 FILLER_0_3_1104
*7126 FILLER_0_3_111
*7127 FILLER_0_3_1115
*7128 FILLER_0_3_1119
*7129 FILLER_0_3_1121
*7130 FILLER_0_3_1126
*7131 FILLER_0_3_113
*7132 FILLER_0_3_1146
*7133 FILLER_0_3_1156
*7134 FILLER_0_3_1160
*7135 FILLER_0_3_1164
*7136 FILLER_0_3_1175
*7137 FILLER_0_3_1177
*7138 FILLER_0_3_1181
*7139 FILLER_0_3_1185
*7140 FILLER_0_3_1197
*7141 FILLER_0_3_1209
*7142 FILLER_0_3_1221
*7143 FILLER_0_3_1229
*7144 FILLER_0_3_1233
*7145 FILLER_0_3_1245
*7146 FILLER_0_3_125
*7147 FILLER_0_3_1257
*7148 FILLER_0_3_1269
*7149 FILLER_0_3_1281
*7150 FILLER_0_3_1287
*7151 FILLER_0_3_1289
*7152 FILLER_0_3_1301
*7153 FILLER_0_3_1313
*7154 FILLER_0_3_1325
*7155 FILLER_0_3_1337
*7156 FILLER_0_3_1343
*7157 FILLER_0_3_1345
*7158 FILLER_0_3_1357
*7159 FILLER_0_3_1369
*7160 FILLER_0_3_137
*7161 FILLER_0_3_1381
*7162 FILLER_0_3_1393
*7163 FILLER_0_3_1399
*7164 FILLER_0_3_1401
*7165 FILLER_0_3_1413
*7166 FILLER_0_3_1425
*7167 FILLER_0_3_1437
*7168 FILLER_0_3_1449
*7169 FILLER_0_3_1455
*7170 FILLER_0_3_1457
*7171 FILLER_0_3_1469
*7172 FILLER_0_3_1481
*7173 FILLER_0_3_149
*7174 FILLER_0_3_1493
*7175 FILLER_0_3_15
*7176 FILLER_0_3_1505
*7177 FILLER_0_3_161
*7178 FILLER_0_3_167
*7179 FILLER_0_3_169
*7180 FILLER_0_3_181
*7181 FILLER_0_3_193
*7182 FILLER_0_3_205
*7183 FILLER_0_3_217
*7184 FILLER_0_3_223
*7185 FILLER_0_3_225
*7186 FILLER_0_3_237
*7187 FILLER_0_3_249
*7188 FILLER_0_3_261
*7189 FILLER_0_3_27
*7190 FILLER_0_3_273
*7191 FILLER_0_3_279
*7192 FILLER_0_3_281
*7193 FILLER_0_3_293
*7194 FILLER_0_3_3
*7195 FILLER_0_3_305
*7196 FILLER_0_3_317
*7197 FILLER_0_3_329
*7198 FILLER_0_3_335
*7199 FILLER_0_3_337
*7200 FILLER_0_3_349
*7201 FILLER_0_3_361
*7202 FILLER_0_3_373
*7203 FILLER_0_3_385
*7204 FILLER_0_3_39
*7205 FILLER_0_3_391
*7206 FILLER_0_3_393
*7207 FILLER_0_3_405
*7208 FILLER_0_3_417
*7209 FILLER_0_3_429
*7210 FILLER_0_3_441
*7211 FILLER_0_3_447
*7212 FILLER_0_3_449
*7213 FILLER_0_3_461
*7214 FILLER_0_3_473
*7215 FILLER_0_3_485
*7216 FILLER_0_3_497
*7217 FILLER_0_3_503
*7218 FILLER_0_3_505
*7219 FILLER_0_3_51
*7220 FILLER_0_3_517
*7221 FILLER_0_3_529
*7222 FILLER_0_3_534
*7223 FILLER_0_3_546
*7224 FILLER_0_3_55
*7225 FILLER_0_3_558
*7226 FILLER_0_3_561
*7227 FILLER_0_3_57
*7228 FILLER_0_3_579
*7229 FILLER_0_3_583
*7230 FILLER_0_3_610
*7231 FILLER_0_3_637
*7232 FILLER_0_3_641
*7233 FILLER_0_3_650
*7234 FILLER_0_3_673
*7235 FILLER_0_3_685
*7236 FILLER_0_3_69
*7237 FILLER_0_3_697
*7238 FILLER_0_3_706
*7239 FILLER_0_3_716
*7240 FILLER_0_3_729
*7241 FILLER_0_3_740
*7242 FILLER_0_3_750
*7243 FILLER_0_3_766
*7244 FILLER_0_3_778
*7245 FILLER_0_3_785
*7246 FILLER_0_3_797
*7247 FILLER_0_3_81
*7248 FILLER_0_3_811
*7249 FILLER_0_3_827
*7250 FILLER_0_3_831
*7251 FILLER_0_3_868
*7252 FILLER_0_3_876
*7253 FILLER_0_3_894
*7254 FILLER_0_3_897
*7255 FILLER_0_3_909
*7256 FILLER_0_3_921
*7257 FILLER_0_3_93
*7258 FILLER_0_3_933
*7259 FILLER_0_3_945
*7260 FILLER_0_3_951
*7261 FILLER_0_3_953
*7262 FILLER_0_3_965
*7263 FILLER_0_3_977
*7264 FILLER_0_3_985
*7265 FILLER_0_3_991
*7266 FILLER_0_3_999
*7267 FILLER_0_40_1464
*7268 FILLER_0_40_1468
*7269 FILLER_0_40_1480
*7270 FILLER_0_40_1488
*7271 FILLER_0_40_1490
*7272 FILLER_0_40_1502
*7273 FILLER_0_40_1506
*7274 FILLER_0_40_703
*7275 FILLER_0_40_715
*7276 FILLER_0_40_719
*7277 FILLER_0_40_722
*7278 FILLER_0_40_726
*7279 FILLER_0_40_729
*7280 FILLER_0_40_742
*7281 FILLER_0_41_1464
*7282 FILLER_0_41_1468
*7283 FILLER_0_41_1472
*7284 FILLER_0_41_1484
*7285 FILLER_0_41_1496
*7286 FILLER_0_41_1504
*7287 FILLER_0_41_703
*7288 FILLER_0_41_715
*7289 FILLER_0_41_723
*7290 FILLER_0_41_727
*7291 FILLER_0_41_731
*7292 FILLER_0_41_742
*7293 FILLER_0_42_1464
*7294 FILLER_0_42_1468
*7295 FILLER_0_42_1480
*7296 FILLER_0_42_1488
*7297 FILLER_0_42_1490
*7298 FILLER_0_42_1502
*7299 FILLER_0_42_1506
*7300 FILLER_0_42_703
*7301 FILLER_0_42_715
*7302 FILLER_0_42_727
*7303 FILLER_0_42_729
*7304 FILLER_0_42_741
*7305 FILLER_0_43_1464
*7306 FILLER_0_43_1476
*7307 FILLER_0_43_1488
*7308 FILLER_0_43_1500
*7309 FILLER_0_43_1506
*7310 FILLER_0_43_703
*7311 FILLER_0_43_715
*7312 FILLER_0_43_727
*7313 FILLER_0_43_739
*7314 FILLER_0_44_1464
*7315 FILLER_0_44_1468
*7316 FILLER_0_44_1480
*7317 FILLER_0_44_1488
*7318 FILLER_0_44_1490
*7319 FILLER_0_44_1502
*7320 FILLER_0_44_1506
*7321 FILLER_0_44_703
*7322 FILLER_0_44_707
*7323 FILLER_0_44_719
*7324 FILLER_0_44_727
*7325 FILLER_0_44_729
*7326 FILLER_0_44_741
*7327 FILLER_0_45_1464
*7328 FILLER_0_45_1468
*7329 FILLER_0_45_1472
*7330 FILLER_0_45_1476
*7331 FILLER_0_45_1488
*7332 FILLER_0_45_1500
*7333 FILLER_0_45_1506
*7334 FILLER_0_45_703
*7335 FILLER_0_45_707
*7336 FILLER_0_45_710
*7337 FILLER_0_45_714
*7338 FILLER_0_45_725
*7339 FILLER_0_45_729
*7340 FILLER_0_45_739
*7341 FILLER_0_45_743
*7342 FILLER_0_46_1480
*7343 FILLER_0_46_1488
*7344 FILLER_0_46_1490
*7345 FILLER_0_46_1502
*7346 FILLER_0_46_1506
*7347 FILLER_0_46_703
*7348 FILLER_0_46_707
*7349 FILLER_0_46_712
*7350 FILLER_0_46_716
*7351 FILLER_0_46_727
*7352 FILLER_0_46_729
*7353 FILLER_0_46_733
*7354 FILLER_0_46_737
*7355 FILLER_0_46_745
*7356 FILLER_0_47_1464
*7357 FILLER_0_47_1468
*7358 FILLER_0_47_1472
*7359 FILLER_0_47_1484
*7360 FILLER_0_47_1496
*7361 FILLER_0_47_1504
*7362 FILLER_0_47_719
*7363 FILLER_0_47_731
*7364 FILLER_0_47_739
*7365 FILLER_0_47_743
*7366 FILLER_0_48_1480
*7367 FILLER_0_48_1488
*7368 FILLER_0_48_1490
*7369 FILLER_0_48_1502
*7370 FILLER_0_48_1506
*7371 FILLER_0_48_703
*7372 FILLER_0_48_715
*7373 FILLER_0_48_719
*7374 FILLER_0_48_722
*7375 FILLER_0_48_726
*7376 FILLER_0_48_729
*7377 FILLER_0_48_733
*7378 FILLER_0_48_736
*7379 FILLER_0_49_1473
*7380 FILLER_0_49_1477
*7381 FILLER_0_49_1481
*7382 FILLER_0_49_1485
*7383 FILLER_0_49_1497
*7384 FILLER_0_49_1505
*7385 FILLER_0_49_703
*7386 FILLER_0_49_715
*7387 FILLER_0_49_727
*7388 FILLER_0_49_739
*7389 FILLER_0_49_743
*7390 FILLER_0_4_1006
*7391 FILLER_0_4_1018
*7392 FILLER_0_4_1030
*7393 FILLER_0_4_1037
*7394 FILLER_0_4_1049
*7395 FILLER_0_4_1061
*7396 FILLER_0_4_1077
*7397 FILLER_0_4_1089
*7398 FILLER_0_4_109
*7399 FILLER_0_4_1093
*7400 FILLER_0_4_1105
*7401 FILLER_0_4_1117
*7402 FILLER_0_4_1129
*7403 FILLER_0_4_1141
*7404 FILLER_0_4_1147
*7405 FILLER_0_4_1149
*7406 FILLER_0_4_1163
*7407 FILLER_0_4_1167
*7408 FILLER_0_4_1179
*7409 FILLER_0_4_1191
*7410 FILLER_0_4_1203
*7411 FILLER_0_4_1205
*7412 FILLER_0_4_121
*7413 FILLER_0_4_1217
*7414 FILLER_0_4_1225
*7415 FILLER_0_4_1228
*7416 FILLER_0_4_1232
*7417 FILLER_0_4_1244
*7418 FILLER_0_4_1256
*7419 FILLER_0_4_1261
*7420 FILLER_0_4_1273
*7421 FILLER_0_4_1285
*7422 FILLER_0_4_1297
*7423 FILLER_0_4_1309
*7424 FILLER_0_4_1315
*7425 FILLER_0_4_1317
*7426 FILLER_0_4_1329
*7427 FILLER_0_4_133
*7428 FILLER_0_4_1341
*7429 FILLER_0_4_1353
*7430 FILLER_0_4_1365
*7431 FILLER_0_4_1371
*7432 FILLER_0_4_1373
*7433 FILLER_0_4_1385
*7434 FILLER_0_4_139
*7435 FILLER_0_4_1397
*7436 FILLER_0_4_1409
*7437 FILLER_0_4_141
*7438 FILLER_0_4_1421
*7439 FILLER_0_4_1427
*7440 FILLER_0_4_1429
*7441 FILLER_0_4_1441
*7442 FILLER_0_4_1453
*7443 FILLER_0_4_1465
*7444 FILLER_0_4_1477
*7445 FILLER_0_4_1483
*7446 FILLER_0_4_1485
*7447 FILLER_0_4_1497
*7448 FILLER_0_4_15
*7449 FILLER_0_4_1505
*7450 FILLER_0_4_153
*7451 FILLER_0_4_165
*7452 FILLER_0_4_177
*7453 FILLER_0_4_189
*7454 FILLER_0_4_195
*7455 FILLER_0_4_197
*7456 FILLER_0_4_209
*7457 FILLER_0_4_221
*7458 FILLER_0_4_233
*7459 FILLER_0_4_245
*7460 FILLER_0_4_251
*7461 FILLER_0_4_253
*7462 FILLER_0_4_265
*7463 FILLER_0_4_27
*7464 FILLER_0_4_277
*7465 FILLER_0_4_289
*7466 FILLER_0_4_29
*7467 FILLER_0_4_3
*7468 FILLER_0_4_301
*7469 FILLER_0_4_307
*7470 FILLER_0_4_309
*7471 FILLER_0_4_321
*7472 FILLER_0_4_333
*7473 FILLER_0_4_345
*7474 FILLER_0_4_357
*7475 FILLER_0_4_363
*7476 FILLER_0_4_365
*7477 FILLER_0_4_377
*7478 FILLER_0_4_389
*7479 FILLER_0_4_401
*7480 FILLER_0_4_41
*7481 FILLER_0_4_413
*7482 FILLER_0_4_419
*7483 FILLER_0_4_421
*7484 FILLER_0_4_433
*7485 FILLER_0_4_445
*7486 FILLER_0_4_457
*7487 FILLER_0_4_469
*7488 FILLER_0_4_475
*7489 FILLER_0_4_477
*7490 FILLER_0_4_489
*7491 FILLER_0_4_501
*7492 FILLER_0_4_513
*7493 FILLER_0_4_525
*7494 FILLER_0_4_53
*7495 FILLER_0_4_531
*7496 FILLER_0_4_533
*7497 FILLER_0_4_545
*7498 FILLER_0_4_557
*7499 FILLER_0_4_567
*7500 FILLER_0_4_587
*7501 FILLER_0_4_597
*7502 FILLER_0_4_606
*7503 FILLER_0_4_618
*7504 FILLER_0_4_626
*7505 FILLER_0_4_636
*7506 FILLER_0_4_645
*7507 FILLER_0_4_65
*7508 FILLER_0_4_665
*7509 FILLER_0_4_677
*7510 FILLER_0_4_689
*7511 FILLER_0_4_697
*7512 FILLER_0_4_701
*7513 FILLER_0_4_713
*7514 FILLER_0_4_725
*7515 FILLER_0_4_737
*7516 FILLER_0_4_749
*7517 FILLER_0_4_755
*7518 FILLER_0_4_757
*7519 FILLER_0_4_769
*7520 FILLER_0_4_77
*7521 FILLER_0_4_781
*7522 FILLER_0_4_793
*7523 FILLER_0_4_805
*7524 FILLER_0_4_811
*7525 FILLER_0_4_813
*7526 FILLER_0_4_825
*7527 FILLER_0_4_83
*7528 FILLER_0_4_837
*7529 FILLER_0_4_841
*7530 FILLER_0_4_85
*7531 FILLER_0_4_856
*7532 FILLER_0_4_866
*7533 FILLER_0_4_873
*7534 FILLER_0_4_881
*7535 FILLER_0_4_891
*7536 FILLER_0_4_903
*7537 FILLER_0_4_915
*7538 FILLER_0_4_923
*7539 FILLER_0_4_925
*7540 FILLER_0_4_937
*7541 FILLER_0_4_949
*7542 FILLER_0_4_961
*7543 FILLER_0_4_966
*7544 FILLER_0_4_97
*7545 FILLER_0_4_977
*7546 FILLER_0_4_981
*7547 FILLER_0_4_995
*7548 FILLER_0_50_1480
*7549 FILLER_0_50_1488
*7550 FILLER_0_50_1490
*7551 FILLER_0_50_1502
*7552 FILLER_0_50_1506
*7553 FILLER_0_50_703
*7554 FILLER_0_50_707
*7555 FILLER_0_50_719
*7556 FILLER_0_50_722
*7557 FILLER_0_50_726
*7558 FILLER_0_50_738
*7559 FILLER_0_50_742
*7560 FILLER_0_51_1464
*7561 FILLER_0_51_1468
*7562 FILLER_0_51_1472
*7563 FILLER_0_51_1484
*7564 FILLER_0_51_1496
*7565 FILLER_0_51_1504
*7566 FILLER_0_51_703
*7567 FILLER_0_51_708
*7568 FILLER_0_51_712
*7569 FILLER_0_51_716
*7570 FILLER_0_51_720
*7571 FILLER_0_51_731
*7572 FILLER_0_51_743
*7573 FILLER_0_52_1480
*7574 FILLER_0_52_1488
*7575 FILLER_0_52_1490
*7576 FILLER_0_52_1502
*7577 FILLER_0_52_1506
*7578 FILLER_0_52_703
*7579 FILLER_0_52_707
*7580 FILLER_0_52_711
*7581 FILLER_0_52_715
*7582 FILLER_0_52_726
*7583 FILLER_0_52_729
*7584 FILLER_0_52_733
*7585 FILLER_0_52_737
*7586 FILLER_0_53_1473
*7587 FILLER_0_53_1477
*7588 FILLER_0_53_1481
*7589 FILLER_0_53_1485
*7590 FILLER_0_53_1497
*7591 FILLER_0_53_1505
*7592 FILLER_0_53_712
*7593 FILLER_0_53_716
*7594 FILLER_0_53_720
*7595 FILLER_0_53_724
*7596 FILLER_0_53_728
*7597 FILLER_0_53_732
*7598 FILLER_0_53_742
*7599 FILLER_0_54_1480
*7600 FILLER_0_54_1488
*7601 FILLER_0_54_1490
*7602 FILLER_0_54_1502
*7603 FILLER_0_54_1506
*7604 FILLER_0_54_703
*7605 FILLER_0_54_707
*7606 FILLER_0_54_711
*7607 FILLER_0_54_715
*7608 FILLER_0_54_727
*7609 FILLER_0_54_729
*7610 FILLER_0_54_741
*7611 FILLER_0_55_1473
*7612 FILLER_0_55_1477
*7613 FILLER_0_55_1489
*7614 FILLER_0_55_1501
*7615 FILLER_0_55_703
*7616 FILLER_0_55_715
*7617 FILLER_0_55_727
*7618 FILLER_0_55_739
*7619 FILLER_0_56_1480
*7620 FILLER_0_56_1488
*7621 FILLER_0_56_1490
*7622 FILLER_0_56_1502
*7623 FILLER_0_56_1506
*7624 FILLER_0_56_703
*7625 FILLER_0_56_707
*7626 FILLER_0_56_719
*7627 FILLER_0_56_727
*7628 FILLER_0_56_729
*7629 FILLER_0_56_741
*7630 FILLER_0_57_1464
*7631 FILLER_0_57_1468
*7632 FILLER_0_57_1472
*7633 FILLER_0_57_1476
*7634 FILLER_0_57_1488
*7635 FILLER_0_57_1500
*7636 FILLER_0_57_1506
*7637 FILLER_0_57_703
*7638 FILLER_0_57_707
*7639 FILLER_0_57_711
*7640 FILLER_0_57_715
*7641 FILLER_0_57_727
*7642 FILLER_0_57_731
*7643 FILLER_0_57_734
*7644 FILLER_0_57_738
*7645 FILLER_0_57_742
*7646 FILLER_0_58_1480
*7647 FILLER_0_58_1488
*7648 FILLER_0_58_1490
*7649 FILLER_0_58_1502
*7650 FILLER_0_58_1506
*7651 FILLER_0_58_703
*7652 FILLER_0_58_707
*7653 FILLER_0_58_711
*7654 FILLER_0_58_722
*7655 FILLER_0_58_726
*7656 FILLER_0_58_738
*7657 FILLER_0_58_742
*7658 FILLER_0_59_1464
*7659 FILLER_0_59_1476
*7660 FILLER_0_59_1488
*7661 FILLER_0_59_1500
*7662 FILLER_0_59_1506
*7663 FILLER_0_59_723
*7664 FILLER_0_59_735
*7665 FILLER_0_59_738
*7666 FILLER_0_59_742
*7667 FILLER_0_5_1001
*7668 FILLER_0_5_1007
*7669 FILLER_0_5_1009
*7670 FILLER_0_5_1021
*7671 FILLER_0_5_1033
*7672 FILLER_0_5_1043
*7673 FILLER_0_5_105
*7674 FILLER_0_5_1055
*7675 FILLER_0_5_1063
*7676 FILLER_0_5_1081
*7677 FILLER_0_5_1093
*7678 FILLER_0_5_1105
*7679 FILLER_0_5_111
*7680 FILLER_0_5_1117
*7681 FILLER_0_5_1121
*7682 FILLER_0_5_113
*7683 FILLER_0_5_1141
*7684 FILLER_0_5_1149
*7685 FILLER_0_5_1167
*7686 FILLER_0_5_1172
*7687 FILLER_0_5_1177
*7688 FILLER_0_5_1189
*7689 FILLER_0_5_1193
*7690 FILLER_0_5_1196
*7691 FILLER_0_5_1200
*7692 FILLER_0_5_1204
*7693 FILLER_0_5_1221
*7694 FILLER_0_5_1225
*7695 FILLER_0_5_1228
*7696 FILLER_0_5_1233
*7697 FILLER_0_5_1243
*7698 FILLER_0_5_125
*7699 FILLER_0_5_1255
*7700 FILLER_0_5_1267
*7701 FILLER_0_5_1279
*7702 FILLER_0_5_1287
*7703 FILLER_0_5_1289
*7704 FILLER_0_5_1301
*7705 FILLER_0_5_1313
*7706 FILLER_0_5_1325
*7707 FILLER_0_5_1337
*7708 FILLER_0_5_1343
*7709 FILLER_0_5_1345
*7710 FILLER_0_5_1357
*7711 FILLER_0_5_1369
*7712 FILLER_0_5_137
*7713 FILLER_0_5_1381
*7714 FILLER_0_5_1393
*7715 FILLER_0_5_1399
*7716 FILLER_0_5_1401
*7717 FILLER_0_5_1413
*7718 FILLER_0_5_1425
*7719 FILLER_0_5_1437
*7720 FILLER_0_5_1449
*7721 FILLER_0_5_1455
*7722 FILLER_0_5_1457
*7723 FILLER_0_5_1469
*7724 FILLER_0_5_1481
*7725 FILLER_0_5_149
*7726 FILLER_0_5_1493
*7727 FILLER_0_5_15
*7728 FILLER_0_5_1505
*7729 FILLER_0_5_161
*7730 FILLER_0_5_167
*7731 FILLER_0_5_169
*7732 FILLER_0_5_181
*7733 FILLER_0_5_193
*7734 FILLER_0_5_205
*7735 FILLER_0_5_217
*7736 FILLER_0_5_223
*7737 FILLER_0_5_225
*7738 FILLER_0_5_237
*7739 FILLER_0_5_249
*7740 FILLER_0_5_261
*7741 FILLER_0_5_27
*7742 FILLER_0_5_273
*7743 FILLER_0_5_279
*7744 FILLER_0_5_281
*7745 FILLER_0_5_293
*7746 FILLER_0_5_3
*7747 FILLER_0_5_305
*7748 FILLER_0_5_317
*7749 FILLER_0_5_329
*7750 FILLER_0_5_335
*7751 FILLER_0_5_337
*7752 FILLER_0_5_349
*7753 FILLER_0_5_361
*7754 FILLER_0_5_373
*7755 FILLER_0_5_385
*7756 FILLER_0_5_39
*7757 FILLER_0_5_391
*7758 FILLER_0_5_393
*7759 FILLER_0_5_405
*7760 FILLER_0_5_417
*7761 FILLER_0_5_429
*7762 FILLER_0_5_441
*7763 FILLER_0_5_447
*7764 FILLER_0_5_449
*7765 FILLER_0_5_461
*7766 FILLER_0_5_473
*7767 FILLER_0_5_485
*7768 FILLER_0_5_497
*7769 FILLER_0_5_503
*7770 FILLER_0_5_505
*7771 FILLER_0_5_51
*7772 FILLER_0_5_517
*7773 FILLER_0_5_529
*7774 FILLER_0_5_543
*7775 FILLER_0_5_55
*7776 FILLER_0_5_554
*7777 FILLER_0_5_57
*7778 FILLER_0_5_570
*7779 FILLER_0_5_574
*7780 FILLER_0_5_586
*7781 FILLER_0_5_597
*7782 FILLER_0_5_609
*7783 FILLER_0_5_615
*7784 FILLER_0_5_626
*7785 FILLER_0_5_634
*7786 FILLER_0_5_644
*7787 FILLER_0_5_656
*7788 FILLER_0_5_668
*7789 FILLER_0_5_673
*7790 FILLER_0_5_685
*7791 FILLER_0_5_69
*7792 FILLER_0_5_697
*7793 FILLER_0_5_709
*7794 FILLER_0_5_721
*7795 FILLER_0_5_727
*7796 FILLER_0_5_729
*7797 FILLER_0_5_741
*7798 FILLER_0_5_753
*7799 FILLER_0_5_765
*7800 FILLER_0_5_777
*7801 FILLER_0_5_783
*7802 FILLER_0_5_785
*7803 FILLER_0_5_797
*7804 FILLER_0_5_809
*7805 FILLER_0_5_81
*7806 FILLER_0_5_821
*7807 FILLER_0_5_833
*7808 FILLER_0_5_839
*7809 FILLER_0_5_841
*7810 FILLER_0_5_849
*7811 FILLER_0_5_863
*7812 FILLER_0_5_867
*7813 FILLER_0_5_878
*7814 FILLER_0_5_890
*7815 FILLER_0_5_897
*7816 FILLER_0_5_909
*7817 FILLER_0_5_921
*7818 FILLER_0_5_93
*7819 FILLER_0_5_933
*7820 FILLER_0_5_945
*7821 FILLER_0_5_951
*7822 FILLER_0_5_953
*7823 FILLER_0_5_965
*7824 FILLER_0_5_977
*7825 FILLER_0_5_989
*7826 FILLER_0_60_1480
*7827 FILLER_0_60_1488
*7828 FILLER_0_60_1490
*7829 FILLER_0_60_1502
*7830 FILLER_0_60_1506
*7831 FILLER_0_60_703
*7832 FILLER_0_60_707
*7833 FILLER_0_60_711
*7834 FILLER_0_60_714
*7835 FILLER_0_60_718
*7836 FILLER_0_60_722
*7837 FILLER_0_60_726
*7838 FILLER_0_60_738
*7839 FILLER_0_60_742
*7840 FILLER_0_61_1464
*7841 FILLER_0_61_1468
*7842 FILLER_0_61_1480
*7843 FILLER_0_61_1492
*7844 FILLER_0_61_1504
*7845 FILLER_0_61_712
*7846 FILLER_0_61_716
*7847 FILLER_0_61_728
*7848 FILLER_0_61_740
*7849 FILLER_0_61_743
*7850 FILLER_0_62_1480
*7851 FILLER_0_62_1488
*7852 FILLER_0_62_1490
*7853 FILLER_0_62_1502
*7854 FILLER_0_62_1506
*7855 FILLER_0_62_703
*7856 FILLER_0_62_715
*7857 FILLER_0_62_719
*7858 FILLER_0_62_722
*7859 FILLER_0_62_726
*7860 FILLER_0_62_729
*7861 FILLER_0_62_733
*7862 FILLER_0_62_736
*7863 FILLER_0_63_1464
*7864 FILLER_0_63_1476
*7865 FILLER_0_63_1488
*7866 FILLER_0_63_1500
*7867 FILLER_0_63_1506
*7868 FILLER_0_63_703
*7869 FILLER_0_63_707
*7870 FILLER_0_63_711
*7871 FILLER_0_63_715
*7872 FILLER_0_63_719
*7873 FILLER_0_63_730
*7874 FILLER_0_63_734
*7875 FILLER_0_63_738
*7876 FILLER_0_63_742
*7877 FILLER_0_64_1480
*7878 FILLER_0_64_1488
*7879 FILLER_0_64_1490
*7880 FILLER_0_64_1502
*7881 FILLER_0_64_1506
*7882 FILLER_0_64_719
*7883 FILLER_0_64_727
*7884 FILLER_0_64_729
*7885 FILLER_0_64_741
*7886 FILLER_0_65_1464
*7887 FILLER_0_65_1468
*7888 FILLER_0_65_1480
*7889 FILLER_0_65_1492
*7890 FILLER_0_65_1504
*7891 FILLER_0_65_703
*7892 FILLER_0_65_707
*7893 FILLER_0_65_719
*7894 FILLER_0_65_731
*7895 FILLER_0_65_743
*7896 FILLER_0_66_1480
*7897 FILLER_0_66_1488
*7898 FILLER_0_66_1490
*7899 FILLER_0_66_1502
*7900 FILLER_0_66_1506
*7901 FILLER_0_66_703
*7902 FILLER_0_66_715
*7903 FILLER_0_66_727
*7904 FILLER_0_66_729
*7905 FILLER_0_66_741
*7906 FILLER_0_67_1464
*7907 FILLER_0_67_1476
*7908 FILLER_0_67_1488
*7909 FILLER_0_67_1500
*7910 FILLER_0_67_1506
*7911 FILLER_0_67_703
*7912 FILLER_0_67_715
*7913 FILLER_0_67_727
*7914 FILLER_0_67_739
*7915 FILLER_0_68_1480
*7916 FILLER_0_68_1488
*7917 FILLER_0_68_1490
*7918 FILLER_0_68_1502
*7919 FILLER_0_68_1506
*7920 FILLER_0_68_703
*7921 FILLER_0_68_715
*7922 FILLER_0_68_727
*7923 FILLER_0_68_729
*7924 FILLER_0_68_741
*7925 FILLER_0_69_1464
*7926 FILLER_0_69_1468
*7927 FILLER_0_69_1472
*7928 FILLER_0_69_1476
*7929 FILLER_0_69_1480
*7930 FILLER_0_69_1492
*7931 FILLER_0_69_1504
*7932 FILLER_0_69_703
*7933 FILLER_0_69_707
*7934 FILLER_0_69_719
*7935 FILLER_0_69_731
*7936 FILLER_0_69_743
*7937 FILLER_0_6_1005
*7938 FILLER_0_6_1013
*7939 FILLER_0_6_1018
*7940 FILLER_0_6_1022
*7941 FILLER_0_6_1026
*7942 FILLER_0_6_1030
*7943 FILLER_0_6_1034
*7944 FILLER_0_6_1037
*7945 FILLER_0_6_1050
*7946 FILLER_0_6_1054
*7947 FILLER_0_6_1058
*7948 FILLER_0_6_1062
*7949 FILLER_0_6_1066
*7950 FILLER_0_6_1070
*7951 FILLER_0_6_1074
*7952 FILLER_0_6_1078
*7953 FILLER_0_6_1082
*7954 FILLER_0_6_1086
*7955 FILLER_0_6_109
*7956 FILLER_0_6_1141
*7957 FILLER_0_6_1145
*7958 FILLER_0_6_1165
*7959 FILLER_0_6_1169
*7960 FILLER_0_6_1172
*7961 FILLER_0_6_1176
*7962 FILLER_0_6_1180
*7963 FILLER_0_6_1190
*7964 FILLER_0_6_1194
*7965 FILLER_0_6_1198
*7966 FILLER_0_6_1202
*7967 FILLER_0_6_1205
*7968 FILLER_0_6_121
*7969 FILLER_0_6_1211
*7970 FILLER_0_6_1215
*7971 FILLER_0_6_1226
*7972 FILLER_0_6_1230
*7973 FILLER_0_6_1234
*7974 FILLER_0_6_1238
*7975 FILLER_0_6_1242
*7976 FILLER_0_6_1246
*7977 FILLER_0_6_1250
*7978 FILLER_0_6_1258
*7979 FILLER_0_6_1261
*7980 FILLER_0_6_1273
*7981 FILLER_0_6_1285
*7982 FILLER_0_6_1297
*7983 FILLER_0_6_1309
*7984 FILLER_0_6_1315
*7985 FILLER_0_6_1317
*7986 FILLER_0_6_1329
*7987 FILLER_0_6_133
*7988 FILLER_0_6_1341
*7989 FILLER_0_6_1353
*7990 FILLER_0_6_1365
*7991 FILLER_0_6_1371
*7992 FILLER_0_6_1373
*7993 FILLER_0_6_1385
*7994 FILLER_0_6_139
*7995 FILLER_0_6_1397
*7996 FILLER_0_6_1409
*7997 FILLER_0_6_141
*7998 FILLER_0_6_1421
*7999 FILLER_0_6_1427
*8000 FILLER_0_6_1429
*8001 FILLER_0_6_1441
*8002 FILLER_0_6_1453
*8003 FILLER_0_6_1465
*8004 FILLER_0_6_1477
*8005 FILLER_0_6_1483
*8006 FILLER_0_6_1485
*8007 FILLER_0_6_1497
*8008 FILLER_0_6_15
*8009 FILLER_0_6_1505
*8010 FILLER_0_6_153
*8011 FILLER_0_6_165
*8012 FILLER_0_6_177
*8013 FILLER_0_6_189
*8014 FILLER_0_6_195
*8015 FILLER_0_6_197
*8016 FILLER_0_6_209
*8017 FILLER_0_6_221
*8018 FILLER_0_6_233
*8019 FILLER_0_6_245
*8020 FILLER_0_6_251
*8021 FILLER_0_6_253
*8022 FILLER_0_6_265
*8023 FILLER_0_6_27
*8024 FILLER_0_6_277
*8025 FILLER_0_6_289
*8026 FILLER_0_6_29
*8027 FILLER_0_6_3
*8028 FILLER_0_6_301
*8029 FILLER_0_6_307
*8030 FILLER_0_6_309
*8031 FILLER_0_6_321
*8032 FILLER_0_6_333
*8033 FILLER_0_6_345
*8034 FILLER_0_6_357
*8035 FILLER_0_6_363
*8036 FILLER_0_6_365
*8037 FILLER_0_6_377
*8038 FILLER_0_6_389
*8039 FILLER_0_6_401
*8040 FILLER_0_6_41
*8041 FILLER_0_6_413
*8042 FILLER_0_6_419
*8043 FILLER_0_6_421
*8044 FILLER_0_6_433
*8045 FILLER_0_6_445
*8046 FILLER_0_6_457
*8047 FILLER_0_6_469
*8048 FILLER_0_6_475
*8049 FILLER_0_6_477
*8050 FILLER_0_6_489
*8051 FILLER_0_6_501
*8052 FILLER_0_6_513
*8053 FILLER_0_6_525
*8054 FILLER_0_6_53
*8055 FILLER_0_6_531
*8056 FILLER_0_6_533
*8057 FILLER_0_6_545
*8058 FILLER_0_6_557
*8059 FILLER_0_6_569
*8060 FILLER_0_6_584
*8061 FILLER_0_6_589
*8062 FILLER_0_6_599
*8063 FILLER_0_6_603
*8064 FILLER_0_6_615
*8065 FILLER_0_6_627
*8066 FILLER_0_6_640
*8067 FILLER_0_6_65
*8068 FILLER_0_6_654
*8069 FILLER_0_6_666
*8070 FILLER_0_6_678
*8071 FILLER_0_6_690
*8072 FILLER_0_6_698
*8073 FILLER_0_6_701
*8074 FILLER_0_6_713
*8075 FILLER_0_6_725
*8076 FILLER_0_6_737
*8077 FILLER_0_6_749
*8078 FILLER_0_6_755
*8079 FILLER_0_6_757
*8080 FILLER_0_6_769
*8081 FILLER_0_6_77
*8082 FILLER_0_6_781
*8083 FILLER_0_6_793
*8084 FILLER_0_6_805
*8085 FILLER_0_6_811
*8086 FILLER_0_6_813
*8087 FILLER_0_6_825
*8088 FILLER_0_6_83
*8089 FILLER_0_6_831
*8090 FILLER_0_6_837
*8091 FILLER_0_6_849
*8092 FILLER_0_6_85
*8093 FILLER_0_6_857
*8094 FILLER_0_6_863
*8095 FILLER_0_6_867
*8096 FILLER_0_6_869
*8097 FILLER_0_6_881
*8098 FILLER_0_6_893
*8099 FILLER_0_6_905
*8100 FILLER_0_6_917
*8101 FILLER_0_6_923
*8102 FILLER_0_6_925
*8103 FILLER_0_6_937
*8104 FILLER_0_6_949
*8105 FILLER_0_6_961
*8106 FILLER_0_6_97
*8107 FILLER_0_6_971
*8108 FILLER_0_6_979
*8109 FILLER_0_6_981
*8110 FILLER_0_6_993
*8111 FILLER_0_70_1480
*8112 FILLER_0_70_1488
*8113 FILLER_0_70_1490
*8114 FILLER_0_70_1502
*8115 FILLER_0_70_1506
*8116 FILLER_0_70_703
*8117 FILLER_0_70_715
*8118 FILLER_0_70_727
*8119 FILLER_0_70_729
*8120 FILLER_0_70_741
*8121 FILLER_0_71_1464
*8122 FILLER_0_71_1476
*8123 FILLER_0_71_1488
*8124 FILLER_0_71_1500
*8125 FILLER_0_71_1506
*8126 FILLER_0_71_703
*8127 FILLER_0_71_715
*8128 FILLER_0_71_727
*8129 FILLER_0_71_735
*8130 FILLER_0_72_1480
*8131 FILLER_0_72_1488
*8132 FILLER_0_72_1490
*8133 FILLER_0_72_1502
*8134 FILLER_0_72_1506
*8135 FILLER_0_72_703
*8136 FILLER_0_72_715
*8137 FILLER_0_72_727
*8138 FILLER_0_72_729
*8139 FILLER_0_72_741
*8140 FILLER_0_73_1464
*8141 FILLER_0_73_1468
*8142 FILLER_0_73_1472
*8143 FILLER_0_73_1476
*8144 FILLER_0_73_1488
*8145 FILLER_0_73_1500
*8146 FILLER_0_73_1506
*8147 FILLER_0_73_703
*8148 FILLER_0_73_707
*8149 FILLER_0_73_719
*8150 FILLER_0_73_731
*8151 FILLER_0_73_743
*8152 FILLER_0_74_1480
*8153 FILLER_0_74_1488
*8154 FILLER_0_74_1490
*8155 FILLER_0_74_1502
*8156 FILLER_0_74_1506
*8157 FILLER_0_74_703
*8158 FILLER_0_74_715
*8159 FILLER_0_74_727
*8160 FILLER_0_74_729
*8161 FILLER_0_74_741
*8162 FILLER_0_75_1467
*8163 FILLER_0_75_1479
*8164 FILLER_0_75_1491
*8165 FILLER_0_75_1503
*8166 FILLER_0_75_703
*8167 FILLER_0_75_715
*8168 FILLER_0_75_727
*8169 FILLER_0_75_739
*8170 FILLER_0_76_1464
*8171 FILLER_0_76_1482
*8172 FILLER_0_76_1488
*8173 FILLER_0_76_1490
*8174 FILLER_0_76_1502
*8175 FILLER_0_76_1506
*8176 FILLER_0_76_706
*8177 FILLER_0_76_718
*8178 FILLER_0_76_726
*8179 FILLER_0_76_729
*8180 FILLER_0_76_741
*8181 FILLER_0_77_1464
*8182 FILLER_0_77_1468
*8183 FILLER_0_77_1472
*8184 FILLER_0_77_1476
*8185 FILLER_0_77_1488
*8186 FILLER_0_77_1500
*8187 FILLER_0_77_1506
*8188 FILLER_0_77_703
*8189 FILLER_0_77_707
*8190 FILLER_0_77_719
*8191 FILLER_0_77_731
*8192 FILLER_0_77_743
*8193 FILLER_0_78_1467
*8194 FILLER_0_78_1479
*8195 FILLER_0_78_1487
*8196 FILLER_0_78_1490
*8197 FILLER_0_78_1502
*8198 FILLER_0_78_1506
*8199 FILLER_0_78_706
*8200 FILLER_0_78_718
*8201 FILLER_0_78_726
*8202 FILLER_0_78_729
*8203 FILLER_0_78_737
*8204 FILLER_0_79_1464
*8205 FILLER_0_79_1476
*8206 FILLER_0_79_1488
*8207 FILLER_0_79_1500
*8208 FILLER_0_79_1506
*8209 FILLER_0_79_703
*8210 FILLER_0_79_715
*8211 FILLER_0_79_727
*8212 FILLER_0_79_739
*8213 FILLER_0_7_1001
*8214 FILLER_0_7_1007
*8215 FILLER_0_7_105
*8216 FILLER_0_7_1057
*8217 FILLER_0_7_1063
*8218 FILLER_0_7_1065
*8219 FILLER_0_7_111
*8220 FILLER_0_7_1116
*8221 FILLER_0_7_113
*8222 FILLER_0_7_1169
*8223 FILLER_0_7_1173
*8224 FILLER_0_7_1225
*8225 FILLER_0_7_1229
*8226 FILLER_0_7_125
*8227 FILLER_0_7_1265
*8228 FILLER_0_7_1277
*8229 FILLER_0_7_1285
*8230 FILLER_0_7_1289
*8231 FILLER_0_7_1301
*8232 FILLER_0_7_1305
*8233 FILLER_0_7_1309
*8234 FILLER_0_7_1313
*8235 FILLER_0_7_1325
*8236 FILLER_0_7_1337
*8237 FILLER_0_7_1343
*8238 FILLER_0_7_1345
*8239 FILLER_0_7_1357
*8240 FILLER_0_7_1369
*8241 FILLER_0_7_137
*8242 FILLER_0_7_1381
*8243 FILLER_0_7_1393
*8244 FILLER_0_7_1399
*8245 FILLER_0_7_1401
*8246 FILLER_0_7_1413
*8247 FILLER_0_7_1425
*8248 FILLER_0_7_1437
*8249 FILLER_0_7_1449
*8250 FILLER_0_7_1455
*8251 FILLER_0_7_1457
*8252 FILLER_0_7_1469
*8253 FILLER_0_7_1481
*8254 FILLER_0_7_149
*8255 FILLER_0_7_1493
*8256 FILLER_0_7_15
*8257 FILLER_0_7_1505
*8258 FILLER_0_7_161
*8259 FILLER_0_7_167
*8260 FILLER_0_7_169
*8261 FILLER_0_7_181
*8262 FILLER_0_7_193
*8263 FILLER_0_7_205
*8264 FILLER_0_7_217
*8265 FILLER_0_7_223
*8266 FILLER_0_7_225
*8267 FILLER_0_7_237
*8268 FILLER_0_7_249
*8269 FILLER_0_7_261
*8270 FILLER_0_7_27
*8271 FILLER_0_7_273
*8272 FILLER_0_7_279
*8273 FILLER_0_7_281
*8274 FILLER_0_7_293
*8275 FILLER_0_7_3
*8276 FILLER_0_7_305
*8277 FILLER_0_7_317
*8278 FILLER_0_7_329
*8279 FILLER_0_7_335
*8280 FILLER_0_7_337
*8281 FILLER_0_7_349
*8282 FILLER_0_7_361
*8283 FILLER_0_7_373
*8284 FILLER_0_7_385
*8285 FILLER_0_7_39
*8286 FILLER_0_7_391
*8287 FILLER_0_7_393
*8288 FILLER_0_7_405
*8289 FILLER_0_7_417
*8290 FILLER_0_7_429
*8291 FILLER_0_7_441
*8292 FILLER_0_7_447
*8293 FILLER_0_7_449
*8294 FILLER_0_7_461
*8295 FILLER_0_7_473
*8296 FILLER_0_7_485
*8297 FILLER_0_7_497
*8298 FILLER_0_7_503
*8299 FILLER_0_7_505
*8300 FILLER_0_7_51
*8301 FILLER_0_7_517
*8302 FILLER_0_7_529
*8303 FILLER_0_7_534
*8304 FILLER_0_7_545
*8305 FILLER_0_7_55
*8306 FILLER_0_7_557
*8307 FILLER_0_7_561
*8308 FILLER_0_7_57
*8309 FILLER_0_7_573
*8310 FILLER_0_7_585
*8311 FILLER_0_7_597
*8312 FILLER_0_7_609
*8313 FILLER_0_7_615
*8314 FILLER_0_7_617
*8315 FILLER_0_7_629
*8316 FILLER_0_7_652
*8317 FILLER_0_7_664
*8318 FILLER_0_7_673
*8319 FILLER_0_7_685
*8320 FILLER_0_7_69
*8321 FILLER_0_7_697
*8322 FILLER_0_7_709
*8323 FILLER_0_7_721
*8324 FILLER_0_7_727
*8325 FILLER_0_7_729
*8326 FILLER_0_7_741
*8327 FILLER_0_7_753
*8328 FILLER_0_7_765
*8329 FILLER_0_7_777
*8330 FILLER_0_7_783
*8331 FILLER_0_7_785
*8332 FILLER_0_7_797
*8333 FILLER_0_7_809
*8334 FILLER_0_7_81
*8335 FILLER_0_7_821
*8336 FILLER_0_7_831
*8337 FILLER_0_7_839
*8338 FILLER_0_7_841
*8339 FILLER_0_7_853
*8340 FILLER_0_7_865
*8341 FILLER_0_7_877
*8342 FILLER_0_7_889
*8343 FILLER_0_7_895
*8344 FILLER_0_7_897
*8345 FILLER_0_7_909
*8346 FILLER_0_7_921
*8347 FILLER_0_7_93
*8348 FILLER_0_7_933
*8349 FILLER_0_7_945
*8350 FILLER_0_7_951
*8351 FILLER_0_7_953
*8352 FILLER_0_7_965
*8353 FILLER_0_7_977
*8354 FILLER_0_7_989
*8355 FILLER_0_80_1464
*8356 FILLER_0_80_1476
*8357 FILLER_0_80_1488
*8358 FILLER_0_80_1490
*8359 FILLER_0_80_1502
*8360 FILLER_0_80_1506
*8361 FILLER_0_80_703
*8362 FILLER_0_80_715
*8363 FILLER_0_80_727
*8364 FILLER_0_80_729
*8365 FILLER_0_80_741
*8366 FILLER_0_81_1464
*8367 FILLER_0_81_1476
*8368 FILLER_0_81_1488
*8369 FILLER_0_81_1500
*8370 FILLER_0_81_1506
*8371 FILLER_0_81_703
*8372 FILLER_0_81_715
*8373 FILLER_0_81_727
*8374 FILLER_0_81_739
*8375 FILLER_0_82_1464
*8376 FILLER_0_82_1476
*8377 FILLER_0_82_1488
*8378 FILLER_0_82_1490
*8379 FILLER_0_82_1502
*8380 FILLER_0_82_1506
*8381 FILLER_0_82_703
*8382 FILLER_0_82_715
*8383 FILLER_0_82_727
*8384 FILLER_0_82_729
*8385 FILLER_0_82_741
*8386 FILLER_0_83_1464
*8387 FILLER_0_83_1476
*8388 FILLER_0_83_1488
*8389 FILLER_0_83_1500
*8390 FILLER_0_83_1506
*8391 FILLER_0_83_703
*8392 FILLER_0_83_715
*8393 FILLER_0_83_727
*8394 FILLER_0_83_739
*8395 FILLER_0_84_1470
*8396 FILLER_0_84_1482
*8397 FILLER_0_84_1488
*8398 FILLER_0_84_1490
*8399 FILLER_0_84_1502
*8400 FILLER_0_84_1506
*8401 FILLER_0_84_709
*8402 FILLER_0_84_721
*8403 FILLER_0_84_727
*8404 FILLER_0_84_729
*8405 FILLER_0_84_741
*8406 FILLER_0_85_1464
*8407 FILLER_0_85_1476
*8408 FILLER_0_85_1488
*8409 FILLER_0_85_1500
*8410 FILLER_0_85_1506
*8411 FILLER_0_85_703
*8412 FILLER_0_85_715
*8413 FILLER_0_86_1464
*8414 FILLER_0_86_1476
*8415 FILLER_0_86_1488
*8416 FILLER_0_86_1490
*8417 FILLER_0_86_1502
*8418 FILLER_0_86_1506
*8419 FILLER_0_86_703
*8420 FILLER_0_86_715
*8421 FILLER_0_86_727
*8422 FILLER_0_86_729
*8423 FILLER_0_86_741
*8424 FILLER_0_87_1464
*8425 FILLER_0_87_1476
*8426 FILLER_0_87_1488
*8427 FILLER_0_87_1500
*8428 FILLER_0_87_1506
*8429 FILLER_0_87_703
*8430 FILLER_0_87_715
*8431 FILLER_0_87_727
*8432 FILLER_0_87_739
*8433 FILLER_0_88_1464
*8434 FILLER_0_88_1476
*8435 FILLER_0_88_1488
*8436 FILLER_0_88_1490
*8437 FILLER_0_88_1502
*8438 FILLER_0_88_1506
*8439 FILLER_0_88_703
*8440 FILLER_0_88_715
*8441 FILLER_0_88_727
*8442 FILLER_0_88_729
*8443 FILLER_0_88_741
*8444 FILLER_0_89_1467
*8445 FILLER_0_89_1471
*8446 FILLER_0_89_1483
*8447 FILLER_0_89_1495
*8448 FILLER_0_89_706
*8449 FILLER_0_89_718
*8450 FILLER_0_89_730
*8451 FILLER_0_89_742
*8452 FILLER_0_89_746
*8453 FILLER_0_8_1005
*8454 FILLER_0_8_1009
*8455 FILLER_0_8_1033
*8456 FILLER_0_8_1053
*8457 FILLER_0_8_1061
*8458 FILLER_0_8_1081
*8459 FILLER_0_8_1086
*8460 FILLER_0_8_109
*8461 FILLER_0_8_1090
*8462 FILLER_0_8_1093
*8463 FILLER_0_8_1099
*8464 FILLER_0_8_1103
*8465 FILLER_0_8_1107
*8466 FILLER_0_8_1118
*8467 FILLER_0_8_1121
*8468 FILLER_0_8_1125
*8469 FILLER_0_8_1129
*8470 FILLER_0_8_113
*8471 FILLER_0_8_1133
*8472 FILLER_0_8_1146
*8473 FILLER_0_8_1149
*8474 FILLER_0_8_1153
*8475 FILLER_0_8_1157
*8476 FILLER_0_8_1161
*8477 FILLER_0_8_1174
*8478 FILLER_0_8_1177
*8479 FILLER_0_8_1181
*8480 FILLER_0_8_1185
*8481 FILLER_0_8_1189
*8482 FILLER_0_8_1202
*8483 FILLER_0_8_1205
*8484 FILLER_0_8_1209
*8485 FILLER_0_8_1213
*8486 FILLER_0_8_1217
*8487 FILLER_0_8_1221
*8488 FILLER_0_8_1225
*8489 FILLER_0_8_1229
*8490 FILLER_0_8_1233
*8491 FILLER_0_8_1237
*8492 FILLER_0_8_1241
*8493 FILLER_0_8_1246
*8494 FILLER_0_8_125
*8495 FILLER_0_8_1250
*8496 FILLER_0_8_1254
*8497 FILLER_0_8_1258
*8498 FILLER_0_8_1261
*8499 FILLER_0_8_1265
*8500 FILLER_0_8_1268
*8501 FILLER_0_8_1279
*8502 FILLER_0_8_1283
*8503 FILLER_0_8_1287
*8504 FILLER_0_8_1289
*8505 FILLER_0_8_1293
*8506 FILLER_0_8_1297
*8507 FILLER_0_8_1301
*8508 FILLER_0_8_1305
*8509 FILLER_0_8_1309
*8510 FILLER_0_8_1313
*8511 FILLER_0_8_1317
*8512 FILLER_0_8_1321
*8513 FILLER_0_8_1326
*8514 FILLER_0_8_1330
*8515 FILLER_0_8_1334
*8516 FILLER_0_8_1338
*8517 FILLER_0_8_1342
*8518 FILLER_0_8_1354
*8519 FILLER_0_8_1358
*8520 FILLER_0_8_1362
*8521 FILLER_0_8_1366
*8522 FILLER_0_8_137
*8523 FILLER_0_8_1370
*8524 FILLER_0_8_1373
*8525 FILLER_0_8_1377
*8526 FILLER_0_8_1389
*8527 FILLER_0_8_1397
*8528 FILLER_0_8_1401
*8529 FILLER_0_8_141
*8530 FILLER_0_8_1413
*8531 FILLER_0_8_1425
*8532 FILLER_0_8_1429
*8533 FILLER_0_8_1441
*8534 FILLER_0_8_1453
*8535 FILLER_0_8_1457
*8536 FILLER_0_8_1469
*8537 FILLER_0_8_1481
*8538 FILLER_0_8_1485
*8539 FILLER_0_8_1497
*8540 FILLER_0_8_15
*8541 FILLER_0_8_1505
*8542 FILLER_0_8_153
*8543 FILLER_0_8_165
*8544 FILLER_0_8_169
*8545 FILLER_0_8_181
*8546 FILLER_0_8_193
*8547 FILLER_0_8_197
*8548 FILLER_0_8_209
*8549 FILLER_0_8_221
*8550 FILLER_0_8_225
*8551 FILLER_0_8_237
*8552 FILLER_0_8_249
*8553 FILLER_0_8_253
*8554 FILLER_0_8_265
*8555 FILLER_0_8_27
*8556 FILLER_0_8_277
*8557 FILLER_0_8_281
*8558 FILLER_0_8_29
*8559 FILLER_0_8_293
*8560 FILLER_0_8_3
*8561 FILLER_0_8_305
*8562 FILLER_0_8_309
*8563 FILLER_0_8_321
*8564 FILLER_0_8_333
*8565 FILLER_0_8_337
*8566 FILLER_0_8_349
*8567 FILLER_0_8_361
*8568 FILLER_0_8_365
*8569 FILLER_0_8_377
*8570 FILLER_0_8_389
*8571 FILLER_0_8_393
*8572 FILLER_0_8_405
*8573 FILLER_0_8_41
*8574 FILLER_0_8_417
*8575 FILLER_0_8_421
*8576 FILLER_0_8_433
*8577 FILLER_0_8_445
*8578 FILLER_0_8_449
*8579 FILLER_0_8_461
*8580 FILLER_0_8_473
*8581 FILLER_0_8_477
*8582 FILLER_0_8_489
*8583 FILLER_0_8_501
*8584 FILLER_0_8_505
*8585 FILLER_0_8_517
*8586 FILLER_0_8_529
*8587 FILLER_0_8_53
*8588 FILLER_0_8_533
*8589 FILLER_0_8_545
*8590 FILLER_0_8_557
*8591 FILLER_0_8_561
*8592 FILLER_0_8_57
*8593 FILLER_0_8_573
*8594 FILLER_0_8_585
*8595 FILLER_0_8_589
*8596 FILLER_0_8_601
*8597 FILLER_0_8_613
*8598 FILLER_0_8_617
*8599 FILLER_0_8_625
*8600 FILLER_0_8_635
*8601 FILLER_0_8_643
*8602 FILLER_0_8_645
*8603 FILLER_0_8_657
*8604 FILLER_0_8_669
*8605 FILLER_0_8_673
*8606 FILLER_0_8_685
*8607 FILLER_0_8_69
*8608 FILLER_0_8_697
*8609 FILLER_0_8_701
*8610 FILLER_0_8_713
*8611 FILLER_0_8_725
*8612 FILLER_0_8_729
*8613 FILLER_0_8_741
*8614 FILLER_0_8_749
*8615 FILLER_0_8_755
*8616 FILLER_0_8_757
*8617 FILLER_0_8_769
*8618 FILLER_0_8_781
*8619 FILLER_0_8_785
*8620 FILLER_0_8_789
*8621 FILLER_0_8_800
*8622 FILLER_0_8_81
*8623 FILLER_0_8_813
*8624 FILLER_0_8_825
*8625 FILLER_0_8_836
*8626 FILLER_0_8_841
*8627 FILLER_0_8_85
*8628 FILLER_0_8_853
*8629 FILLER_0_8_865
*8630 FILLER_0_8_869
*8631 FILLER_0_8_881
*8632 FILLER_0_8_893
*8633 FILLER_0_8_897
*8634 FILLER_0_8_909
*8635 FILLER_0_8_921
*8636 FILLER_0_8_925
*8637 FILLER_0_8_937
*8638 FILLER_0_8_949
*8639 FILLER_0_8_953
*8640 FILLER_0_8_965
*8641 FILLER_0_8_97
*8642 FILLER_0_8_977
*8643 FILLER_0_8_997
*8644 FILLER_0_90_1467
*8645 FILLER_0_90_1471
*8646 FILLER_0_90_1475
*8647 FILLER_0_90_1479
*8648 FILLER_0_90_1487
*8649 FILLER_0_90_1490
*8650 FILLER_0_90_1502
*8651 FILLER_0_90_1506
*8652 FILLER_0_90_706
*8653 FILLER_0_90_710
*8654 FILLER_0_90_722
*8655 FILLER_0_90_729
*8656 FILLER_0_90_741
*8657 FILLER_0_91_1464
*8658 FILLER_0_91_1468
*8659 FILLER_0_91_1472
*8660 FILLER_0_91_1484
*8661 FILLER_0_91_1496
*8662 FILLER_0_91_1504
*8663 FILLER_0_91_703
*8664 FILLER_0_91_715
*8665 FILLER_0_91_727
*8666 FILLER_0_91_739
*8667 FILLER_0_92_1464
*8668 FILLER_0_92_1476
*8669 FILLER_0_92_1488
*8670 FILLER_0_92_1490
*8671 FILLER_0_92_1502
*8672 FILLER_0_92_1506
*8673 FILLER_0_92_703
*8674 FILLER_0_92_715
*8675 FILLER_0_92_727
*8676 FILLER_0_92_729
*8677 FILLER_0_92_741
*8678 FILLER_0_93_1464
*8679 FILLER_0_93_1468
*8680 FILLER_0_93_1472
*8681 FILLER_0_93_1484
*8682 FILLER_0_93_1496
*8683 FILLER_0_93_1504
*8684 FILLER_0_93_703
*8685 FILLER_0_93_707
*8686 FILLER_0_93_719
*8687 FILLER_0_93_731
*8688 FILLER_0_93_743
*8689 FILLER_0_94_1470
*8690 FILLER_0_94_1474
*8691 FILLER_0_94_1478
*8692 FILLER_0_94_1486
*8693 FILLER_0_94_1490
*8694 FILLER_0_94_1502
*8695 FILLER_0_94_1506
*8696 FILLER_0_94_709
*8697 FILLER_0_94_721
*8698 FILLER_0_94_727
*8699 FILLER_0_94_729
*8700 FILLER_0_94_741
*8701 FILLER_0_95_1464
*8702 FILLER_0_95_1468
*8703 FILLER_0_95_1472
*8704 FILLER_0_95_1484
*8705 FILLER_0_95_1496
*8706 FILLER_0_95_1504
*8707 FILLER_0_95_703
*8708 FILLER_0_95_715
*8709 FILLER_0_95_727
*8710 FILLER_0_95_739
*8711 FILLER_0_96_1464
*8712 FILLER_0_96_1476
*8713 FILLER_0_96_1488
*8714 FILLER_0_96_1490
*8715 FILLER_0_96_1502
*8716 FILLER_0_96_1506
*8717 FILLER_0_96_703
*8718 FILLER_0_96_715
*8719 FILLER_0_96_727
*8720 FILLER_0_96_729
*8721 FILLER_0_96_741
*8722 FILLER_0_97_1464
*8723 FILLER_0_97_1468
*8724 FILLER_0_97_1472
*8725 FILLER_0_97_1484
*8726 FILLER_0_97_1496
*8727 FILLER_0_97_1504
*8728 FILLER_0_97_703
*8729 FILLER_0_97_715
*8730 FILLER_0_97_727
*8731 FILLER_0_97_739
*8732 FILLER_0_98_1464
*8733 FILLER_0_98_1468
*8734 FILLER_0_98_1472
*8735 FILLER_0_98_1476
*8736 FILLER_0_98_1488
*8737 FILLER_0_98_1490
*8738 FILLER_0_98_1502
*8739 FILLER_0_98_1506
*8740 FILLER_0_98_703
*8741 FILLER_0_98_707
*8742 FILLER_0_98_719
*8743 FILLER_0_98_727
*8744 FILLER_0_98_729
*8745 FILLER_0_98_741
*8746 FILLER_0_99_1464
*8747 FILLER_0_99_1468
*8748 FILLER_0_99_1480
*8749 FILLER_0_99_1492
*8750 FILLER_0_99_1504
*8751 FILLER_0_99_703
*8752 FILLER_0_99_715
*8753 FILLER_0_99_727
*8754 FILLER_0_99_739
*8755 FILLER_0_9_1464
*8756 FILLER_0_9_1476
*8757 FILLER_0_9_1488
*8758 FILLER_0_9_1500
*8759 FILLER_0_9_1506
*8760 FILLER_0_9_703
*8761 FILLER_0_9_715
*8762 FILLER_0_9_727
*8763 FILLER_0_9_739
*8764 PHY_EDGE_ROW_0_Left_312
*8765 PHY_EDGE_ROW_0_Right_321
*8766 PHY_EDGE_ROW_100_2_Left_252
*8767 PHY_EDGE_ROW_100_2_Right_896
*8768 PHY_EDGE_ROW_100_3_Left_747
*8769 PHY_EDGE_ROW_100_3_Right_439
*8770 PHY_EDGE_ROW_101_2_Left_253
*8771 PHY_EDGE_ROW_101_2_Right_897
*8772 PHY_EDGE_ROW_101_3_Left_748
*8773 PHY_EDGE_ROW_101_3_Right_440
*8774 PHY_EDGE_ROW_102_2_Left_254
*8775 PHY_EDGE_ROW_102_2_Right_898
*8776 PHY_EDGE_ROW_102_3_Left_749
*8777 PHY_EDGE_ROW_102_3_Right_441
*8778 PHY_EDGE_ROW_103_2_Left_255
*8779 PHY_EDGE_ROW_103_2_Right_899
*8780 PHY_EDGE_ROW_103_3_Left_750
*8781 PHY_EDGE_ROW_103_3_Right_442
*8782 PHY_EDGE_ROW_104_2_Left_256
*8783 PHY_EDGE_ROW_104_2_Right_900
*8784 PHY_EDGE_ROW_104_3_Left_751
*8785 PHY_EDGE_ROW_104_3_Right_443
*8786 PHY_EDGE_ROW_105_2_Left_257
*8787 PHY_EDGE_ROW_105_2_Right_901
*8788 PHY_EDGE_ROW_105_3_Left_752
*8789 PHY_EDGE_ROW_105_3_Right_444
*8790 PHY_EDGE_ROW_106_2_Left_258
*8791 PHY_EDGE_ROW_106_2_Right_902
*8792 PHY_EDGE_ROW_106_3_Left_753
*8793 PHY_EDGE_ROW_106_3_Right_445
*8794 PHY_EDGE_ROW_107_2_Left_259
*8795 PHY_EDGE_ROW_107_2_Right_903
*8796 PHY_EDGE_ROW_107_3_Left_754
*8797 PHY_EDGE_ROW_107_3_Right_446
*8798 PHY_EDGE_ROW_108_2_Left_260
*8799 PHY_EDGE_ROW_108_2_Right_904
*8800 PHY_EDGE_ROW_108_3_Left_755
*8801 PHY_EDGE_ROW_108_3_Right_447
*8802 PHY_EDGE_ROW_109_2_Left_261
*8803 PHY_EDGE_ROW_109_2_Right_905
*8804 PHY_EDGE_ROW_109_3_Left_756
*8805 PHY_EDGE_ROW_109_3_Right_448
*8806 PHY_EDGE_ROW_10_2_Left_162
*8807 PHY_EDGE_ROW_10_2_Right_806
*8808 PHY_EDGE_ROW_10_3_Left_657
*8809 PHY_EDGE_ROW_10_3_Right_349
*8810 PHY_EDGE_ROW_110_2_Left_262
*8811 PHY_EDGE_ROW_110_2_Right_906
*8812 PHY_EDGE_ROW_110_3_Left_757
*8813 PHY_EDGE_ROW_110_3_Right_449
*8814 PHY_EDGE_ROW_111_2_Left_263
*8815 PHY_EDGE_ROW_111_2_Right_907
*8816 PHY_EDGE_ROW_111_3_Left_758
*8817 PHY_EDGE_ROW_111_3_Right_450
*8818 PHY_EDGE_ROW_112_2_Left_264
*8819 PHY_EDGE_ROW_112_2_Right_908
*8820 PHY_EDGE_ROW_112_3_Left_759
*8821 PHY_EDGE_ROW_112_3_Right_451
*8822 PHY_EDGE_ROW_113_2_Left_265
*8823 PHY_EDGE_ROW_113_2_Right_909
*8824 PHY_EDGE_ROW_113_3_Left_760
*8825 PHY_EDGE_ROW_113_3_Right_452
*8826 PHY_EDGE_ROW_114_2_Left_266
*8827 PHY_EDGE_ROW_114_2_Right_910
*8828 PHY_EDGE_ROW_114_3_Left_761
*8829 PHY_EDGE_ROW_114_3_Right_453
*8830 PHY_EDGE_ROW_115_2_Left_267
*8831 PHY_EDGE_ROW_115_2_Right_911
*8832 PHY_EDGE_ROW_115_3_Left_762
*8833 PHY_EDGE_ROW_115_3_Right_454
*8834 PHY_EDGE_ROW_116_2_Left_268
*8835 PHY_EDGE_ROW_116_2_Right_912
*8836 PHY_EDGE_ROW_116_3_Left_763
*8837 PHY_EDGE_ROW_116_3_Right_455
*8838 PHY_EDGE_ROW_117_2_Left_269
*8839 PHY_EDGE_ROW_117_2_Right_913
*8840 PHY_EDGE_ROW_117_3_Left_764
*8841 PHY_EDGE_ROW_117_3_Right_456
*8842 PHY_EDGE_ROW_118_2_Left_270
*8843 PHY_EDGE_ROW_118_2_Right_914
*8844 PHY_EDGE_ROW_118_3_Left_765
*8845 PHY_EDGE_ROW_118_3_Right_457
*8846 PHY_EDGE_ROW_119_2_Left_271
*8847 PHY_EDGE_ROW_119_2_Right_915
*8848 PHY_EDGE_ROW_119_3_Left_766
*8849 PHY_EDGE_ROW_119_3_Right_458
*8850 PHY_EDGE_ROW_11_2_Left_163
*8851 PHY_EDGE_ROW_11_2_Right_807
*8852 PHY_EDGE_ROW_11_3_Left_658
*8853 PHY_EDGE_ROW_11_3_Right_350
*8854 PHY_EDGE_ROW_120_2_Left_272
*8855 PHY_EDGE_ROW_120_2_Right_916
*8856 PHY_EDGE_ROW_120_3_Left_767
*8857 PHY_EDGE_ROW_120_3_Right_459
*8858 PHY_EDGE_ROW_121_2_Left_273
*8859 PHY_EDGE_ROW_121_2_Right_917
*8860 PHY_EDGE_ROW_121_3_Left_768
*8861 PHY_EDGE_ROW_121_3_Right_460
*8862 PHY_EDGE_ROW_122_2_Left_274
*8863 PHY_EDGE_ROW_122_2_Right_918
*8864 PHY_EDGE_ROW_122_3_Left_769
*8865 PHY_EDGE_ROW_122_3_Right_461
*8866 PHY_EDGE_ROW_123_2_Left_275
*8867 PHY_EDGE_ROW_123_2_Right_919
*8868 PHY_EDGE_ROW_123_3_Left_770
*8869 PHY_EDGE_ROW_123_3_Right_462
*8870 PHY_EDGE_ROW_124_2_Left_276
*8871 PHY_EDGE_ROW_124_2_Right_920
*8872 PHY_EDGE_ROW_124_3_Left_771
*8873 PHY_EDGE_ROW_124_3_Right_463
*8874 PHY_EDGE_ROW_125_2_Left_277
*8875 PHY_EDGE_ROW_125_2_Right_921
*8876 PHY_EDGE_ROW_125_3_Left_772
*8877 PHY_EDGE_ROW_125_3_Right_464
*8878 PHY_EDGE_ROW_126_2_Left_278
*8879 PHY_EDGE_ROW_126_2_Right_922
*8880 PHY_EDGE_ROW_126_3_Left_773
*8881 PHY_EDGE_ROW_126_3_Right_465
*8882 PHY_EDGE_ROW_127_2_Left_279
*8883 PHY_EDGE_ROW_127_2_Right_923
*8884 PHY_EDGE_ROW_127_3_Left_774
*8885 PHY_EDGE_ROW_127_3_Right_466
*8886 PHY_EDGE_ROW_128_2_Left_280
*8887 PHY_EDGE_ROW_128_2_Right_924
*8888 PHY_EDGE_ROW_128_3_Left_775
*8889 PHY_EDGE_ROW_128_3_Right_467
*8890 PHY_EDGE_ROW_129_2_Left_281
*8891 PHY_EDGE_ROW_129_2_Right_925
*8892 PHY_EDGE_ROW_129_3_Left_776
*8893 PHY_EDGE_ROW_129_3_Right_468
*8894 PHY_EDGE_ROW_12_2_Left_164
*8895 PHY_EDGE_ROW_12_2_Right_808
*8896 PHY_EDGE_ROW_12_3_Left_659
*8897 PHY_EDGE_ROW_12_3_Right_351
*8898 PHY_EDGE_ROW_130_2_Left_282
*8899 PHY_EDGE_ROW_130_2_Right_926
*8900 PHY_EDGE_ROW_130_3_Left_777
*8901 PHY_EDGE_ROW_130_3_Right_469
*8902 PHY_EDGE_ROW_131_2_Left_283
*8903 PHY_EDGE_ROW_131_2_Right_927
*8904 PHY_EDGE_ROW_131_3_Left_778
*8905 PHY_EDGE_ROW_131_3_Right_470
*8906 PHY_EDGE_ROW_132_2_Left_284
*8907 PHY_EDGE_ROW_132_2_Right_928
*8908 PHY_EDGE_ROW_132_3_Left_779
*8909 PHY_EDGE_ROW_132_3_Right_471
*8910 PHY_EDGE_ROW_133_2_Left_285
*8911 PHY_EDGE_ROW_133_2_Right_929
*8912 PHY_EDGE_ROW_133_3_Left_780
*8913 PHY_EDGE_ROW_133_3_Right_472
*8914 PHY_EDGE_ROW_134_2_Left_286
*8915 PHY_EDGE_ROW_134_2_Right_930
*8916 PHY_EDGE_ROW_134_3_Left_781
*8917 PHY_EDGE_ROW_134_3_Right_473
*8918 PHY_EDGE_ROW_135_2_Left_287
*8919 PHY_EDGE_ROW_135_2_Right_931
*8920 PHY_EDGE_ROW_135_3_Left_782
*8921 PHY_EDGE_ROW_135_3_Right_474
*8922 PHY_EDGE_ROW_136_2_Left_288
*8923 PHY_EDGE_ROW_136_2_Right_932
*8924 PHY_EDGE_ROW_136_3_Left_783
*8925 PHY_EDGE_ROW_136_3_Right_475
*8926 PHY_EDGE_ROW_137_2_Left_289
*8927 PHY_EDGE_ROW_137_2_Right_933
*8928 PHY_EDGE_ROW_137_3_Left_784
*8929 PHY_EDGE_ROW_137_3_Right_476
*8930 PHY_EDGE_ROW_138_2_Left_290
*8931 PHY_EDGE_ROW_138_2_Right_934
*8932 PHY_EDGE_ROW_138_3_Left_785
*8933 PHY_EDGE_ROW_138_3_Right_477
*8934 PHY_EDGE_ROW_139_2_Left_291
*8935 PHY_EDGE_ROW_139_2_Right_935
*8936 PHY_EDGE_ROW_139_3_Left_786
*8937 PHY_EDGE_ROW_139_3_Right_478
*8938 PHY_EDGE_ROW_13_2_Left_165
*8939 PHY_EDGE_ROW_13_2_Right_809
*8940 PHY_EDGE_ROW_13_3_Left_660
*8941 PHY_EDGE_ROW_13_3_Right_352
*8942 PHY_EDGE_ROW_140_2_Left_292
*8943 PHY_EDGE_ROW_140_2_Right_936
*8944 PHY_EDGE_ROW_140_3_Left_787
*8945 PHY_EDGE_ROW_140_3_Right_479
*8946 PHY_EDGE_ROW_141_2_Left_293
*8947 PHY_EDGE_ROW_141_2_Right_937
*8948 PHY_EDGE_ROW_141_3_Left_788
*8949 PHY_EDGE_ROW_141_3_Right_480
*8950 PHY_EDGE_ROW_142_2_Left_294
*8951 PHY_EDGE_ROW_142_2_Right_938
*8952 PHY_EDGE_ROW_142_3_Left_789
*8953 PHY_EDGE_ROW_142_3_Right_481
*8954 PHY_EDGE_ROW_143_2_Left_295
*8955 PHY_EDGE_ROW_143_2_Right_939
*8956 PHY_EDGE_ROW_143_3_Left_790
*8957 PHY_EDGE_ROW_143_3_Right_482
*8958 PHY_EDGE_ROW_144_2_Left_296
*8959 PHY_EDGE_ROW_144_2_Right_940
*8960 PHY_EDGE_ROW_144_3_Left_791
*8961 PHY_EDGE_ROW_144_3_Right_483
*8962 PHY_EDGE_ROW_145_2_Left_297
*8963 PHY_EDGE_ROW_145_2_Right_941
*8964 PHY_EDGE_ROW_145_3_Left_792
*8965 PHY_EDGE_ROW_145_3_Right_484
*8966 PHY_EDGE_ROW_146_2_Left_298
*8967 PHY_EDGE_ROW_146_2_Right_942
*8968 PHY_EDGE_ROW_146_3_Left_793
*8969 PHY_EDGE_ROW_146_3_Right_485
*8970 PHY_EDGE_ROW_147_2_Left_299
*8971 PHY_EDGE_ROW_147_2_Right_943
*8972 PHY_EDGE_ROW_147_3_Left_794
*8973 PHY_EDGE_ROW_147_3_Right_486
*8974 PHY_EDGE_ROW_148_2_Left_300
*8975 PHY_EDGE_ROW_148_2_Right_944
*8976 PHY_EDGE_ROW_148_3_Left_795
*8977 PHY_EDGE_ROW_148_3_Right_487
*8978 PHY_EDGE_ROW_149_2_Left_301
*8979 PHY_EDGE_ROW_149_2_Right_945
*8980 PHY_EDGE_ROW_149_3_Left_796
*8981 PHY_EDGE_ROW_149_3_Right_488
*8982 PHY_EDGE_ROW_14_2_Left_166
*8983 PHY_EDGE_ROW_14_2_Right_810
*8984 PHY_EDGE_ROW_14_3_Left_661
*8985 PHY_EDGE_ROW_14_3_Right_353
*8986 PHY_EDGE_ROW_150_2_Left_302
*8987 PHY_EDGE_ROW_150_2_Right_946
*8988 PHY_EDGE_ROW_150_3_Left_797
*8989 PHY_EDGE_ROW_150_3_Right_489
*8990 PHY_EDGE_ROW_151_2_Left_303
*8991 PHY_EDGE_ROW_151_2_Right_947
*8992 PHY_EDGE_ROW_151_3_Left_798
*8993 PHY_EDGE_ROW_151_3_Right_490
*8994 PHY_EDGE_ROW_152_2_Left_304
*8995 PHY_EDGE_ROW_152_2_Right_948
*8996 PHY_EDGE_ROW_152_3_Left_799
*8997 PHY_EDGE_ROW_152_3_Right_491
*8998 PHY_EDGE_ROW_153_2_Left_305
*8999 PHY_EDGE_ROW_153_2_Right_949
*9000 PHY_EDGE_ROW_153_3_Left_800
*9001 PHY_EDGE_ROW_153_3_Right_492
*9002 PHY_EDGE_ROW_154_2_Left_306
*9003 PHY_EDGE_ROW_154_2_Right_950
*9004 PHY_EDGE_ROW_154_3_Left_801
*9005 PHY_EDGE_ROW_154_3_Right_493
*9006 PHY_EDGE_ROW_155_2_Left_307
*9007 PHY_EDGE_ROW_155_2_Right_951
*9008 PHY_EDGE_ROW_155_3_Left_802
*9009 PHY_EDGE_ROW_155_3_Right_494
*9010 PHY_EDGE_ROW_156_2_Left_308
*9011 PHY_EDGE_ROW_156_2_Right_952
*9012 PHY_EDGE_ROW_156_3_Left_803
*9013 PHY_EDGE_ROW_156_3_Right_495
*9014 PHY_EDGE_ROW_157_2_Left_309
*9015 PHY_EDGE_ROW_157_2_Right_953
*9016 PHY_EDGE_ROW_157_3_Left_804
*9017 PHY_EDGE_ROW_157_3_Right_496
*9018 PHY_EDGE_ROW_158_2_Left_310
*9019 PHY_EDGE_ROW_158_2_Right_954
*9020 PHY_EDGE_ROW_158_3_Left_805
*9021 PHY_EDGE_ROW_158_3_Right_497
*9022 PHY_EDGE_ROW_159_Left_151
*9023 PHY_EDGE_ROW_159_Right_330
*9024 PHY_EDGE_ROW_15_2_Left_167
*9025 PHY_EDGE_ROW_15_2_Right_811
*9026 PHY_EDGE_ROW_15_3_Left_662
*9027 PHY_EDGE_ROW_15_3_Right_354
*9028 PHY_EDGE_ROW_160_Left_152
*9029 PHY_EDGE_ROW_160_Right_331
*9030 PHY_EDGE_ROW_161_Left_153
*9031 PHY_EDGE_ROW_161_Right_332
*9032 PHY_EDGE_ROW_162_Left_154
*9033 PHY_EDGE_ROW_162_Right_333
*9034 PHY_EDGE_ROW_163_Left_155
*9035 PHY_EDGE_ROW_163_Right_334
*9036 PHY_EDGE_ROW_164_Left_156
*9037 PHY_EDGE_ROW_164_Right_335
*9038 PHY_EDGE_ROW_165_Left_157
*9039 PHY_EDGE_ROW_165_Right_336
*9040 PHY_EDGE_ROW_166_Left_158
*9041 PHY_EDGE_ROW_166_Right_337
*9042 PHY_EDGE_ROW_167_Left_159
*9043 PHY_EDGE_ROW_167_Right_338
*9044 PHY_EDGE_ROW_168_Left_160
*9045 PHY_EDGE_ROW_168_Right_339
*9046 PHY_EDGE_ROW_169_Left_161
*9047 PHY_EDGE_ROW_169_Right_340
*9048 PHY_EDGE_ROW_16_2_Left_168
*9049 PHY_EDGE_ROW_16_2_Right_812
*9050 PHY_EDGE_ROW_16_3_Left_663
*9051 PHY_EDGE_ROW_16_3_Right_355
*9052 PHY_EDGE_ROW_170_2_Left_0
*9053 PHY_EDGE_ROW_170_2_Right_1107
*9054 PHY_EDGE_ROW_170_3_Left_956
*9055 PHY_EDGE_ROW_170_3_Right_498
*9056 PHY_EDGE_ROW_171_2_Left_1
*9057 PHY_EDGE_ROW_171_2_Right_1108
*9058 PHY_EDGE_ROW_171_3_Left_957
*9059 PHY_EDGE_ROW_171_3_Right_499
*9060 PHY_EDGE_ROW_172_2_Left_2
*9061 PHY_EDGE_ROW_172_2_Right_1109
*9062 PHY_EDGE_ROW_172_3_Left_958
*9063 PHY_EDGE_ROW_172_3_Right_500
*9064 PHY_EDGE_ROW_173_2_Left_3
*9065 PHY_EDGE_ROW_173_2_Right_1110
*9066 PHY_EDGE_ROW_173_3_Left_959
*9067 PHY_EDGE_ROW_173_3_Right_501
*9068 PHY_EDGE_ROW_174_2_Left_4
*9069 PHY_EDGE_ROW_174_2_Right_1111
*9070 PHY_EDGE_ROW_174_3_Left_960
*9071 PHY_EDGE_ROW_174_3_Right_502
*9072 PHY_EDGE_ROW_175_2_Left_5
*9073 PHY_EDGE_ROW_175_2_Right_1112
*9074 PHY_EDGE_ROW_175_3_Left_961
*9075 PHY_EDGE_ROW_175_3_Right_503
*9076 PHY_EDGE_ROW_176_2_Left_6
*9077 PHY_EDGE_ROW_176_2_Right_1113
*9078 PHY_EDGE_ROW_176_3_Left_962
*9079 PHY_EDGE_ROW_176_3_Right_504
*9080 PHY_EDGE_ROW_177_2_Left_7
*9081 PHY_EDGE_ROW_177_2_Right_1114
*9082 PHY_EDGE_ROW_177_3_Left_963
*9083 PHY_EDGE_ROW_177_3_Right_505
*9084 PHY_EDGE_ROW_178_2_Left_8
*9085 PHY_EDGE_ROW_178_2_Right_1115
*9086 PHY_EDGE_ROW_178_3_Left_964
*9087 PHY_EDGE_ROW_178_3_Right_506
*9088 PHY_EDGE_ROW_179_2_Left_9
*9089 PHY_EDGE_ROW_179_2_Right_1116
*9090 PHY_EDGE_ROW_179_3_Left_965
*9091 PHY_EDGE_ROW_179_3_Right_507
*9092 PHY_EDGE_ROW_17_2_Left_169
*9093 PHY_EDGE_ROW_17_2_Right_813
*9094 PHY_EDGE_ROW_17_3_Left_664
*9095 PHY_EDGE_ROW_17_3_Right_356
*9096 PHY_EDGE_ROW_180_2_Left_10
*9097 PHY_EDGE_ROW_180_2_Right_1117
*9098 PHY_EDGE_ROW_180_3_Left_966
*9099 PHY_EDGE_ROW_180_3_Right_508
*9100 PHY_EDGE_ROW_181_2_Left_11
*9101 PHY_EDGE_ROW_181_2_Right_1118
*9102 PHY_EDGE_ROW_181_3_Left_967
*9103 PHY_EDGE_ROW_181_3_Right_509
*9104 PHY_EDGE_ROW_182_2_Left_12
*9105 PHY_EDGE_ROW_182_2_Right_1119
*9106 PHY_EDGE_ROW_182_3_Left_968
*9107 PHY_EDGE_ROW_182_3_Right_510
*9108 PHY_EDGE_ROW_183_2_Left_13
*9109 PHY_EDGE_ROW_183_2_Right_1120
*9110 PHY_EDGE_ROW_183_3_Left_969
*9111 PHY_EDGE_ROW_183_3_Right_511
*9112 PHY_EDGE_ROW_184_2_Left_14
*9113 PHY_EDGE_ROW_184_2_Right_1121
*9114 PHY_EDGE_ROW_184_3_Left_970
*9115 PHY_EDGE_ROW_184_3_Right_512
*9116 PHY_EDGE_ROW_185_2_Left_15
*9117 PHY_EDGE_ROW_185_2_Right_1122
*9118 PHY_EDGE_ROW_185_3_Left_971
*9119 PHY_EDGE_ROW_185_3_Right_513
*9120 PHY_EDGE_ROW_186_2_Left_16
*9121 PHY_EDGE_ROW_186_2_Right_1123
*9122 PHY_EDGE_ROW_186_3_Left_972
*9123 PHY_EDGE_ROW_186_3_Right_514
*9124 PHY_EDGE_ROW_187_2_Left_17
*9125 PHY_EDGE_ROW_187_2_Right_1124
*9126 PHY_EDGE_ROW_187_3_Left_973
*9127 PHY_EDGE_ROW_187_3_Right_515
*9128 PHY_EDGE_ROW_188_2_Left_18
*9129 PHY_EDGE_ROW_188_2_Right_1125
*9130 PHY_EDGE_ROW_188_3_Left_974
*9131 PHY_EDGE_ROW_188_3_Right_516
*9132 PHY_EDGE_ROW_189_2_Left_19
*9133 PHY_EDGE_ROW_189_2_Right_1126
*9134 PHY_EDGE_ROW_189_3_Left_975
*9135 PHY_EDGE_ROW_189_3_Right_517
*9136 PHY_EDGE_ROW_18_2_Left_170
*9137 PHY_EDGE_ROW_18_2_Right_814
*9138 PHY_EDGE_ROW_18_3_Left_665
*9139 PHY_EDGE_ROW_18_3_Right_357
*9140 PHY_EDGE_ROW_190_2_Left_20
*9141 PHY_EDGE_ROW_190_2_Right_1127
*9142 PHY_EDGE_ROW_190_3_Left_976
*9143 PHY_EDGE_ROW_190_3_Right_518
*9144 PHY_EDGE_ROW_191_2_Left_21
*9145 PHY_EDGE_ROW_191_2_Right_1128
*9146 PHY_EDGE_ROW_191_3_Left_977
*9147 PHY_EDGE_ROW_191_3_Right_519
*9148 PHY_EDGE_ROW_192_2_Left_22
*9149 PHY_EDGE_ROW_192_2_Right_1129
*9150 PHY_EDGE_ROW_192_3_Left_978
*9151 PHY_EDGE_ROW_192_3_Right_520
*9152 PHY_EDGE_ROW_193_2_Left_23
*9153 PHY_EDGE_ROW_193_2_Right_1130
*9154 PHY_EDGE_ROW_193_3_Left_979
*9155 PHY_EDGE_ROW_193_3_Right_521
*9156 PHY_EDGE_ROW_194_2_Left_24
*9157 PHY_EDGE_ROW_194_2_Right_1131
*9158 PHY_EDGE_ROW_194_3_Left_980
*9159 PHY_EDGE_ROW_194_3_Right_522
*9160 PHY_EDGE_ROW_195_2_Left_25
*9161 PHY_EDGE_ROW_195_2_Right_1132
*9162 PHY_EDGE_ROW_195_3_Left_981
*9163 PHY_EDGE_ROW_195_3_Right_523
*9164 PHY_EDGE_ROW_196_2_Left_26
*9165 PHY_EDGE_ROW_196_2_Right_1133
*9166 PHY_EDGE_ROW_196_3_Left_982
*9167 PHY_EDGE_ROW_196_3_Right_524
*9168 PHY_EDGE_ROW_197_2_Left_27
*9169 PHY_EDGE_ROW_197_2_Right_1134
*9170 PHY_EDGE_ROW_197_3_Left_983
*9171 PHY_EDGE_ROW_197_3_Right_525
*9172 PHY_EDGE_ROW_198_2_Left_28
*9173 PHY_EDGE_ROW_198_2_Right_1135
*9174 PHY_EDGE_ROW_198_3_Left_984
*9175 PHY_EDGE_ROW_198_3_Right_526
*9176 PHY_EDGE_ROW_199_2_Left_29
*9177 PHY_EDGE_ROW_199_2_Right_1136
*9178 PHY_EDGE_ROW_199_3_Left_985
*9179 PHY_EDGE_ROW_199_3_Right_527
*9180 PHY_EDGE_ROW_19_2_Left_171
*9181 PHY_EDGE_ROW_19_2_Right_815
*9182 PHY_EDGE_ROW_19_3_Left_666
*9183 PHY_EDGE_ROW_19_3_Right_358
*9184 PHY_EDGE_ROW_1_Left_313
*9185 PHY_EDGE_ROW_1_Right_322
*9186 PHY_EDGE_ROW_200_2_Left_30
*9187 PHY_EDGE_ROW_200_2_Right_1137
*9188 PHY_EDGE_ROW_200_3_Left_986
*9189 PHY_EDGE_ROW_200_3_Right_528
*9190 PHY_EDGE_ROW_201_2_Left_31
*9191 PHY_EDGE_ROW_201_2_Right_1138
*9192 PHY_EDGE_ROW_201_3_Left_987
*9193 PHY_EDGE_ROW_201_3_Right_529
*9194 PHY_EDGE_ROW_202_2_Left_32
*9195 PHY_EDGE_ROW_202_2_Right_1139
*9196 PHY_EDGE_ROW_202_3_Left_988
*9197 PHY_EDGE_ROW_202_3_Right_530
*9198 PHY_EDGE_ROW_203_2_Left_33
*9199 PHY_EDGE_ROW_203_2_Right_1140
*9200 PHY_EDGE_ROW_203_3_Left_989
*9201 PHY_EDGE_ROW_203_3_Right_531
*9202 PHY_EDGE_ROW_204_2_Left_34
*9203 PHY_EDGE_ROW_204_2_Right_1141
*9204 PHY_EDGE_ROW_204_3_Left_990
*9205 PHY_EDGE_ROW_204_3_Right_532
*9206 PHY_EDGE_ROW_205_2_Left_35
*9207 PHY_EDGE_ROW_205_2_Right_1142
*9208 PHY_EDGE_ROW_205_3_Left_991
*9209 PHY_EDGE_ROW_205_3_Right_533
*9210 PHY_EDGE_ROW_206_2_Left_36
*9211 PHY_EDGE_ROW_206_2_Right_1143
*9212 PHY_EDGE_ROW_206_3_Left_992
*9213 PHY_EDGE_ROW_206_3_Right_534
*9214 PHY_EDGE_ROW_207_2_Left_37
*9215 PHY_EDGE_ROW_207_2_Right_1144
*9216 PHY_EDGE_ROW_207_3_Left_993
*9217 PHY_EDGE_ROW_207_3_Right_535
*9218 PHY_EDGE_ROW_208_2_Left_38
*9219 PHY_EDGE_ROW_208_2_Right_1145
*9220 PHY_EDGE_ROW_208_3_Left_994
*9221 PHY_EDGE_ROW_208_3_Right_536
*9222 PHY_EDGE_ROW_209_2_Left_39
*9223 PHY_EDGE_ROW_209_2_Right_1146
*9224 PHY_EDGE_ROW_209_3_Left_995
*9225 PHY_EDGE_ROW_209_3_Right_537
*9226 PHY_EDGE_ROW_20_2_Left_172
*9227 PHY_EDGE_ROW_20_2_Right_816
*9228 PHY_EDGE_ROW_20_3_Left_667
*9229 PHY_EDGE_ROW_20_3_Right_359
*9230 PHY_EDGE_ROW_210_2_Left_40
*9231 PHY_EDGE_ROW_210_2_Right_1147
*9232 PHY_EDGE_ROW_210_3_Left_996
*9233 PHY_EDGE_ROW_210_3_Right_538
*9234 PHY_EDGE_ROW_211_2_Left_41
*9235 PHY_EDGE_ROW_211_2_Right_1148
*9236 PHY_EDGE_ROW_211_3_Left_997
*9237 PHY_EDGE_ROW_211_3_Right_539
*9238 PHY_EDGE_ROW_212_2_Left_42
*9239 PHY_EDGE_ROW_212_2_Right_1149
*9240 PHY_EDGE_ROW_212_3_Left_998
*9241 PHY_EDGE_ROW_212_3_Right_540
*9242 PHY_EDGE_ROW_213_2_Left_43
*9243 PHY_EDGE_ROW_213_2_Right_1150
*9244 PHY_EDGE_ROW_213_3_Left_999
*9245 PHY_EDGE_ROW_213_3_Right_541
*9246 PHY_EDGE_ROW_214_2_Left_44
*9247 PHY_EDGE_ROW_214_2_Right_1151
*9248 PHY_EDGE_ROW_214_3_Left_1000
*9249 PHY_EDGE_ROW_214_3_Right_542
*9250 PHY_EDGE_ROW_215_2_Left_45
*9251 PHY_EDGE_ROW_215_2_Right_1152
*9252 PHY_EDGE_ROW_215_3_Left_1001
*9253 PHY_EDGE_ROW_215_3_Right_543
*9254 PHY_EDGE_ROW_216_2_Left_46
*9255 PHY_EDGE_ROW_216_2_Right_1153
*9256 PHY_EDGE_ROW_216_3_Left_1002
*9257 PHY_EDGE_ROW_216_3_Right_544
*9258 PHY_EDGE_ROW_217_2_Left_47
*9259 PHY_EDGE_ROW_217_2_Right_1154
*9260 PHY_EDGE_ROW_217_3_Left_1003
*9261 PHY_EDGE_ROW_217_3_Right_545
*9262 PHY_EDGE_ROW_218_2_Left_48
*9263 PHY_EDGE_ROW_218_2_Right_1155
*9264 PHY_EDGE_ROW_218_3_Left_1004
*9265 PHY_EDGE_ROW_218_3_Right_546
*9266 PHY_EDGE_ROW_219_2_Left_49
*9267 PHY_EDGE_ROW_219_2_Right_1156
*9268 PHY_EDGE_ROW_219_3_Left_1005
*9269 PHY_EDGE_ROW_219_3_Right_547
*9270 PHY_EDGE_ROW_21_2_Left_173
*9271 PHY_EDGE_ROW_21_2_Right_817
*9272 PHY_EDGE_ROW_21_3_Left_668
*9273 PHY_EDGE_ROW_21_3_Right_360
*9274 PHY_EDGE_ROW_220_2_Left_50
*9275 PHY_EDGE_ROW_220_2_Right_1157
*9276 PHY_EDGE_ROW_220_3_Left_1006
*9277 PHY_EDGE_ROW_220_3_Right_548
*9278 PHY_EDGE_ROW_221_2_Left_51
*9279 PHY_EDGE_ROW_221_2_Right_1158
*9280 PHY_EDGE_ROW_221_3_Left_1007
*9281 PHY_EDGE_ROW_221_3_Right_549
*9282 PHY_EDGE_ROW_222_2_Left_52
*9283 PHY_EDGE_ROW_222_2_Right_1159
*9284 PHY_EDGE_ROW_222_3_Left_1008
*9285 PHY_EDGE_ROW_222_3_Right_550
*9286 PHY_EDGE_ROW_223_2_Left_53
*9287 PHY_EDGE_ROW_223_2_Right_1160
*9288 PHY_EDGE_ROW_223_3_Left_1009
*9289 PHY_EDGE_ROW_223_3_Right_551
*9290 PHY_EDGE_ROW_224_2_Left_54
*9291 PHY_EDGE_ROW_224_2_Right_1161
*9292 PHY_EDGE_ROW_224_3_Left_1010
*9293 PHY_EDGE_ROW_224_3_Right_552
*9294 PHY_EDGE_ROW_225_2_Left_55
*9295 PHY_EDGE_ROW_225_2_Right_1162
*9296 PHY_EDGE_ROW_225_3_Left_1011
*9297 PHY_EDGE_ROW_225_3_Right_553
*9298 PHY_EDGE_ROW_226_2_Left_56
*9299 PHY_EDGE_ROW_226_2_Right_1163
*9300 PHY_EDGE_ROW_226_3_Left_1012
*9301 PHY_EDGE_ROW_226_3_Right_554
*9302 PHY_EDGE_ROW_227_2_Left_57
*9303 PHY_EDGE_ROW_227_2_Right_1164
*9304 PHY_EDGE_ROW_227_3_Left_1013
*9305 PHY_EDGE_ROW_227_3_Right_555
*9306 PHY_EDGE_ROW_228_2_Left_58
*9307 PHY_EDGE_ROW_228_2_Right_1165
*9308 PHY_EDGE_ROW_228_3_Left_1014
*9309 PHY_EDGE_ROW_228_3_Right_556
*9310 PHY_EDGE_ROW_229_2_Left_59
*9311 PHY_EDGE_ROW_229_2_Right_1166
*9312 PHY_EDGE_ROW_229_3_Left_1015
*9313 PHY_EDGE_ROW_229_3_Right_557
*9314 PHY_EDGE_ROW_22_2_Left_174
*9315 PHY_EDGE_ROW_22_2_Right_818
*9316 PHY_EDGE_ROW_22_3_Left_669
*9317 PHY_EDGE_ROW_22_3_Right_361
*9318 PHY_EDGE_ROW_230_2_Left_60
*9319 PHY_EDGE_ROW_230_2_Right_1167
*9320 PHY_EDGE_ROW_230_3_Left_1016
*9321 PHY_EDGE_ROW_230_3_Right_558
*9322 PHY_EDGE_ROW_231_2_Left_61
*9323 PHY_EDGE_ROW_231_2_Right_1168
*9324 PHY_EDGE_ROW_231_3_Left_1017
*9325 PHY_EDGE_ROW_231_3_Right_559
*9326 PHY_EDGE_ROW_232_2_Left_62
*9327 PHY_EDGE_ROW_232_2_Right_1169
*9328 PHY_EDGE_ROW_232_3_Left_1018
*9329 PHY_EDGE_ROW_232_3_Right_560
*9330 PHY_EDGE_ROW_233_2_Left_63
*9331 PHY_EDGE_ROW_233_2_Right_1170
*9332 PHY_EDGE_ROW_233_3_Left_1019
*9333 PHY_EDGE_ROW_233_3_Right_561
*9334 PHY_EDGE_ROW_234_2_Left_64
*9335 PHY_EDGE_ROW_234_2_Right_1171
*9336 PHY_EDGE_ROW_234_3_Left_1020
*9337 PHY_EDGE_ROW_234_3_Right_562
*9338 PHY_EDGE_ROW_235_2_Left_65
*9339 PHY_EDGE_ROW_235_2_Right_1172
*9340 PHY_EDGE_ROW_235_3_Left_1021
*9341 PHY_EDGE_ROW_235_3_Right_563
*9342 PHY_EDGE_ROW_236_2_Left_66
*9343 PHY_EDGE_ROW_236_2_Right_1173
*9344 PHY_EDGE_ROW_236_3_Left_1022
*9345 PHY_EDGE_ROW_236_3_Right_564
*9346 PHY_EDGE_ROW_237_2_Left_67
*9347 PHY_EDGE_ROW_237_2_Right_1174
*9348 PHY_EDGE_ROW_237_3_Left_1023
*9349 PHY_EDGE_ROW_237_3_Right_565
*9350 PHY_EDGE_ROW_238_2_Left_68
*9351 PHY_EDGE_ROW_238_2_Right_1175
*9352 PHY_EDGE_ROW_238_3_Left_1024
*9353 PHY_EDGE_ROW_238_3_Right_566
*9354 PHY_EDGE_ROW_239_2_Left_69
*9355 PHY_EDGE_ROW_239_2_Right_1176
*9356 PHY_EDGE_ROW_239_3_Left_1025
*9357 PHY_EDGE_ROW_239_3_Right_567
*9358 PHY_EDGE_ROW_23_2_Left_175
*9359 PHY_EDGE_ROW_23_2_Right_819
*9360 PHY_EDGE_ROW_23_3_Left_670
*9361 PHY_EDGE_ROW_23_3_Right_362
*9362 PHY_EDGE_ROW_240_2_Left_70
*9363 PHY_EDGE_ROW_240_2_Right_1177
*9364 PHY_EDGE_ROW_240_3_Left_1026
*9365 PHY_EDGE_ROW_240_3_Right_568
*9366 PHY_EDGE_ROW_241_2_Left_71
*9367 PHY_EDGE_ROW_241_2_Right_1178
*9368 PHY_EDGE_ROW_241_3_Left_1027
*9369 PHY_EDGE_ROW_241_3_Right_569
*9370 PHY_EDGE_ROW_242_2_Left_72
*9371 PHY_EDGE_ROW_242_2_Right_1179
*9372 PHY_EDGE_ROW_242_3_Left_1028
*9373 PHY_EDGE_ROW_242_3_Right_570
*9374 PHY_EDGE_ROW_243_2_Left_73
*9375 PHY_EDGE_ROW_243_2_Right_1180
*9376 PHY_EDGE_ROW_243_3_Left_1029
*9377 PHY_EDGE_ROW_243_3_Right_571
*9378 PHY_EDGE_ROW_244_2_Left_74
*9379 PHY_EDGE_ROW_244_2_Right_1181
*9380 PHY_EDGE_ROW_244_3_Left_1030
*9381 PHY_EDGE_ROW_244_3_Right_572
*9382 PHY_EDGE_ROW_245_2_Left_75
*9383 PHY_EDGE_ROW_245_2_Right_1182
*9384 PHY_EDGE_ROW_245_3_Left_1031
*9385 PHY_EDGE_ROW_245_3_Right_573
*9386 PHY_EDGE_ROW_246_2_Left_76
*9387 PHY_EDGE_ROW_246_2_Right_1183
*9388 PHY_EDGE_ROW_246_3_Left_1032
*9389 PHY_EDGE_ROW_246_3_Right_574
*9390 PHY_EDGE_ROW_247_2_Left_77
*9391 PHY_EDGE_ROW_247_2_Right_1184
*9392 PHY_EDGE_ROW_247_3_Left_1033
*9393 PHY_EDGE_ROW_247_3_Right_575
*9394 PHY_EDGE_ROW_248_2_Left_78
*9395 PHY_EDGE_ROW_248_2_Right_1185
*9396 PHY_EDGE_ROW_248_3_Left_1034
*9397 PHY_EDGE_ROW_248_3_Right_576
*9398 PHY_EDGE_ROW_249_2_Left_79
*9399 PHY_EDGE_ROW_249_2_Right_1186
*9400 PHY_EDGE_ROW_249_3_Left_1035
*9401 PHY_EDGE_ROW_249_3_Right_577
*9402 PHY_EDGE_ROW_24_2_Left_176
*9403 PHY_EDGE_ROW_24_2_Right_820
*9404 PHY_EDGE_ROW_24_3_Left_671
*9405 PHY_EDGE_ROW_24_3_Right_363
*9406 PHY_EDGE_ROW_250_2_Left_80
*9407 PHY_EDGE_ROW_250_2_Right_1187
*9408 PHY_EDGE_ROW_250_3_Left_1036
*9409 PHY_EDGE_ROW_250_3_Right_578
*9410 PHY_EDGE_ROW_251_2_Left_81
*9411 PHY_EDGE_ROW_251_2_Right_1188
*9412 PHY_EDGE_ROW_251_3_Left_1037
*9413 PHY_EDGE_ROW_251_3_Right_579
*9414 PHY_EDGE_ROW_252_2_Left_82
*9415 PHY_EDGE_ROW_252_2_Right_1189
*9416 PHY_EDGE_ROW_252_3_Left_1038
*9417 PHY_EDGE_ROW_252_3_Right_580
*9418 PHY_EDGE_ROW_253_2_Left_83
*9419 PHY_EDGE_ROW_253_2_Right_1190
*9420 PHY_EDGE_ROW_253_3_Left_1039
*9421 PHY_EDGE_ROW_253_3_Right_581
*9422 PHY_EDGE_ROW_254_2_Left_84
*9423 PHY_EDGE_ROW_254_2_Right_1191
*9424 PHY_EDGE_ROW_254_3_Left_1040
*9425 PHY_EDGE_ROW_254_3_Right_582
*9426 PHY_EDGE_ROW_255_2_Left_85
*9427 PHY_EDGE_ROW_255_2_Right_1192
*9428 PHY_EDGE_ROW_255_3_Left_1041
*9429 PHY_EDGE_ROW_255_3_Right_583
*9430 PHY_EDGE_ROW_256_2_Left_86
*9431 PHY_EDGE_ROW_256_2_Right_1193
*9432 PHY_EDGE_ROW_256_3_Left_1042
*9433 PHY_EDGE_ROW_256_3_Right_584
*9434 PHY_EDGE_ROW_257_2_Left_87
*9435 PHY_EDGE_ROW_257_2_Right_1194
*9436 PHY_EDGE_ROW_257_3_Left_1043
*9437 PHY_EDGE_ROW_257_3_Right_585
*9438 PHY_EDGE_ROW_258_2_Left_88
*9439 PHY_EDGE_ROW_258_2_Right_1195
*9440 PHY_EDGE_ROW_258_3_Left_1044
*9441 PHY_EDGE_ROW_258_3_Right_586
*9442 PHY_EDGE_ROW_259_2_Left_89
*9443 PHY_EDGE_ROW_259_2_Right_1196
*9444 PHY_EDGE_ROW_259_3_Left_1045
*9445 PHY_EDGE_ROW_259_3_Right_587
*9446 PHY_EDGE_ROW_25_2_Left_177
*9447 PHY_EDGE_ROW_25_2_Right_821
*9448 PHY_EDGE_ROW_25_3_Left_672
*9449 PHY_EDGE_ROW_25_3_Right_364
*9450 PHY_EDGE_ROW_260_2_Left_90
*9451 PHY_EDGE_ROW_260_2_Right_1197
*9452 PHY_EDGE_ROW_260_3_Left_1046
*9453 PHY_EDGE_ROW_260_3_Right_588
*9454 PHY_EDGE_ROW_261_2_Left_91
*9455 PHY_EDGE_ROW_261_2_Right_1198
*9456 PHY_EDGE_ROW_261_3_Left_1047
*9457 PHY_EDGE_ROW_261_3_Right_589
*9458 PHY_EDGE_ROW_262_2_Left_92
*9459 PHY_EDGE_ROW_262_2_Right_1199
*9460 PHY_EDGE_ROW_262_3_Left_1048
*9461 PHY_EDGE_ROW_262_3_Right_590
*9462 PHY_EDGE_ROW_263_2_Left_93
*9463 PHY_EDGE_ROW_263_2_Right_1200
*9464 PHY_EDGE_ROW_263_3_Left_1049
*9465 PHY_EDGE_ROW_263_3_Right_591
*9466 PHY_EDGE_ROW_264_2_Left_94
*9467 PHY_EDGE_ROW_264_2_Right_1201
*9468 PHY_EDGE_ROW_264_3_Left_1050
*9469 PHY_EDGE_ROW_264_3_Right_592
*9470 PHY_EDGE_ROW_265_2_Left_95
*9471 PHY_EDGE_ROW_265_2_Right_1202
*9472 PHY_EDGE_ROW_265_3_Left_1051
*9473 PHY_EDGE_ROW_265_3_Right_593
*9474 PHY_EDGE_ROW_266_2_Left_96
*9475 PHY_EDGE_ROW_266_2_Right_1203
*9476 PHY_EDGE_ROW_266_3_Left_1052
*9477 PHY_EDGE_ROW_266_3_Right_594
*9478 PHY_EDGE_ROW_267_2_Left_97
*9479 PHY_EDGE_ROW_267_2_Right_1204
*9480 PHY_EDGE_ROW_267_3_Left_1053
*9481 PHY_EDGE_ROW_267_3_Right_595
*9482 PHY_EDGE_ROW_268_2_Left_98
*9483 PHY_EDGE_ROW_268_2_Right_1205
*9484 PHY_EDGE_ROW_268_3_Left_1054
*9485 PHY_EDGE_ROW_268_3_Right_596
*9486 PHY_EDGE_ROW_269_2_Left_99
*9487 PHY_EDGE_ROW_269_2_Right_1206
*9488 PHY_EDGE_ROW_269_3_Left_1055
*9489 PHY_EDGE_ROW_269_3_Right_597
*9490 PHY_EDGE_ROW_26_2_Left_178
*9491 PHY_EDGE_ROW_26_2_Right_822
*9492 PHY_EDGE_ROW_26_3_Left_673
*9493 PHY_EDGE_ROW_26_3_Right_365
*9494 PHY_EDGE_ROW_270_2_Left_100
*9495 PHY_EDGE_ROW_270_2_Right_1207
*9496 PHY_EDGE_ROW_270_3_Left_1056
*9497 PHY_EDGE_ROW_270_3_Right_598
*9498 PHY_EDGE_ROW_271_2_Left_101
*9499 PHY_EDGE_ROW_271_2_Right_1208
*9500 PHY_EDGE_ROW_271_3_Left_1057
*9501 PHY_EDGE_ROW_271_3_Right_599
*9502 PHY_EDGE_ROW_272_2_Left_102
*9503 PHY_EDGE_ROW_272_2_Right_1209
*9504 PHY_EDGE_ROW_272_3_Left_1058
*9505 PHY_EDGE_ROW_272_3_Right_600
*9506 PHY_EDGE_ROW_273_2_Left_103
*9507 PHY_EDGE_ROW_273_2_Right_1210
*9508 PHY_EDGE_ROW_273_3_Left_1059
*9509 PHY_EDGE_ROW_273_3_Right_601
*9510 PHY_EDGE_ROW_274_2_Left_104
*9511 PHY_EDGE_ROW_274_2_Right_1211
*9512 PHY_EDGE_ROW_274_3_Left_1060
*9513 PHY_EDGE_ROW_274_3_Right_602
*9514 PHY_EDGE_ROW_275_2_Left_105
*9515 PHY_EDGE_ROW_275_2_Right_1212
*9516 PHY_EDGE_ROW_275_3_Left_1061
*9517 PHY_EDGE_ROW_275_3_Right_603
*9518 PHY_EDGE_ROW_276_2_Left_106
*9519 PHY_EDGE_ROW_276_2_Right_1213
*9520 PHY_EDGE_ROW_276_3_Left_1062
*9521 PHY_EDGE_ROW_276_3_Right_604
*9522 PHY_EDGE_ROW_277_2_Left_107
*9523 PHY_EDGE_ROW_277_2_Right_1214
*9524 PHY_EDGE_ROW_277_3_Left_1063
*9525 PHY_EDGE_ROW_277_3_Right_605
*9526 PHY_EDGE_ROW_278_2_Left_108
*9527 PHY_EDGE_ROW_278_2_Right_1215
*9528 PHY_EDGE_ROW_278_3_Left_1064
*9529 PHY_EDGE_ROW_278_3_Right_606
*9530 PHY_EDGE_ROW_279_2_Left_109
*9531 PHY_EDGE_ROW_279_2_Right_1216
*9532 PHY_EDGE_ROW_279_3_Left_1065
*9533 PHY_EDGE_ROW_279_3_Right_607
*9534 PHY_EDGE_ROW_27_2_Left_179
*9535 PHY_EDGE_ROW_27_2_Right_823
*9536 PHY_EDGE_ROW_27_3_Left_674
*9537 PHY_EDGE_ROW_27_3_Right_366
*9538 PHY_EDGE_ROW_280_2_Left_110
*9539 PHY_EDGE_ROW_280_2_Right_1217
*9540 PHY_EDGE_ROW_280_3_Left_1066
*9541 PHY_EDGE_ROW_280_3_Right_608
*9542 PHY_EDGE_ROW_281_2_Left_111
*9543 PHY_EDGE_ROW_281_2_Right_1218
*9544 PHY_EDGE_ROW_281_3_Left_1067
*9545 PHY_EDGE_ROW_281_3_Right_609
*9546 PHY_EDGE_ROW_282_2_Left_112
*9547 PHY_EDGE_ROW_282_2_Right_1219
*9548 PHY_EDGE_ROW_282_3_Left_1068
*9549 PHY_EDGE_ROW_282_3_Right_610
*9550 PHY_EDGE_ROW_283_2_Left_113
*9551 PHY_EDGE_ROW_283_2_Right_1220
*9552 PHY_EDGE_ROW_283_3_Left_1069
*9553 PHY_EDGE_ROW_283_3_Right_611
*9554 PHY_EDGE_ROW_284_2_Left_114
*9555 PHY_EDGE_ROW_284_2_Right_1221
*9556 PHY_EDGE_ROW_284_3_Left_1070
*9557 PHY_EDGE_ROW_284_3_Right_612
*9558 PHY_EDGE_ROW_285_2_Left_115
*9559 PHY_EDGE_ROW_285_2_Right_1222
*9560 PHY_EDGE_ROW_285_3_Left_1071
*9561 PHY_EDGE_ROW_285_3_Right_613
*9562 PHY_EDGE_ROW_286_2_Left_116
*9563 PHY_EDGE_ROW_286_2_Right_1223
*9564 PHY_EDGE_ROW_286_3_Left_1072
*9565 PHY_EDGE_ROW_286_3_Right_614
*9566 PHY_EDGE_ROW_287_2_Left_117
*9567 PHY_EDGE_ROW_287_2_Right_1224
*9568 PHY_EDGE_ROW_287_3_Left_1073
*9569 PHY_EDGE_ROW_287_3_Right_615
*9570 PHY_EDGE_ROW_288_2_Left_118
*9571 PHY_EDGE_ROW_288_2_Right_1225
*9572 PHY_EDGE_ROW_288_3_Left_1074
*9573 PHY_EDGE_ROW_288_3_Right_616
*9574 PHY_EDGE_ROW_289_2_Left_119
*9575 PHY_EDGE_ROW_289_2_Right_1226
*9576 PHY_EDGE_ROW_289_3_Left_1075
*9577 PHY_EDGE_ROW_289_3_Right_617
*9578 PHY_EDGE_ROW_28_2_Left_180
*9579 PHY_EDGE_ROW_28_2_Right_824
*9580 PHY_EDGE_ROW_28_3_Left_675
*9581 PHY_EDGE_ROW_28_3_Right_367
*9582 PHY_EDGE_ROW_290_2_Left_120
*9583 PHY_EDGE_ROW_290_2_Right_1227
*9584 PHY_EDGE_ROW_290_3_Left_1076
*9585 PHY_EDGE_ROW_290_3_Right_618
*9586 PHY_EDGE_ROW_291_2_Left_121
*9587 PHY_EDGE_ROW_291_2_Right_1228
*9588 PHY_EDGE_ROW_291_3_Left_1077
*9589 PHY_EDGE_ROW_291_3_Right_619
*9590 PHY_EDGE_ROW_292_2_Left_122
*9591 PHY_EDGE_ROW_292_2_Right_1229
*9592 PHY_EDGE_ROW_292_3_Left_1078
*9593 PHY_EDGE_ROW_292_3_Right_620
*9594 PHY_EDGE_ROW_293_2_Left_123
*9595 PHY_EDGE_ROW_293_2_Right_1230
*9596 PHY_EDGE_ROW_293_3_Left_1079
*9597 PHY_EDGE_ROW_293_3_Right_621
*9598 PHY_EDGE_ROW_294_2_Left_124
*9599 PHY_EDGE_ROW_294_2_Right_1231
*9600 PHY_EDGE_ROW_294_3_Left_1080
*9601 PHY_EDGE_ROW_294_3_Right_622
*9602 PHY_EDGE_ROW_295_2_Left_125
*9603 PHY_EDGE_ROW_295_2_Right_1232
*9604 PHY_EDGE_ROW_295_3_Left_1081
*9605 PHY_EDGE_ROW_295_3_Right_623
*9606 PHY_EDGE_ROW_296_2_Left_126
*9607 PHY_EDGE_ROW_296_2_Right_1233
*9608 PHY_EDGE_ROW_296_3_Left_1082
*9609 PHY_EDGE_ROW_296_3_Right_624
*9610 PHY_EDGE_ROW_297_2_Left_127
*9611 PHY_EDGE_ROW_297_2_Right_1234
*9612 PHY_EDGE_ROW_297_3_Left_1083
*9613 PHY_EDGE_ROW_297_3_Right_625
*9614 PHY_EDGE_ROW_298_2_Left_128
*9615 PHY_EDGE_ROW_298_2_Right_1235
*9616 PHY_EDGE_ROW_298_3_Left_1084
*9617 PHY_EDGE_ROW_298_3_Right_626
*9618 PHY_EDGE_ROW_299_2_Left_129
*9619 PHY_EDGE_ROW_299_2_Right_1236
*9620 PHY_EDGE_ROW_299_3_Left_1085
*9621 PHY_EDGE_ROW_299_3_Right_627
*9622 PHY_EDGE_ROW_29_2_Left_181
*9623 PHY_EDGE_ROW_29_2_Right_825
*9624 PHY_EDGE_ROW_29_3_Left_676
*9625 PHY_EDGE_ROW_29_3_Right_368
*9626 PHY_EDGE_ROW_2_Left_314
*9627 PHY_EDGE_ROW_2_Right_323
*9628 PHY_EDGE_ROW_300_2_Left_130
*9629 PHY_EDGE_ROW_300_2_Right_1237
*9630 PHY_EDGE_ROW_300_3_Left_1086
*9631 PHY_EDGE_ROW_300_3_Right_628
*9632 PHY_EDGE_ROW_301_2_Left_131
*9633 PHY_EDGE_ROW_301_2_Right_1238
*9634 PHY_EDGE_ROW_301_3_Left_1087
*9635 PHY_EDGE_ROW_301_3_Right_629
*9636 PHY_EDGE_ROW_302_2_Left_132
*9637 PHY_EDGE_ROW_302_2_Right_1239
*9638 PHY_EDGE_ROW_302_3_Left_1088
*9639 PHY_EDGE_ROW_302_3_Right_630
*9640 PHY_EDGE_ROW_303_2_Left_133
*9641 PHY_EDGE_ROW_303_2_Right_1240
*9642 PHY_EDGE_ROW_303_3_Left_1089
*9643 PHY_EDGE_ROW_303_3_Right_631
*9644 PHY_EDGE_ROW_304_2_Left_134
*9645 PHY_EDGE_ROW_304_2_Right_1241
*9646 PHY_EDGE_ROW_304_3_Left_1090
*9647 PHY_EDGE_ROW_304_3_Right_632
*9648 PHY_EDGE_ROW_305_2_Left_135
*9649 PHY_EDGE_ROW_305_2_Right_1242
*9650 PHY_EDGE_ROW_305_3_Left_1091
*9651 PHY_EDGE_ROW_305_3_Right_633
*9652 PHY_EDGE_ROW_306_2_Left_136
*9653 PHY_EDGE_ROW_306_2_Right_1243
*9654 PHY_EDGE_ROW_306_3_Left_1092
*9655 PHY_EDGE_ROW_306_3_Right_634
*9656 PHY_EDGE_ROW_307_2_Left_137
*9657 PHY_EDGE_ROW_307_2_Right_1244
*9658 PHY_EDGE_ROW_307_3_Left_1093
*9659 PHY_EDGE_ROW_307_3_Right_635
*9660 PHY_EDGE_ROW_308_2_Left_138
*9661 PHY_EDGE_ROW_308_2_Right_1245
*9662 PHY_EDGE_ROW_308_3_Left_1094
*9663 PHY_EDGE_ROW_308_3_Right_636
*9664 PHY_EDGE_ROW_309_2_Left_139
*9665 PHY_EDGE_ROW_309_2_Right_1246
*9666 PHY_EDGE_ROW_309_3_Left_1095
*9667 PHY_EDGE_ROW_309_3_Right_637
*9668 PHY_EDGE_ROW_30_2_Left_182
*9669 PHY_EDGE_ROW_30_2_Right_826
*9670 PHY_EDGE_ROW_30_3_Left_677
*9671 PHY_EDGE_ROW_30_3_Right_369
*9672 PHY_EDGE_ROW_310_2_Left_140
*9673 PHY_EDGE_ROW_310_2_Right_1247
*9674 PHY_EDGE_ROW_310_3_Left_1096
*9675 PHY_EDGE_ROW_310_3_Right_638
*9676 PHY_EDGE_ROW_311_2_Left_141
*9677 PHY_EDGE_ROW_311_2_Right_1248
*9678 PHY_EDGE_ROW_311_3_Left_1097
*9679 PHY_EDGE_ROW_311_3_Right_639
*9680 PHY_EDGE_ROW_312_2_Left_142
*9681 PHY_EDGE_ROW_312_2_Right_1249
*9682 PHY_EDGE_ROW_312_3_Left_1098
*9683 PHY_EDGE_ROW_312_3_Right_640
*9684 PHY_EDGE_ROW_313_2_Left_143
*9685 PHY_EDGE_ROW_313_2_Right_1250
*9686 PHY_EDGE_ROW_313_3_Left_1099
*9687 PHY_EDGE_ROW_313_3_Right_641
*9688 PHY_EDGE_ROW_314_2_Left_144
*9689 PHY_EDGE_ROW_314_2_Right_1251
*9690 PHY_EDGE_ROW_314_3_Left_1100
*9691 PHY_EDGE_ROW_314_3_Right_642
*9692 PHY_EDGE_ROW_315_2_Left_145
*9693 PHY_EDGE_ROW_315_2_Right_1252
*9694 PHY_EDGE_ROW_315_3_Left_1101
*9695 PHY_EDGE_ROW_315_3_Right_643
*9696 PHY_EDGE_ROW_316_2_Left_146
*9697 PHY_EDGE_ROW_316_2_Right_1253
*9698 PHY_EDGE_ROW_316_3_Left_1102
*9699 PHY_EDGE_ROW_316_3_Right_644
*9700 PHY_EDGE_ROW_317_2_Left_147
*9701 PHY_EDGE_ROW_317_2_Right_1254
*9702 PHY_EDGE_ROW_317_3_Left_1103
*9703 PHY_EDGE_ROW_317_3_Right_645
*9704 PHY_EDGE_ROW_318_2_Left_148
*9705 PHY_EDGE_ROW_318_2_Right_1255
*9706 PHY_EDGE_ROW_318_3_Left_1104
*9707 PHY_EDGE_ROW_318_3_Right_646
*9708 PHY_EDGE_ROW_319_2_Left_149
*9709 PHY_EDGE_ROW_319_2_Right_1256
*9710 PHY_EDGE_ROW_319_3_Left_1105
*9711 PHY_EDGE_ROW_319_3_Right_647
*9712 PHY_EDGE_ROW_31_2_Left_183
*9713 PHY_EDGE_ROW_31_2_Right_827
*9714 PHY_EDGE_ROW_31_3_Left_678
*9715 PHY_EDGE_ROW_31_3_Right_370
*9716 PHY_EDGE_ROW_320_2_Left_150
*9717 PHY_EDGE_ROW_320_2_Right_1257
*9718 PHY_EDGE_ROW_320_3_Left_1106
*9719 PHY_EDGE_ROW_320_3_Right_648
*9720 PHY_EDGE_ROW_321_Left_649
*9721 PHY_EDGE_ROW_321_Right_341
*9722 PHY_EDGE_ROW_322_Left_650
*9723 PHY_EDGE_ROW_322_Right_342
*9724 PHY_EDGE_ROW_323_Left_651
*9725 PHY_EDGE_ROW_323_Right_343
*9726 PHY_EDGE_ROW_324_Left_652
*9727 PHY_EDGE_ROW_324_Right_344
*9728 PHY_EDGE_ROW_325_Left_653
*9729 PHY_EDGE_ROW_325_Right_345
*9730 PHY_EDGE_ROW_326_Left_654
*9731 PHY_EDGE_ROW_326_Right_346
*9732 PHY_EDGE_ROW_327_Left_655
*9733 PHY_EDGE_ROW_327_Right_347
*9734 PHY_EDGE_ROW_32_2_Left_184
*9735 PHY_EDGE_ROW_32_2_Right_828
*9736 PHY_EDGE_ROW_32_3_Left_679
*9737 PHY_EDGE_ROW_32_3_Right_371
*9738 PHY_EDGE_ROW_33_2_Left_185
*9739 PHY_EDGE_ROW_33_2_Right_829
*9740 PHY_EDGE_ROW_33_3_Left_680
*9741 PHY_EDGE_ROW_33_3_Right_372
*9742 PHY_EDGE_ROW_34_2_Left_186
*9743 PHY_EDGE_ROW_34_2_Right_830
*9744 PHY_EDGE_ROW_34_3_Left_681
*9745 PHY_EDGE_ROW_34_3_Right_373
*9746 PHY_EDGE_ROW_35_2_Left_187
*9747 PHY_EDGE_ROW_35_2_Right_831
*9748 PHY_EDGE_ROW_35_3_Left_682
*9749 PHY_EDGE_ROW_35_3_Right_374
*9750 PHY_EDGE_ROW_36_2_Left_188
*9751 PHY_EDGE_ROW_36_2_Right_832
*9752 PHY_EDGE_ROW_36_3_Left_683
*9753 PHY_EDGE_ROW_36_3_Right_375
*9754 PHY_EDGE_ROW_37_2_Left_189
*9755 PHY_EDGE_ROW_37_2_Right_833
*9756 PHY_EDGE_ROW_37_3_Left_684
*9757 PHY_EDGE_ROW_37_3_Right_376
*9758 PHY_EDGE_ROW_38_2_Left_190
*9759 PHY_EDGE_ROW_38_2_Right_834
*9760 PHY_EDGE_ROW_38_3_Left_685
*9761 PHY_EDGE_ROW_38_3_Right_377
*9762 PHY_EDGE_ROW_39_2_Left_191
*9763 PHY_EDGE_ROW_39_2_Right_835
*9764 PHY_EDGE_ROW_39_3_Left_686
*9765 PHY_EDGE_ROW_39_3_Right_378
*9766 PHY_EDGE_ROW_3_Left_315
*9767 PHY_EDGE_ROW_3_Right_324
*9768 PHY_EDGE_ROW_40_2_Left_192
*9769 PHY_EDGE_ROW_40_2_Right_836
*9770 PHY_EDGE_ROW_40_3_Left_687
*9771 PHY_EDGE_ROW_40_3_Right_379
*9772 PHY_EDGE_ROW_41_2_Left_193
*9773 PHY_EDGE_ROW_41_2_Right_837
*9774 PHY_EDGE_ROW_41_3_Left_688
*9775 PHY_EDGE_ROW_41_3_Right_380
*9776 PHY_EDGE_ROW_42_2_Left_194
*9777 PHY_EDGE_ROW_42_2_Right_838
*9778 PHY_EDGE_ROW_42_3_Left_689
*9779 PHY_EDGE_ROW_42_3_Right_381
*9780 PHY_EDGE_ROW_43_2_Left_195
*9781 PHY_EDGE_ROW_43_2_Right_839
*9782 PHY_EDGE_ROW_43_3_Left_690
*9783 PHY_EDGE_ROW_43_3_Right_382
*9784 PHY_EDGE_ROW_44_2_Left_196
*9785 PHY_EDGE_ROW_44_2_Right_840
*9786 PHY_EDGE_ROW_44_3_Left_691
*9787 PHY_EDGE_ROW_44_3_Right_383
*9788 PHY_EDGE_ROW_45_2_Left_197
*9789 PHY_EDGE_ROW_45_2_Right_841
*9790 PHY_EDGE_ROW_45_3_Left_692
*9791 PHY_EDGE_ROW_45_3_Right_384
*9792 PHY_EDGE_ROW_46_2_Left_198
*9793 PHY_EDGE_ROW_46_2_Right_842
*9794 PHY_EDGE_ROW_46_3_Left_693
*9795 PHY_EDGE_ROW_46_3_Right_385
*9796 PHY_EDGE_ROW_47_2_Left_199
*9797 PHY_EDGE_ROW_47_2_Right_843
*9798 PHY_EDGE_ROW_47_3_Left_694
*9799 PHY_EDGE_ROW_47_3_Right_386
*9800 PHY_EDGE_ROW_48_2_Left_200
*9801 PHY_EDGE_ROW_48_2_Right_844
*9802 PHY_EDGE_ROW_48_3_Left_695
*9803 PHY_EDGE_ROW_48_3_Right_387
*9804 PHY_EDGE_ROW_49_2_Left_201
*9805 PHY_EDGE_ROW_49_2_Right_845
*9806 PHY_EDGE_ROW_49_3_Left_696
*9807 PHY_EDGE_ROW_49_3_Right_388
*9808 PHY_EDGE_ROW_4_Left_316
*9809 PHY_EDGE_ROW_4_Right_325
*9810 PHY_EDGE_ROW_50_2_Left_202
*9811 PHY_EDGE_ROW_50_2_Right_846
*9812 PHY_EDGE_ROW_50_3_Left_697
*9813 PHY_EDGE_ROW_50_3_Right_389
*9814 PHY_EDGE_ROW_51_2_Left_203
*9815 PHY_EDGE_ROW_51_2_Right_847
*9816 PHY_EDGE_ROW_51_3_Left_698
*9817 PHY_EDGE_ROW_51_3_Right_390
*9818 PHY_EDGE_ROW_52_2_Left_204
*9819 PHY_EDGE_ROW_52_2_Right_848
*9820 PHY_EDGE_ROW_52_3_Left_699
*9821 PHY_EDGE_ROW_52_3_Right_391
*9822 PHY_EDGE_ROW_53_2_Left_205
*9823 PHY_EDGE_ROW_53_2_Right_849
*9824 PHY_EDGE_ROW_53_3_Left_700
*9825 PHY_EDGE_ROW_53_3_Right_392
*9826 PHY_EDGE_ROW_54_2_Left_206
*9827 PHY_EDGE_ROW_54_2_Right_850
*9828 PHY_EDGE_ROW_54_3_Left_701
*9829 PHY_EDGE_ROW_54_3_Right_393
*9830 PHY_EDGE_ROW_55_2_Left_207
*9831 PHY_EDGE_ROW_55_2_Right_851
*9832 PHY_EDGE_ROW_55_3_Left_702
*9833 PHY_EDGE_ROW_55_3_Right_394
*9834 PHY_EDGE_ROW_56_2_Left_208
*9835 PHY_EDGE_ROW_56_2_Right_852
*9836 PHY_EDGE_ROW_56_3_Left_703
*9837 PHY_EDGE_ROW_56_3_Right_395
*9838 PHY_EDGE_ROW_57_2_Left_209
*9839 PHY_EDGE_ROW_57_2_Right_853
*9840 PHY_EDGE_ROW_57_3_Left_704
*9841 PHY_EDGE_ROW_57_3_Right_396
*9842 PHY_EDGE_ROW_58_2_Left_210
*9843 PHY_EDGE_ROW_58_2_Right_854
*9844 PHY_EDGE_ROW_58_3_Left_705
*9845 PHY_EDGE_ROW_58_3_Right_397
*9846 PHY_EDGE_ROW_59_2_Left_211
*9847 PHY_EDGE_ROW_59_2_Right_855
*9848 PHY_EDGE_ROW_59_3_Left_706
*9849 PHY_EDGE_ROW_59_3_Right_398
*9850 PHY_EDGE_ROW_5_Left_317
*9851 PHY_EDGE_ROW_5_Right_326
*9852 PHY_EDGE_ROW_60_2_Left_212
*9853 PHY_EDGE_ROW_60_2_Right_856
*9854 PHY_EDGE_ROW_60_3_Left_707
*9855 PHY_EDGE_ROW_60_3_Right_399
*9856 PHY_EDGE_ROW_61_2_Left_213
*9857 PHY_EDGE_ROW_61_2_Right_857
*9858 PHY_EDGE_ROW_61_3_Left_708
*9859 PHY_EDGE_ROW_61_3_Right_400
*9860 PHY_EDGE_ROW_62_2_Left_214
*9861 PHY_EDGE_ROW_62_2_Right_858
*9862 PHY_EDGE_ROW_62_3_Left_709
*9863 PHY_EDGE_ROW_62_3_Right_401
*9864 PHY_EDGE_ROW_63_2_Left_215
*9865 PHY_EDGE_ROW_63_2_Right_859
*9866 PHY_EDGE_ROW_63_3_Left_710
*9867 PHY_EDGE_ROW_63_3_Right_402
*9868 PHY_EDGE_ROW_64_2_Left_216
*9869 PHY_EDGE_ROW_64_2_Right_860
*9870 PHY_EDGE_ROW_64_3_Left_711
*9871 PHY_EDGE_ROW_64_3_Right_403
*9872 PHY_EDGE_ROW_65_2_Left_217
*9873 PHY_EDGE_ROW_65_2_Right_861
*9874 PHY_EDGE_ROW_65_3_Left_712
*9875 PHY_EDGE_ROW_65_3_Right_404
*9876 PHY_EDGE_ROW_66_2_Left_218
*9877 PHY_EDGE_ROW_66_2_Right_862
*9878 PHY_EDGE_ROW_66_3_Left_713
*9879 PHY_EDGE_ROW_66_3_Right_405
*9880 PHY_EDGE_ROW_67_2_Left_219
*9881 PHY_EDGE_ROW_67_2_Right_863
*9882 PHY_EDGE_ROW_67_3_Left_714
*9883 PHY_EDGE_ROW_67_3_Right_406
*9884 PHY_EDGE_ROW_68_2_Left_220
*9885 PHY_EDGE_ROW_68_2_Right_864
*9886 PHY_EDGE_ROW_68_3_Left_715
*9887 PHY_EDGE_ROW_68_3_Right_407
*9888 PHY_EDGE_ROW_69_2_Left_221
*9889 PHY_EDGE_ROW_69_2_Right_865
*9890 PHY_EDGE_ROW_69_3_Left_716
*9891 PHY_EDGE_ROW_69_3_Right_408
*9892 PHY_EDGE_ROW_6_Left_318
*9893 PHY_EDGE_ROW_6_Right_327
*9894 PHY_EDGE_ROW_70_2_Left_222
*9895 PHY_EDGE_ROW_70_2_Right_866
*9896 PHY_EDGE_ROW_70_3_Left_717
*9897 PHY_EDGE_ROW_70_3_Right_409
*9898 PHY_EDGE_ROW_71_2_Left_223
*9899 PHY_EDGE_ROW_71_2_Right_867
*9900 PHY_EDGE_ROW_71_3_Left_718
*9901 PHY_EDGE_ROW_71_3_Right_410
*9902 PHY_EDGE_ROW_72_2_Left_224
*9903 PHY_EDGE_ROW_72_2_Right_868
*9904 PHY_EDGE_ROW_72_3_Left_719
*9905 PHY_EDGE_ROW_72_3_Right_411
*9906 PHY_EDGE_ROW_73_2_Left_225
*9907 PHY_EDGE_ROW_73_2_Right_869
*9908 PHY_EDGE_ROW_73_3_Left_720
*9909 PHY_EDGE_ROW_73_3_Right_412
*9910 PHY_EDGE_ROW_74_2_Left_226
*9911 PHY_EDGE_ROW_74_2_Right_870
*9912 PHY_EDGE_ROW_74_3_Left_721
*9913 PHY_EDGE_ROW_74_3_Right_413
*9914 PHY_EDGE_ROW_75_2_Left_227
*9915 PHY_EDGE_ROW_75_2_Right_871
*9916 PHY_EDGE_ROW_75_3_Left_722
*9917 PHY_EDGE_ROW_75_3_Right_414
*9918 PHY_EDGE_ROW_76_2_Left_228
*9919 PHY_EDGE_ROW_76_2_Right_872
*9920 PHY_EDGE_ROW_76_3_Left_723
*9921 PHY_EDGE_ROW_76_3_Right_415
*9922 PHY_EDGE_ROW_77_2_Left_229
*9923 PHY_EDGE_ROW_77_2_Right_873
*9924 PHY_EDGE_ROW_77_3_Left_724
*9925 PHY_EDGE_ROW_77_3_Right_416
*9926 PHY_EDGE_ROW_78_2_Left_230
*9927 PHY_EDGE_ROW_78_2_Right_874
*9928 PHY_EDGE_ROW_78_3_Left_725
*9929 PHY_EDGE_ROW_78_3_Right_417
*9930 PHY_EDGE_ROW_79_2_Left_231
*9931 PHY_EDGE_ROW_79_2_Right_875
*9932 PHY_EDGE_ROW_79_3_Left_726
*9933 PHY_EDGE_ROW_79_3_Right_418
*9934 PHY_EDGE_ROW_7_Left_319
*9935 PHY_EDGE_ROW_7_Right_328
*9936 PHY_EDGE_ROW_80_2_Left_232
*9937 PHY_EDGE_ROW_80_2_Right_876
*9938 PHY_EDGE_ROW_80_3_Left_727
*9939 PHY_EDGE_ROW_80_3_Right_419
*9940 PHY_EDGE_ROW_81_2_Left_233
*9941 PHY_EDGE_ROW_81_2_Right_877
*9942 PHY_EDGE_ROW_81_3_Left_728
*9943 PHY_EDGE_ROW_81_3_Right_420
*9944 PHY_EDGE_ROW_82_2_Left_234
*9945 PHY_EDGE_ROW_82_2_Right_878
*9946 PHY_EDGE_ROW_82_3_Left_729
*9947 PHY_EDGE_ROW_82_3_Right_421
*9948 PHY_EDGE_ROW_83_2_Left_235
*9949 PHY_EDGE_ROW_83_2_Right_879
*9950 PHY_EDGE_ROW_83_3_Left_730
*9951 PHY_EDGE_ROW_83_3_Right_422
*9952 PHY_EDGE_ROW_84_2_Left_236
*9953 PHY_EDGE_ROW_84_2_Right_880
*9954 PHY_EDGE_ROW_84_3_Left_731
*9955 PHY_EDGE_ROW_84_3_Right_423
*9956 PHY_EDGE_ROW_85_2_Left_237
*9957 PHY_EDGE_ROW_85_2_Right_881
*9958 PHY_EDGE_ROW_85_3_Left_732
*9959 PHY_EDGE_ROW_85_3_Right_424
*9960 PHY_EDGE_ROW_86_2_Left_238
*9961 PHY_EDGE_ROW_86_2_Right_882
*9962 PHY_EDGE_ROW_86_3_Left_733
*9963 PHY_EDGE_ROW_86_3_Right_425
*9964 PHY_EDGE_ROW_87_2_Left_239
*9965 PHY_EDGE_ROW_87_2_Right_883
*9966 PHY_EDGE_ROW_87_3_Left_734
*9967 PHY_EDGE_ROW_87_3_Right_426
*9968 PHY_EDGE_ROW_88_2_Left_240
*9969 PHY_EDGE_ROW_88_2_Right_884
*9970 PHY_EDGE_ROW_88_3_Left_735
*9971 PHY_EDGE_ROW_88_3_Right_427
*9972 PHY_EDGE_ROW_89_2_Left_241
*9973 PHY_EDGE_ROW_89_2_Right_885
*9974 PHY_EDGE_ROW_89_3_Left_736
*9975 PHY_EDGE_ROW_89_3_Right_428
*9976 PHY_EDGE_ROW_8_Left_320
*9977 PHY_EDGE_ROW_8_Right_329
*9978 PHY_EDGE_ROW_90_2_Left_242
*9979 PHY_EDGE_ROW_90_2_Right_886
*9980 PHY_EDGE_ROW_90_3_Left_737
*9981 PHY_EDGE_ROW_90_3_Right_429
*9982 PHY_EDGE_ROW_91_2_Left_243
*9983 PHY_EDGE_ROW_91_2_Right_887
*9984 PHY_EDGE_ROW_91_3_Left_738
*9985 PHY_EDGE_ROW_91_3_Right_430
*9986 PHY_EDGE_ROW_92_2_Left_244
*9987 PHY_EDGE_ROW_92_2_Right_888
*9988 PHY_EDGE_ROW_92_3_Left_739
*9989 PHY_EDGE_ROW_92_3_Right_431
*9990 PHY_EDGE_ROW_93_2_Left_245
*9991 PHY_EDGE_ROW_93_2_Right_889
*9992 PHY_EDGE_ROW_93_3_Left_740
*9993 PHY_EDGE_ROW_93_3_Right_432
*9994 PHY_EDGE_ROW_94_2_Left_246
*9995 PHY_EDGE_ROW_94_2_Right_890
*9996 PHY_EDGE_ROW_94_3_Left_741
*9997 PHY_EDGE_ROW_94_3_Right_433
*9998 PHY_EDGE_ROW_95_2_Left_247
*9999 PHY_EDGE_ROW_95_2_Right_891
*10000 PHY_EDGE_ROW_95_3_Left_742
*10001 PHY_EDGE_ROW_95_3_Right_434
*10002 PHY_EDGE_ROW_96_2_Left_248
*10003 PHY_EDGE_ROW_96_2_Right_892
*10004 PHY_EDGE_ROW_96_3_Left_743
*10005 PHY_EDGE_ROW_96_3_Right_435
*10006 PHY_EDGE_ROW_97_2_Left_249
*10007 PHY_EDGE_ROW_97_2_Right_893
*10008 PHY_EDGE_ROW_97_3_Left_744
*10009 PHY_EDGE_ROW_97_3_Right_436
*10010 PHY_EDGE_ROW_98_2_Left_250
*10011 PHY_EDGE_ROW_98_2_Right_894
*10012 PHY_EDGE_ROW_98_3_Left_745
*10013 PHY_EDGE_ROW_98_3_Right_437
*10014 PHY_EDGE_ROW_99_2_Left_251
*10015 PHY_EDGE_ROW_99_2_Right_895
*10016 PHY_EDGE_ROW_99_3_Left_746
*10017 PHY_EDGE_ROW_99_3_Right_438
*10018 PHY_EDGE_ROW_9_2_Left_311
*10019 PHY_EDGE_ROW_9_2_Right_955
*10020 PHY_EDGE_ROW_9_3_Left_656
*10021 PHY_EDGE_ROW_9_3_Right_348
*10022 TAP_TAPCELL_ROW_0_1258
*10023 TAP_TAPCELL_ROW_0_1259
*10024 TAP_TAPCELL_ROW_0_1260
*10025 TAP_TAPCELL_ROW_0_1261
*10026 TAP_TAPCELL_ROW_0_1262
*10027 TAP_TAPCELL_ROW_0_1263
*10028 TAP_TAPCELL_ROW_0_1264
*10029 TAP_TAPCELL_ROW_0_1265
*10030 TAP_TAPCELL_ROW_0_1266
*10031 TAP_TAPCELL_ROW_0_1267
*10032 TAP_TAPCELL_ROW_0_1268
*10033 TAP_TAPCELL_ROW_0_1269
*10034 TAP_TAPCELL_ROW_0_1270
*10035 TAP_TAPCELL_ROW_0_1271
*10036 TAP_TAPCELL_ROW_0_1272
*10037 TAP_TAPCELL_ROW_0_1273
*10038 TAP_TAPCELL_ROW_0_1274
*10039 TAP_TAPCELL_ROW_0_1275
*10040 TAP_TAPCELL_ROW_0_1276
*10041 TAP_TAPCELL_ROW_0_1277
*10042 TAP_TAPCELL_ROW_0_1278
*10043 TAP_TAPCELL_ROW_0_1279
*10044 TAP_TAPCELL_ROW_0_1280
*10045 TAP_TAPCELL_ROW_0_1281
*10046 TAP_TAPCELL_ROW_0_1282
*10047 TAP_TAPCELL_ROW_0_1283
*10048 TAP_TAPCELL_ROW_0_1284
*10049 TAP_TAPCELL_ROW_0_1285
*10050 TAP_TAPCELL_ROW_0_1286
*10051 TAP_TAPCELL_ROW_0_1287
*10052 TAP_TAPCELL_ROW_0_1288
*10053 TAP_TAPCELL_ROW_0_1289
*10054 TAP_TAPCELL_ROW_0_1290
*10055 TAP_TAPCELL_ROW_0_1291
*10056 TAP_TAPCELL_ROW_0_1292
*10057 TAP_TAPCELL_ROW_0_1293
*10058 TAP_TAPCELL_ROW_0_1294
*10059 TAP_TAPCELL_ROW_0_1295
*10060 TAP_TAPCELL_ROW_0_1296
*10061 TAP_TAPCELL_ROW_0_1297
*10062 TAP_TAPCELL_ROW_0_1298
*10063 TAP_TAPCELL_ROW_0_1299
*10064 TAP_TAPCELL_ROW_0_1300
*10065 TAP_TAPCELL_ROW_0_1301
*10066 TAP_TAPCELL_ROW_0_1302
*10067 TAP_TAPCELL_ROW_0_1303
*10068 TAP_TAPCELL_ROW_0_1304
*10069 TAP_TAPCELL_ROW_0_1305
*10070 TAP_TAPCELL_ROW_0_1306
*10071 TAP_TAPCELL_ROW_0_1307
*10072 TAP_TAPCELL_ROW_0_1308
*10073 TAP_TAPCELL_ROW_0_1309
*10074 TAP_TAPCELL_ROW_0_1310
*10075 TAP_TAPCELL_ROW_100_2_1594
*10076 TAP_TAPCELL_ROW_100_3_2329
*10077 TAP_TAPCELL_ROW_102_2_1595
*10078 TAP_TAPCELL_ROW_102_3_2330
*10079 TAP_TAPCELL_ROW_104_2_1596
*10080 TAP_TAPCELL_ROW_104_3_2331
*10081 TAP_TAPCELL_ROW_106_2_1597
*10082 TAP_TAPCELL_ROW_106_3_2332
*10083 TAP_TAPCELL_ROW_108_2_1598
*10084 TAP_TAPCELL_ROW_108_3_2333
*10085 TAP_TAPCELL_ROW_10_2_1549
*10086 TAP_TAPCELL_ROW_10_3_2284
*10087 TAP_TAPCELL_ROW_110_2_1599
*10088 TAP_TAPCELL_ROW_110_3_2334
*10089 TAP_TAPCELL_ROW_112_2_1600
*10090 TAP_TAPCELL_ROW_112_3_2335
*10091 TAP_TAPCELL_ROW_114_2_1601
*10092 TAP_TAPCELL_ROW_114_3_2336
*10093 TAP_TAPCELL_ROW_116_2_1602
*10094 TAP_TAPCELL_ROW_116_3_2337
*10095 TAP_TAPCELL_ROW_118_2_1603
*10096 TAP_TAPCELL_ROW_118_3_2338
*10097 TAP_TAPCELL_ROW_120_2_1604
*10098 TAP_TAPCELL_ROW_120_3_2339
*10099 TAP_TAPCELL_ROW_122_2_1605
*10100 TAP_TAPCELL_ROW_122_3_2340
*10101 TAP_TAPCELL_ROW_124_2_1606
*10102 TAP_TAPCELL_ROW_124_3_2341
*10103 TAP_TAPCELL_ROW_126_2_1607
*10104 TAP_TAPCELL_ROW_126_3_2342
*10105 TAP_TAPCELL_ROW_128_2_1608
*10106 TAP_TAPCELL_ROW_128_3_2343
*10107 TAP_TAPCELL_ROW_12_2_1550
*10108 TAP_TAPCELL_ROW_12_3_2285
*10109 TAP_TAPCELL_ROW_130_2_1609
*10110 TAP_TAPCELL_ROW_130_3_2344
*10111 TAP_TAPCELL_ROW_132_2_1610
*10112 TAP_TAPCELL_ROW_132_3_2345
*10113 TAP_TAPCELL_ROW_134_2_1611
*10114 TAP_TAPCELL_ROW_134_3_2346
*10115 TAP_TAPCELL_ROW_136_2_1612
*10116 TAP_TAPCELL_ROW_136_3_2347
*10117 TAP_TAPCELL_ROW_138_2_1613
*10118 TAP_TAPCELL_ROW_138_3_2348
*10119 TAP_TAPCELL_ROW_140_2_1614
*10120 TAP_TAPCELL_ROW_140_3_2349
*10121 TAP_TAPCELL_ROW_142_2_1615
*10122 TAP_TAPCELL_ROW_142_3_2350
*10123 TAP_TAPCELL_ROW_144_2_1616
*10124 TAP_TAPCELL_ROW_144_3_2351
*10125 TAP_TAPCELL_ROW_146_2_1617
*10126 TAP_TAPCELL_ROW_146_3_2352
*10127 TAP_TAPCELL_ROW_148_2_1618
*10128 TAP_TAPCELL_ROW_148_3_2353
*10129 TAP_TAPCELL_ROW_14_2_1551
*10130 TAP_TAPCELL_ROW_14_3_2286
*10131 TAP_TAPCELL_ROW_150_2_1619
*10132 TAP_TAPCELL_ROW_150_3_2354
*10133 TAP_TAPCELL_ROW_152_2_1620
*10134 TAP_TAPCELL_ROW_152_3_2355
*10135 TAP_TAPCELL_ROW_154_2_1621
*10136 TAP_TAPCELL_ROW_154_3_2356
*10137 TAP_TAPCELL_ROW_156_2_1622
*10138 TAP_TAPCELL_ROW_156_3_2357
*10139 TAP_TAPCELL_ROW_158_2_1623
*10140 TAP_TAPCELL_ROW_158_3_2358
*10141 TAP_TAPCELL_ROW_159_1625
*10142 TAP_TAPCELL_ROW_159_1626
*10143 TAP_TAPCELL_ROW_159_1627
*10144 TAP_TAPCELL_ROW_159_1628
*10145 TAP_TAPCELL_ROW_159_1629
*10146 TAP_TAPCELL_ROW_159_1630
*10147 TAP_TAPCELL_ROW_159_1631
*10148 TAP_TAPCELL_ROW_159_1632
*10149 TAP_TAPCELL_ROW_159_1633
*10150 TAP_TAPCELL_ROW_159_1634
*10151 TAP_TAPCELL_ROW_159_1635
*10152 TAP_TAPCELL_ROW_159_1636
*10153 TAP_TAPCELL_ROW_159_1637
*10154 TAP_TAPCELL_ROW_159_1638
*10155 TAP_TAPCELL_ROW_159_1639
*10156 TAP_TAPCELL_ROW_159_1640
*10157 TAP_TAPCELL_ROW_159_1641
*10158 TAP_TAPCELL_ROW_159_1642
*10159 TAP_TAPCELL_ROW_159_1643
*10160 TAP_TAPCELL_ROW_159_1644
*10161 TAP_TAPCELL_ROW_159_1645
*10162 TAP_TAPCELL_ROW_159_1646
*10163 TAP_TAPCELL_ROW_159_1647
*10164 TAP_TAPCELL_ROW_159_1648
*10165 TAP_TAPCELL_ROW_159_1649
*10166 TAP_TAPCELL_ROW_159_1650
*10167 TAP_TAPCELL_ROW_159_1651
*10168 TAP_TAPCELL_ROW_159_1652
*10169 TAP_TAPCELL_ROW_159_1653
*10170 TAP_TAPCELL_ROW_159_1654
*10171 TAP_TAPCELL_ROW_159_1655
*10172 TAP_TAPCELL_ROW_159_1656
*10173 TAP_TAPCELL_ROW_159_1657
*10174 TAP_TAPCELL_ROW_159_1658
*10175 TAP_TAPCELL_ROW_159_1659
*10176 TAP_TAPCELL_ROW_159_1660
*10177 TAP_TAPCELL_ROW_159_1661
*10178 TAP_TAPCELL_ROW_159_1662
*10179 TAP_TAPCELL_ROW_159_1663
*10180 TAP_TAPCELL_ROW_159_1664
*10181 TAP_TAPCELL_ROW_159_1665
*10182 TAP_TAPCELL_ROW_159_1666
*10183 TAP_TAPCELL_ROW_159_1667
*10184 TAP_TAPCELL_ROW_159_1668
*10185 TAP_TAPCELL_ROW_159_1669
*10186 TAP_TAPCELL_ROW_159_1670
*10187 TAP_TAPCELL_ROW_159_1671
*10188 TAP_TAPCELL_ROW_159_1672
*10189 TAP_TAPCELL_ROW_159_1673
*10190 TAP_TAPCELL_ROW_159_1674
*10191 TAP_TAPCELL_ROW_159_1675
*10192 TAP_TAPCELL_ROW_159_1676
*10193 TAP_TAPCELL_ROW_159_1677
*10194 TAP_TAPCELL_ROW_160_1678
*10195 TAP_TAPCELL_ROW_160_1679
*10196 TAP_TAPCELL_ROW_160_1680
*10197 TAP_TAPCELL_ROW_160_1681
*10198 TAP_TAPCELL_ROW_160_1682
*10199 TAP_TAPCELL_ROW_160_1683
*10200 TAP_TAPCELL_ROW_160_1684
*10201 TAP_TAPCELL_ROW_160_1685
*10202 TAP_TAPCELL_ROW_160_1686
*10203 TAP_TAPCELL_ROW_160_1687
*10204 TAP_TAPCELL_ROW_160_1688
*10205 TAP_TAPCELL_ROW_160_1689
*10206 TAP_TAPCELL_ROW_160_1690
*10207 TAP_TAPCELL_ROW_160_1691
*10208 TAP_TAPCELL_ROW_160_1692
*10209 TAP_TAPCELL_ROW_160_1693
*10210 TAP_TAPCELL_ROW_160_1694
*10211 TAP_TAPCELL_ROW_160_1695
*10212 TAP_TAPCELL_ROW_160_1696
*10213 TAP_TAPCELL_ROW_160_1697
*10214 TAP_TAPCELL_ROW_160_1698
*10215 TAP_TAPCELL_ROW_160_1699
*10216 TAP_TAPCELL_ROW_160_1700
*10217 TAP_TAPCELL_ROW_160_1701
*10218 TAP_TAPCELL_ROW_160_1702
*10219 TAP_TAPCELL_ROW_160_1703
*10220 TAP_TAPCELL_ROW_160_1704
*10221 TAP_TAPCELL_ROW_161_1705
*10222 TAP_TAPCELL_ROW_161_1706
*10223 TAP_TAPCELL_ROW_161_1707
*10224 TAP_TAPCELL_ROW_161_1708
*10225 TAP_TAPCELL_ROW_161_1709
*10226 TAP_TAPCELL_ROW_161_1710
*10227 TAP_TAPCELL_ROW_161_1711
*10228 TAP_TAPCELL_ROW_161_1712
*10229 TAP_TAPCELL_ROW_161_1713
*10230 TAP_TAPCELL_ROW_161_1714
*10231 TAP_TAPCELL_ROW_161_1715
*10232 TAP_TAPCELL_ROW_161_1716
*10233 TAP_TAPCELL_ROW_161_1717
*10234 TAP_TAPCELL_ROW_161_1718
*10235 TAP_TAPCELL_ROW_161_1719
*10236 TAP_TAPCELL_ROW_161_1720
*10237 TAP_TAPCELL_ROW_161_1721
*10238 TAP_TAPCELL_ROW_161_1722
*10239 TAP_TAPCELL_ROW_161_1723
*10240 TAP_TAPCELL_ROW_161_1724
*10241 TAP_TAPCELL_ROW_161_1725
*10242 TAP_TAPCELL_ROW_161_1726
*10243 TAP_TAPCELL_ROW_161_1727
*10244 TAP_TAPCELL_ROW_161_1728
*10245 TAP_TAPCELL_ROW_161_1729
*10246 TAP_TAPCELL_ROW_161_1730
*10247 TAP_TAPCELL_ROW_162_1731
*10248 TAP_TAPCELL_ROW_162_1732
*10249 TAP_TAPCELL_ROW_162_1733
*10250 TAP_TAPCELL_ROW_162_1734
*10251 TAP_TAPCELL_ROW_162_1735
*10252 TAP_TAPCELL_ROW_162_1736
*10253 TAP_TAPCELL_ROW_162_1737
*10254 TAP_TAPCELL_ROW_162_1738
*10255 TAP_TAPCELL_ROW_162_1739
*10256 TAP_TAPCELL_ROW_162_1740
*10257 TAP_TAPCELL_ROW_162_1741
*10258 TAP_TAPCELL_ROW_162_1742
*10259 TAP_TAPCELL_ROW_162_1743
*10260 TAP_TAPCELL_ROW_162_1744
*10261 TAP_TAPCELL_ROW_162_1745
*10262 TAP_TAPCELL_ROW_162_1746
*10263 TAP_TAPCELL_ROW_162_1747
*10264 TAP_TAPCELL_ROW_162_1748
*10265 TAP_TAPCELL_ROW_162_1749
*10266 TAP_TAPCELL_ROW_162_1750
*10267 TAP_TAPCELL_ROW_162_1751
*10268 TAP_TAPCELL_ROW_162_1752
*10269 TAP_TAPCELL_ROW_162_1753
*10270 TAP_TAPCELL_ROW_162_1754
*10271 TAP_TAPCELL_ROW_162_1755
*10272 TAP_TAPCELL_ROW_162_1756
*10273 TAP_TAPCELL_ROW_162_1757
*10274 TAP_TAPCELL_ROW_163_1758
*10275 TAP_TAPCELL_ROW_163_1759
*10276 TAP_TAPCELL_ROW_163_1760
*10277 TAP_TAPCELL_ROW_163_1761
*10278 TAP_TAPCELL_ROW_163_1762
*10279 TAP_TAPCELL_ROW_163_1763
*10280 TAP_TAPCELL_ROW_163_1764
*10281 TAP_TAPCELL_ROW_163_1765
*10282 TAP_TAPCELL_ROW_163_1766
*10283 TAP_TAPCELL_ROW_163_1767
*10284 TAP_TAPCELL_ROW_163_1768
*10285 TAP_TAPCELL_ROW_163_1769
*10286 TAP_TAPCELL_ROW_163_1770
*10287 TAP_TAPCELL_ROW_163_1771
*10288 TAP_TAPCELL_ROW_163_1772
*10289 TAP_TAPCELL_ROW_163_1773
*10290 TAP_TAPCELL_ROW_163_1774
*10291 TAP_TAPCELL_ROW_163_1775
*10292 TAP_TAPCELL_ROW_163_1776
*10293 TAP_TAPCELL_ROW_163_1777
*10294 TAP_TAPCELL_ROW_163_1778
*10295 TAP_TAPCELL_ROW_163_1779
*10296 TAP_TAPCELL_ROW_163_1780
*10297 TAP_TAPCELL_ROW_163_1781
*10298 TAP_TAPCELL_ROW_163_1782
*10299 TAP_TAPCELL_ROW_163_1783
*10300 TAP_TAPCELL_ROW_164_1784
*10301 TAP_TAPCELL_ROW_164_1785
*10302 TAP_TAPCELL_ROW_164_1786
*10303 TAP_TAPCELL_ROW_164_1787
*10304 TAP_TAPCELL_ROW_164_1788
*10305 TAP_TAPCELL_ROW_164_1789
*10306 TAP_TAPCELL_ROW_164_1790
*10307 TAP_TAPCELL_ROW_164_1791
*10308 TAP_TAPCELL_ROW_164_1792
*10309 TAP_TAPCELL_ROW_164_1793
*10310 TAP_TAPCELL_ROW_164_1794
*10311 TAP_TAPCELL_ROW_164_1795
*10312 TAP_TAPCELL_ROW_164_1796
*10313 TAP_TAPCELL_ROW_164_1797
*10314 TAP_TAPCELL_ROW_164_1798
*10315 TAP_TAPCELL_ROW_164_1799
*10316 TAP_TAPCELL_ROW_164_1800
*10317 TAP_TAPCELL_ROW_164_1801
*10318 TAP_TAPCELL_ROW_164_1802
*10319 TAP_TAPCELL_ROW_164_1803
*10320 TAP_TAPCELL_ROW_164_1804
*10321 TAP_TAPCELL_ROW_164_1805
*10322 TAP_TAPCELL_ROW_164_1806
*10323 TAP_TAPCELL_ROW_164_1807
*10324 TAP_TAPCELL_ROW_164_1808
*10325 TAP_TAPCELL_ROW_164_1809
*10326 TAP_TAPCELL_ROW_164_1810
*10327 TAP_TAPCELL_ROW_165_1811
*10328 TAP_TAPCELL_ROW_165_1812
*10329 TAP_TAPCELL_ROW_165_1813
*10330 TAP_TAPCELL_ROW_165_1814
*10331 TAP_TAPCELL_ROW_165_1815
*10332 TAP_TAPCELL_ROW_165_1816
*10333 TAP_TAPCELL_ROW_165_1817
*10334 TAP_TAPCELL_ROW_165_1818
*10335 TAP_TAPCELL_ROW_165_1819
*10336 TAP_TAPCELL_ROW_165_1820
*10337 TAP_TAPCELL_ROW_165_1821
*10338 TAP_TAPCELL_ROW_165_1822
*10339 TAP_TAPCELL_ROW_165_1823
*10340 TAP_TAPCELL_ROW_165_1824
*10341 TAP_TAPCELL_ROW_165_1825
*10342 TAP_TAPCELL_ROW_165_1826
*10343 TAP_TAPCELL_ROW_165_1827
*10344 TAP_TAPCELL_ROW_165_1828
*10345 TAP_TAPCELL_ROW_165_1829
*10346 TAP_TAPCELL_ROW_165_1830
*10347 TAP_TAPCELL_ROW_165_1831
*10348 TAP_TAPCELL_ROW_165_1832
*10349 TAP_TAPCELL_ROW_165_1833
*10350 TAP_TAPCELL_ROW_165_1834
*10351 TAP_TAPCELL_ROW_165_1835
*10352 TAP_TAPCELL_ROW_165_1836
*10353 TAP_TAPCELL_ROW_166_1837
*10354 TAP_TAPCELL_ROW_166_1838
*10355 TAP_TAPCELL_ROW_166_1839
*10356 TAP_TAPCELL_ROW_166_1840
*10357 TAP_TAPCELL_ROW_166_1841
*10358 TAP_TAPCELL_ROW_166_1842
*10359 TAP_TAPCELL_ROW_166_1843
*10360 TAP_TAPCELL_ROW_166_1844
*10361 TAP_TAPCELL_ROW_166_1845
*10362 TAP_TAPCELL_ROW_166_1846
*10363 TAP_TAPCELL_ROW_166_1847
*10364 TAP_TAPCELL_ROW_166_1848
*10365 TAP_TAPCELL_ROW_166_1849
*10366 TAP_TAPCELL_ROW_166_1850
*10367 TAP_TAPCELL_ROW_166_1851
*10368 TAP_TAPCELL_ROW_166_1852
*10369 TAP_TAPCELL_ROW_166_1853
*10370 TAP_TAPCELL_ROW_166_1854
*10371 TAP_TAPCELL_ROW_166_1855
*10372 TAP_TAPCELL_ROW_166_1856
*10373 TAP_TAPCELL_ROW_166_1857
*10374 TAP_TAPCELL_ROW_166_1858
*10375 TAP_TAPCELL_ROW_166_1859
*10376 TAP_TAPCELL_ROW_166_1860
*10377 TAP_TAPCELL_ROW_166_1861
*10378 TAP_TAPCELL_ROW_166_1862
*10379 TAP_TAPCELL_ROW_166_1863
*10380 TAP_TAPCELL_ROW_167_1864
*10381 TAP_TAPCELL_ROW_167_1865
*10382 TAP_TAPCELL_ROW_167_1866
*10383 TAP_TAPCELL_ROW_167_1867
*10384 TAP_TAPCELL_ROW_167_1868
*10385 TAP_TAPCELL_ROW_167_1869
*10386 TAP_TAPCELL_ROW_167_1870
*10387 TAP_TAPCELL_ROW_167_1871
*10388 TAP_TAPCELL_ROW_167_1872
*10389 TAP_TAPCELL_ROW_167_1873
*10390 TAP_TAPCELL_ROW_167_1874
*10391 TAP_TAPCELL_ROW_167_1875
*10392 TAP_TAPCELL_ROW_167_1876
*10393 TAP_TAPCELL_ROW_167_1877
*10394 TAP_TAPCELL_ROW_167_1878
*10395 TAP_TAPCELL_ROW_167_1879
*10396 TAP_TAPCELL_ROW_167_1880
*10397 TAP_TAPCELL_ROW_167_1881
*10398 TAP_TAPCELL_ROW_167_1882
*10399 TAP_TAPCELL_ROW_167_1883
*10400 TAP_TAPCELL_ROW_167_1884
*10401 TAP_TAPCELL_ROW_167_1885
*10402 TAP_TAPCELL_ROW_167_1886
*10403 TAP_TAPCELL_ROW_167_1887
*10404 TAP_TAPCELL_ROW_167_1888
*10405 TAP_TAPCELL_ROW_167_1889
*10406 TAP_TAPCELL_ROW_168_1890
*10407 TAP_TAPCELL_ROW_168_1891
*10408 TAP_TAPCELL_ROW_168_1892
*10409 TAP_TAPCELL_ROW_168_1893
*10410 TAP_TAPCELL_ROW_168_1894
*10411 TAP_TAPCELL_ROW_168_1895
*10412 TAP_TAPCELL_ROW_168_1896
*10413 TAP_TAPCELL_ROW_168_1897
*10414 TAP_TAPCELL_ROW_168_1898
*10415 TAP_TAPCELL_ROW_168_1899
*10416 TAP_TAPCELL_ROW_168_1900
*10417 TAP_TAPCELL_ROW_168_1901
*10418 TAP_TAPCELL_ROW_168_1902
*10419 TAP_TAPCELL_ROW_168_1903
*10420 TAP_TAPCELL_ROW_168_1904
*10421 TAP_TAPCELL_ROW_168_1905
*10422 TAP_TAPCELL_ROW_168_1906
*10423 TAP_TAPCELL_ROW_168_1907
*10424 TAP_TAPCELL_ROW_168_1908
*10425 TAP_TAPCELL_ROW_168_1909
*10426 TAP_TAPCELL_ROW_168_1910
*10427 TAP_TAPCELL_ROW_168_1911
*10428 TAP_TAPCELL_ROW_168_1912
*10429 TAP_TAPCELL_ROW_168_1913
*10430 TAP_TAPCELL_ROW_168_1914
*10431 TAP_TAPCELL_ROW_168_1915
*10432 TAP_TAPCELL_ROW_168_1916
*10433 TAP_TAPCELL_ROW_169_1917
*10434 TAP_TAPCELL_ROW_169_1918
*10435 TAP_TAPCELL_ROW_169_1919
*10436 TAP_TAPCELL_ROW_169_1920
*10437 TAP_TAPCELL_ROW_169_1921
*10438 TAP_TAPCELL_ROW_169_1922
*10439 TAP_TAPCELL_ROW_169_1923
*10440 TAP_TAPCELL_ROW_169_1924
*10441 TAP_TAPCELL_ROW_169_1925
*10442 TAP_TAPCELL_ROW_169_1926
*10443 TAP_TAPCELL_ROW_169_1927
*10444 TAP_TAPCELL_ROW_169_1928
*10445 TAP_TAPCELL_ROW_169_1929
*10446 TAP_TAPCELL_ROW_169_1930
*10447 TAP_TAPCELL_ROW_169_1931
*10448 TAP_TAPCELL_ROW_169_1932
*10449 TAP_TAPCELL_ROW_169_1933
*10450 TAP_TAPCELL_ROW_169_1934
*10451 TAP_TAPCELL_ROW_169_1935
*10452 TAP_TAPCELL_ROW_169_1936
*10453 TAP_TAPCELL_ROW_169_1937
*10454 TAP_TAPCELL_ROW_169_1938
*10455 TAP_TAPCELL_ROW_169_1939
*10456 TAP_TAPCELL_ROW_169_1940
*10457 TAP_TAPCELL_ROW_169_1941
*10458 TAP_TAPCELL_ROW_169_1942
*10459 TAP_TAPCELL_ROW_169_1943
*10460 TAP_TAPCELL_ROW_169_1944
*10461 TAP_TAPCELL_ROW_169_1945
*10462 TAP_TAPCELL_ROW_169_1946
*10463 TAP_TAPCELL_ROW_169_1947
*10464 TAP_TAPCELL_ROW_169_1948
*10465 TAP_TAPCELL_ROW_169_1949
*10466 TAP_TAPCELL_ROW_169_1950
*10467 TAP_TAPCELL_ROW_169_1951
*10468 TAP_TAPCELL_ROW_169_1952
*10469 TAP_TAPCELL_ROW_169_1953
*10470 TAP_TAPCELL_ROW_169_1954
*10471 TAP_TAPCELL_ROW_169_1955
*10472 TAP_TAPCELL_ROW_169_1956
*10473 TAP_TAPCELL_ROW_169_1957
*10474 TAP_TAPCELL_ROW_169_1958
*10475 TAP_TAPCELL_ROW_169_1959
*10476 TAP_TAPCELL_ROW_169_1960
*10477 TAP_TAPCELL_ROW_169_1961
*10478 TAP_TAPCELL_ROW_169_1962
*10479 TAP_TAPCELL_ROW_169_1963
*10480 TAP_TAPCELL_ROW_169_1964
*10481 TAP_TAPCELL_ROW_169_1965
*10482 TAP_TAPCELL_ROW_169_1966
*10483 TAP_TAPCELL_ROW_169_1967
*10484 TAP_TAPCELL_ROW_169_1968
*10485 TAP_TAPCELL_ROW_169_1969
*10486 TAP_TAPCELL_ROW_16_2_1552
*10487 TAP_TAPCELL_ROW_16_3_2287
*10488 TAP_TAPCELL_ROW_170_2_1624
*10489 TAP_TAPCELL_ROW_170_3_2359
*10490 TAP_TAPCELL_ROW_172_2_1970
*10491 TAP_TAPCELL_ROW_172_3_2360
*10492 TAP_TAPCELL_ROW_174_2_1971
*10493 TAP_TAPCELL_ROW_174_3_2361
*10494 TAP_TAPCELL_ROW_176_2_1972
*10495 TAP_TAPCELL_ROW_176_3_2362
*10496 TAP_TAPCELL_ROW_178_2_1973
*10497 TAP_TAPCELL_ROW_178_3_2363
*10498 TAP_TAPCELL_ROW_180_2_1974
*10499 TAP_TAPCELL_ROW_180_3_2364
*10500 TAP_TAPCELL_ROW_182_2_1975
*10501 TAP_TAPCELL_ROW_182_3_2365
*10502 TAP_TAPCELL_ROW_184_2_1976
*10503 TAP_TAPCELL_ROW_184_3_2366
*10504 TAP_TAPCELL_ROW_186_2_1977
*10505 TAP_TAPCELL_ROW_186_3_2367
*10506 TAP_TAPCELL_ROW_188_2_1978
*10507 TAP_TAPCELL_ROW_188_3_2368
*10508 TAP_TAPCELL_ROW_18_2_1553
*10509 TAP_TAPCELL_ROW_18_3_2288
*10510 TAP_TAPCELL_ROW_190_2_1979
*10511 TAP_TAPCELL_ROW_190_3_2369
*10512 TAP_TAPCELL_ROW_192_2_1980
*10513 TAP_TAPCELL_ROW_192_3_2370
*10514 TAP_TAPCELL_ROW_194_2_1981
*10515 TAP_TAPCELL_ROW_194_3_2371
*10516 TAP_TAPCELL_ROW_196_2_1982
*10517 TAP_TAPCELL_ROW_196_3_2372
*10518 TAP_TAPCELL_ROW_198_2_1983
*10519 TAP_TAPCELL_ROW_198_3_2373
*10520 TAP_TAPCELL_ROW_1_1311
*10521 TAP_TAPCELL_ROW_1_1312
*10522 TAP_TAPCELL_ROW_1_1313
*10523 TAP_TAPCELL_ROW_1_1314
*10524 TAP_TAPCELL_ROW_1_1315
*10525 TAP_TAPCELL_ROW_1_1316
*10526 TAP_TAPCELL_ROW_1_1317
*10527 TAP_TAPCELL_ROW_1_1318
*10528 TAP_TAPCELL_ROW_1_1319
*10529 TAP_TAPCELL_ROW_1_1320
*10530 TAP_TAPCELL_ROW_1_1321
*10531 TAP_TAPCELL_ROW_1_1322
*10532 TAP_TAPCELL_ROW_1_1323
*10533 TAP_TAPCELL_ROW_1_1324
*10534 TAP_TAPCELL_ROW_1_1325
*10535 TAP_TAPCELL_ROW_1_1326
*10536 TAP_TAPCELL_ROW_1_1327
*10537 TAP_TAPCELL_ROW_1_1328
*10538 TAP_TAPCELL_ROW_1_1329
*10539 TAP_TAPCELL_ROW_1_1330
*10540 TAP_TAPCELL_ROW_1_1331
*10541 TAP_TAPCELL_ROW_1_1332
*10542 TAP_TAPCELL_ROW_1_1333
*10543 TAP_TAPCELL_ROW_1_1334
*10544 TAP_TAPCELL_ROW_1_1335
*10545 TAP_TAPCELL_ROW_1_1336
*10546 TAP_TAPCELL_ROW_200_2_1984
*10547 TAP_TAPCELL_ROW_200_3_2374
*10548 TAP_TAPCELL_ROW_202_2_1985
*10549 TAP_TAPCELL_ROW_202_3_2375
*10550 TAP_TAPCELL_ROW_204_2_1986
*10551 TAP_TAPCELL_ROW_204_3_2376
*10552 TAP_TAPCELL_ROW_206_2_1987
*10553 TAP_TAPCELL_ROW_206_3_2377
*10554 TAP_TAPCELL_ROW_208_2_1988
*10555 TAP_TAPCELL_ROW_208_3_2378
*10556 TAP_TAPCELL_ROW_20_2_1554
*10557 TAP_TAPCELL_ROW_20_3_2289
*10558 TAP_TAPCELL_ROW_210_2_1989
*10559 TAP_TAPCELL_ROW_210_3_2379
*10560 TAP_TAPCELL_ROW_212_2_1990
*10561 TAP_TAPCELL_ROW_212_3_2380
*10562 TAP_TAPCELL_ROW_214_2_1991
*10563 TAP_TAPCELL_ROW_214_3_2381
*10564 TAP_TAPCELL_ROW_216_2_1992
*10565 TAP_TAPCELL_ROW_216_3_2382
*10566 TAP_TAPCELL_ROW_218_2_1993
*10567 TAP_TAPCELL_ROW_218_3_2383
*10568 TAP_TAPCELL_ROW_220_2_1994
*10569 TAP_TAPCELL_ROW_220_3_2384
*10570 TAP_TAPCELL_ROW_222_2_1995
*10571 TAP_TAPCELL_ROW_222_3_2385
*10572 TAP_TAPCELL_ROW_224_2_1996
*10573 TAP_TAPCELL_ROW_224_3_2386
*10574 TAP_TAPCELL_ROW_226_2_1997
*10575 TAP_TAPCELL_ROW_226_3_2387
*10576 TAP_TAPCELL_ROW_228_2_1998
*10577 TAP_TAPCELL_ROW_228_3_2388
*10578 TAP_TAPCELL_ROW_22_2_1555
*10579 TAP_TAPCELL_ROW_22_3_2290
*10580 TAP_TAPCELL_ROW_230_2_1999
*10581 TAP_TAPCELL_ROW_230_3_2389
*10582 TAP_TAPCELL_ROW_232_2_2000
*10583 TAP_TAPCELL_ROW_232_3_2390
*10584 TAP_TAPCELL_ROW_234_2_2001
*10585 TAP_TAPCELL_ROW_234_3_2391
*10586 TAP_TAPCELL_ROW_236_2_2002
*10587 TAP_TAPCELL_ROW_236_3_2392
*10588 TAP_TAPCELL_ROW_238_2_2003
*10589 TAP_TAPCELL_ROW_238_3_2393
*10590 TAP_TAPCELL_ROW_240_2_2004
*10591 TAP_TAPCELL_ROW_240_3_2394
*10592 TAP_TAPCELL_ROW_242_2_2005
*10593 TAP_TAPCELL_ROW_242_3_2395
*10594 TAP_TAPCELL_ROW_244_2_2006
*10595 TAP_TAPCELL_ROW_244_3_2396
*10596 TAP_TAPCELL_ROW_246_2_2007
*10597 TAP_TAPCELL_ROW_246_3_2397
*10598 TAP_TAPCELL_ROW_248_2_2008
*10599 TAP_TAPCELL_ROW_248_3_2398
*10600 TAP_TAPCELL_ROW_24_2_1556
*10601 TAP_TAPCELL_ROW_24_3_2291
*10602 TAP_TAPCELL_ROW_250_2_2009
*10603 TAP_TAPCELL_ROW_250_3_2399
*10604 TAP_TAPCELL_ROW_252_2_2010
*10605 TAP_TAPCELL_ROW_252_3_2400
*10606 TAP_TAPCELL_ROW_254_2_2011
*10607 TAP_TAPCELL_ROW_254_3_2401
*10608 TAP_TAPCELL_ROW_256_2_2012
*10609 TAP_TAPCELL_ROW_256_3_2402
*10610 TAP_TAPCELL_ROW_258_2_2013
*10611 TAP_TAPCELL_ROW_258_3_2403
*10612 TAP_TAPCELL_ROW_260_2_2014
*10613 TAP_TAPCELL_ROW_260_3_2404
*10614 TAP_TAPCELL_ROW_262_2_2015
*10615 TAP_TAPCELL_ROW_262_3_2405
*10616 TAP_TAPCELL_ROW_264_2_2016
*10617 TAP_TAPCELL_ROW_264_3_2406
*10618 TAP_TAPCELL_ROW_266_2_2017
*10619 TAP_TAPCELL_ROW_266_3_2407
*10620 TAP_TAPCELL_ROW_268_2_2018
*10621 TAP_TAPCELL_ROW_268_3_2408
*10622 TAP_TAPCELL_ROW_26_2_1557
*10623 TAP_TAPCELL_ROW_26_3_2292
*10624 TAP_TAPCELL_ROW_270_2_2019
*10625 TAP_TAPCELL_ROW_270_3_2409
*10626 TAP_TAPCELL_ROW_272_2_2020
*10627 TAP_TAPCELL_ROW_272_3_2410
*10628 TAP_TAPCELL_ROW_274_2_2021
*10629 TAP_TAPCELL_ROW_274_3_2411
*10630 TAP_TAPCELL_ROW_276_2_2022
*10631 TAP_TAPCELL_ROW_276_3_2412
*10632 TAP_TAPCELL_ROW_278_2_2023
*10633 TAP_TAPCELL_ROW_278_3_2413
*10634 TAP_TAPCELL_ROW_280_2_2024
*10635 TAP_TAPCELL_ROW_280_3_2414
*10636 TAP_TAPCELL_ROW_282_2_2025
*10637 TAP_TAPCELL_ROW_282_3_2415
*10638 TAP_TAPCELL_ROW_284_2_2026
*10639 TAP_TAPCELL_ROW_284_3_2416
*10640 TAP_TAPCELL_ROW_286_2_2027
*10641 TAP_TAPCELL_ROW_286_3_2417
*10642 TAP_TAPCELL_ROW_288_2_2028
*10643 TAP_TAPCELL_ROW_288_3_2418
*10644 TAP_TAPCELL_ROW_28_2_1558
*10645 TAP_TAPCELL_ROW_28_3_2293
*10646 TAP_TAPCELL_ROW_290_2_2029
*10647 TAP_TAPCELL_ROW_290_3_2419
*10648 TAP_TAPCELL_ROW_292_2_2030
*10649 TAP_TAPCELL_ROW_292_3_2420
*10650 TAP_TAPCELL_ROW_294_2_2031
*10651 TAP_TAPCELL_ROW_294_3_2421
*10652 TAP_TAPCELL_ROW_296_2_2032
*10653 TAP_TAPCELL_ROW_296_3_2422
*10654 TAP_TAPCELL_ROW_298_2_2033
*10655 TAP_TAPCELL_ROW_298_3_2423
*10656 TAP_TAPCELL_ROW_2_1337
*10657 TAP_TAPCELL_ROW_2_1338
*10658 TAP_TAPCELL_ROW_2_1339
*10659 TAP_TAPCELL_ROW_2_1340
*10660 TAP_TAPCELL_ROW_2_1341
*10661 TAP_TAPCELL_ROW_2_1342
*10662 TAP_TAPCELL_ROW_2_1343
*10663 TAP_TAPCELL_ROW_2_1344
*10664 TAP_TAPCELL_ROW_2_1345
*10665 TAP_TAPCELL_ROW_2_1346
*10666 TAP_TAPCELL_ROW_2_1347
*10667 TAP_TAPCELL_ROW_2_1348
*10668 TAP_TAPCELL_ROW_2_1349
*10669 TAP_TAPCELL_ROW_2_1350
*10670 TAP_TAPCELL_ROW_2_1351
*10671 TAP_TAPCELL_ROW_2_1352
*10672 TAP_TAPCELL_ROW_2_1353
*10673 TAP_TAPCELL_ROW_2_1354
*10674 TAP_TAPCELL_ROW_2_1355
*10675 TAP_TAPCELL_ROW_2_1356
*10676 TAP_TAPCELL_ROW_2_1357
*10677 TAP_TAPCELL_ROW_2_1358
*10678 TAP_TAPCELL_ROW_2_1359
*10679 TAP_TAPCELL_ROW_2_1360
*10680 TAP_TAPCELL_ROW_2_1361
*10681 TAP_TAPCELL_ROW_2_1362
*10682 TAP_TAPCELL_ROW_2_1363
*10683 TAP_TAPCELL_ROW_300_2_2034
*10684 TAP_TAPCELL_ROW_300_3_2424
*10685 TAP_TAPCELL_ROW_302_2_2035
*10686 TAP_TAPCELL_ROW_302_3_2425
*10687 TAP_TAPCELL_ROW_304_2_2036
*10688 TAP_TAPCELL_ROW_304_3_2426
*10689 TAP_TAPCELL_ROW_306_2_2037
*10690 TAP_TAPCELL_ROW_306_3_2427
*10691 TAP_TAPCELL_ROW_308_2_2038
*10692 TAP_TAPCELL_ROW_308_3_2428
*10693 TAP_TAPCELL_ROW_30_2_1559
*10694 TAP_TAPCELL_ROW_30_3_2294
*10695 TAP_TAPCELL_ROW_310_2_2039
*10696 TAP_TAPCELL_ROW_310_3_2429
*10697 TAP_TAPCELL_ROW_312_2_2040
*10698 TAP_TAPCELL_ROW_312_3_2430
*10699 TAP_TAPCELL_ROW_314_2_2041
*10700 TAP_TAPCELL_ROW_314_3_2431
*10701 TAP_TAPCELL_ROW_316_2_2042
*10702 TAP_TAPCELL_ROW_316_3_2432
*10703 TAP_TAPCELL_ROW_318_2_2043
*10704 TAP_TAPCELL_ROW_318_3_2433
*10705 TAP_TAPCELL_ROW_320_2_2044
*10706 TAP_TAPCELL_ROW_320_3_2434
*10707 TAP_TAPCELL_ROW_321_2045
*10708 TAP_TAPCELL_ROW_321_2046
*10709 TAP_TAPCELL_ROW_321_2047
*10710 TAP_TAPCELL_ROW_321_2048
*10711 TAP_TAPCELL_ROW_321_2049
*10712 TAP_TAPCELL_ROW_321_2050
*10713 TAP_TAPCELL_ROW_321_2051
*10714 TAP_TAPCELL_ROW_321_2052
*10715 TAP_TAPCELL_ROW_321_2053
*10716 TAP_TAPCELL_ROW_321_2054
*10717 TAP_TAPCELL_ROW_321_2055
*10718 TAP_TAPCELL_ROW_321_2056
*10719 TAP_TAPCELL_ROW_321_2057
*10720 TAP_TAPCELL_ROW_321_2058
*10721 TAP_TAPCELL_ROW_321_2059
*10722 TAP_TAPCELL_ROW_321_2060
*10723 TAP_TAPCELL_ROW_321_2061
*10724 TAP_TAPCELL_ROW_321_2062
*10725 TAP_TAPCELL_ROW_321_2063
*10726 TAP_TAPCELL_ROW_321_2064
*10727 TAP_TAPCELL_ROW_321_2065
*10728 TAP_TAPCELL_ROW_321_2066
*10729 TAP_TAPCELL_ROW_321_2067
*10730 TAP_TAPCELL_ROW_321_2068
*10731 TAP_TAPCELL_ROW_321_2069
*10732 TAP_TAPCELL_ROW_321_2070
*10733 TAP_TAPCELL_ROW_321_2071
*10734 TAP_TAPCELL_ROW_321_2072
*10735 TAP_TAPCELL_ROW_321_2073
*10736 TAP_TAPCELL_ROW_321_2074
*10737 TAP_TAPCELL_ROW_321_2075
*10738 TAP_TAPCELL_ROW_321_2076
*10739 TAP_TAPCELL_ROW_321_2077
*10740 TAP_TAPCELL_ROW_321_2078
*10741 TAP_TAPCELL_ROW_321_2079
*10742 TAP_TAPCELL_ROW_321_2080
*10743 TAP_TAPCELL_ROW_321_2081
*10744 TAP_TAPCELL_ROW_321_2082
*10745 TAP_TAPCELL_ROW_321_2083
*10746 TAP_TAPCELL_ROW_321_2084
*10747 TAP_TAPCELL_ROW_321_2085
*10748 TAP_TAPCELL_ROW_321_2086
*10749 TAP_TAPCELL_ROW_321_2087
*10750 TAP_TAPCELL_ROW_321_2088
*10751 TAP_TAPCELL_ROW_321_2089
*10752 TAP_TAPCELL_ROW_321_2090
*10753 TAP_TAPCELL_ROW_321_2091
*10754 TAP_TAPCELL_ROW_321_2092
*10755 TAP_TAPCELL_ROW_321_2093
*10756 TAP_TAPCELL_ROW_321_2094
*10757 TAP_TAPCELL_ROW_321_2095
*10758 TAP_TAPCELL_ROW_321_2096
*10759 TAP_TAPCELL_ROW_321_2097
*10760 TAP_TAPCELL_ROW_322_2098
*10761 TAP_TAPCELL_ROW_322_2099
*10762 TAP_TAPCELL_ROW_322_2100
*10763 TAP_TAPCELL_ROW_322_2101
*10764 TAP_TAPCELL_ROW_322_2102
*10765 TAP_TAPCELL_ROW_322_2103
*10766 TAP_TAPCELL_ROW_322_2104
*10767 TAP_TAPCELL_ROW_322_2105
*10768 TAP_TAPCELL_ROW_322_2106
*10769 TAP_TAPCELL_ROW_322_2107
*10770 TAP_TAPCELL_ROW_322_2108
*10771 TAP_TAPCELL_ROW_322_2109
*10772 TAP_TAPCELL_ROW_322_2110
*10773 TAP_TAPCELL_ROW_322_2111
*10774 TAP_TAPCELL_ROW_322_2112
*10775 TAP_TAPCELL_ROW_322_2113
*10776 TAP_TAPCELL_ROW_322_2114
*10777 TAP_TAPCELL_ROW_322_2115
*10778 TAP_TAPCELL_ROW_322_2116
*10779 TAP_TAPCELL_ROW_322_2117
*10780 TAP_TAPCELL_ROW_322_2118
*10781 TAP_TAPCELL_ROW_322_2119
*10782 TAP_TAPCELL_ROW_322_2120
*10783 TAP_TAPCELL_ROW_322_2121
*10784 TAP_TAPCELL_ROW_322_2122
*10785 TAP_TAPCELL_ROW_322_2123
*10786 TAP_TAPCELL_ROW_322_2124
*10787 TAP_TAPCELL_ROW_323_2125
*10788 TAP_TAPCELL_ROW_323_2126
*10789 TAP_TAPCELL_ROW_323_2127
*10790 TAP_TAPCELL_ROW_323_2128
*10791 TAP_TAPCELL_ROW_323_2129
*10792 TAP_TAPCELL_ROW_323_2130
*10793 TAP_TAPCELL_ROW_323_2131
*10794 TAP_TAPCELL_ROW_323_2132
*10795 TAP_TAPCELL_ROW_323_2133
*10796 TAP_TAPCELL_ROW_323_2134
*10797 TAP_TAPCELL_ROW_323_2135
*10798 TAP_TAPCELL_ROW_323_2136
*10799 TAP_TAPCELL_ROW_323_2137
*10800 TAP_TAPCELL_ROW_323_2138
*10801 TAP_TAPCELL_ROW_323_2139
*10802 TAP_TAPCELL_ROW_323_2140
*10803 TAP_TAPCELL_ROW_323_2141
*10804 TAP_TAPCELL_ROW_323_2142
*10805 TAP_TAPCELL_ROW_323_2143
*10806 TAP_TAPCELL_ROW_323_2144
*10807 TAP_TAPCELL_ROW_323_2145
*10808 TAP_TAPCELL_ROW_323_2146
*10809 TAP_TAPCELL_ROW_323_2147
*10810 TAP_TAPCELL_ROW_323_2148
*10811 TAP_TAPCELL_ROW_323_2149
*10812 TAP_TAPCELL_ROW_323_2150
*10813 TAP_TAPCELL_ROW_324_2151
*10814 TAP_TAPCELL_ROW_324_2152
*10815 TAP_TAPCELL_ROW_324_2153
*10816 TAP_TAPCELL_ROW_324_2154
*10817 TAP_TAPCELL_ROW_324_2155
*10818 TAP_TAPCELL_ROW_324_2156
*10819 TAP_TAPCELL_ROW_324_2157
*10820 TAP_TAPCELL_ROW_324_2158
*10821 TAP_TAPCELL_ROW_324_2159
*10822 TAP_TAPCELL_ROW_324_2160
*10823 TAP_TAPCELL_ROW_324_2161
*10824 TAP_TAPCELL_ROW_324_2162
*10825 TAP_TAPCELL_ROW_324_2163
*10826 TAP_TAPCELL_ROW_324_2164
*10827 TAP_TAPCELL_ROW_324_2165
*10828 TAP_TAPCELL_ROW_324_2166
*10829 TAP_TAPCELL_ROW_324_2167
*10830 TAP_TAPCELL_ROW_324_2168
*10831 TAP_TAPCELL_ROW_324_2169
*10832 TAP_TAPCELL_ROW_324_2170
*10833 TAP_TAPCELL_ROW_324_2171
*10834 TAP_TAPCELL_ROW_324_2172
*10835 TAP_TAPCELL_ROW_324_2173
*10836 TAP_TAPCELL_ROW_324_2174
*10837 TAP_TAPCELL_ROW_324_2175
*10838 TAP_TAPCELL_ROW_324_2176
*10839 TAP_TAPCELL_ROW_324_2177
*10840 TAP_TAPCELL_ROW_325_2178
*10841 TAP_TAPCELL_ROW_325_2179
*10842 TAP_TAPCELL_ROW_325_2180
*10843 TAP_TAPCELL_ROW_325_2181
*10844 TAP_TAPCELL_ROW_325_2182
*10845 TAP_TAPCELL_ROW_325_2183
*10846 TAP_TAPCELL_ROW_325_2184
*10847 TAP_TAPCELL_ROW_325_2185
*10848 TAP_TAPCELL_ROW_325_2186
*10849 TAP_TAPCELL_ROW_325_2187
*10850 TAP_TAPCELL_ROW_325_2188
*10851 TAP_TAPCELL_ROW_325_2189
*10852 TAP_TAPCELL_ROW_325_2190
*10853 TAP_TAPCELL_ROW_325_2191
*10854 TAP_TAPCELL_ROW_325_2192
*10855 TAP_TAPCELL_ROW_325_2193
*10856 TAP_TAPCELL_ROW_325_2194
*10857 TAP_TAPCELL_ROW_325_2195
*10858 TAP_TAPCELL_ROW_325_2196
*10859 TAP_TAPCELL_ROW_325_2197
*10860 TAP_TAPCELL_ROW_325_2198
*10861 TAP_TAPCELL_ROW_325_2199
*10862 TAP_TAPCELL_ROW_325_2200
*10863 TAP_TAPCELL_ROW_325_2201
*10864 TAP_TAPCELL_ROW_325_2202
*10865 TAP_TAPCELL_ROW_325_2203
*10866 TAP_TAPCELL_ROW_326_2204
*10867 TAP_TAPCELL_ROW_326_2205
*10868 TAP_TAPCELL_ROW_326_2206
*10869 TAP_TAPCELL_ROW_326_2207
*10870 TAP_TAPCELL_ROW_326_2208
*10871 TAP_TAPCELL_ROW_326_2209
*10872 TAP_TAPCELL_ROW_326_2210
*10873 TAP_TAPCELL_ROW_326_2211
*10874 TAP_TAPCELL_ROW_326_2212
*10875 TAP_TAPCELL_ROW_326_2213
*10876 TAP_TAPCELL_ROW_326_2214
*10877 TAP_TAPCELL_ROW_326_2215
*10878 TAP_TAPCELL_ROW_326_2216
*10879 TAP_TAPCELL_ROW_326_2217
*10880 TAP_TAPCELL_ROW_326_2218
*10881 TAP_TAPCELL_ROW_326_2219
*10882 TAP_TAPCELL_ROW_326_2220
*10883 TAP_TAPCELL_ROW_326_2221
*10884 TAP_TAPCELL_ROW_326_2222
*10885 TAP_TAPCELL_ROW_326_2223
*10886 TAP_TAPCELL_ROW_326_2224
*10887 TAP_TAPCELL_ROW_326_2225
*10888 TAP_TAPCELL_ROW_326_2226
*10889 TAP_TAPCELL_ROW_326_2227
*10890 TAP_TAPCELL_ROW_326_2228
*10891 TAP_TAPCELL_ROW_326_2229
*10892 TAP_TAPCELL_ROW_326_2230
*10893 TAP_TAPCELL_ROW_327_2231
*10894 TAP_TAPCELL_ROW_327_2232
*10895 TAP_TAPCELL_ROW_327_2233
*10896 TAP_TAPCELL_ROW_327_2234
*10897 TAP_TAPCELL_ROW_327_2235
*10898 TAP_TAPCELL_ROW_327_2236
*10899 TAP_TAPCELL_ROW_327_2237
*10900 TAP_TAPCELL_ROW_327_2238
*10901 TAP_TAPCELL_ROW_327_2239
*10902 TAP_TAPCELL_ROW_327_2240
*10903 TAP_TAPCELL_ROW_327_2241
*10904 TAP_TAPCELL_ROW_327_2242
*10905 TAP_TAPCELL_ROW_327_2243
*10906 TAP_TAPCELL_ROW_327_2244
*10907 TAP_TAPCELL_ROW_327_2245
*10908 TAP_TAPCELL_ROW_327_2246
*10909 TAP_TAPCELL_ROW_327_2247
*10910 TAP_TAPCELL_ROW_327_2248
*10911 TAP_TAPCELL_ROW_327_2249
*10912 TAP_TAPCELL_ROW_327_2250
*10913 TAP_TAPCELL_ROW_327_2251
*10914 TAP_TAPCELL_ROW_327_2252
*10915 TAP_TAPCELL_ROW_327_2253
*10916 TAP_TAPCELL_ROW_327_2254
*10917 TAP_TAPCELL_ROW_327_2255
*10918 TAP_TAPCELL_ROW_327_2256
*10919 TAP_TAPCELL_ROW_327_2257
*10920 TAP_TAPCELL_ROW_327_2258
*10921 TAP_TAPCELL_ROW_327_2259
*10922 TAP_TAPCELL_ROW_327_2260
*10923 TAP_TAPCELL_ROW_327_2261
*10924 TAP_TAPCELL_ROW_327_2262
*10925 TAP_TAPCELL_ROW_327_2263
*10926 TAP_TAPCELL_ROW_327_2264
*10927 TAP_TAPCELL_ROW_327_2265
*10928 TAP_TAPCELL_ROW_327_2266
*10929 TAP_TAPCELL_ROW_327_2267
*10930 TAP_TAPCELL_ROW_327_2268
*10931 TAP_TAPCELL_ROW_327_2269
*10932 TAP_TAPCELL_ROW_327_2270
*10933 TAP_TAPCELL_ROW_327_2271
*10934 TAP_TAPCELL_ROW_327_2272
*10935 TAP_TAPCELL_ROW_327_2273
*10936 TAP_TAPCELL_ROW_327_2274
*10937 TAP_TAPCELL_ROW_327_2275
*10938 TAP_TAPCELL_ROW_327_2276
*10939 TAP_TAPCELL_ROW_327_2277
*10940 TAP_TAPCELL_ROW_327_2278
*10941 TAP_TAPCELL_ROW_327_2279
*10942 TAP_TAPCELL_ROW_327_2280
*10943 TAP_TAPCELL_ROW_327_2281
*10944 TAP_TAPCELL_ROW_327_2282
*10945 TAP_TAPCELL_ROW_327_2283
*10946 TAP_TAPCELL_ROW_32_2_1560
*10947 TAP_TAPCELL_ROW_32_3_2295
*10948 TAP_TAPCELL_ROW_34_2_1561
*10949 TAP_TAPCELL_ROW_34_3_2296
*10950 TAP_TAPCELL_ROW_36_2_1562
*10951 TAP_TAPCELL_ROW_36_3_2297
*10952 TAP_TAPCELL_ROW_38_2_1563
*10953 TAP_TAPCELL_ROW_38_3_2298
*10954 TAP_TAPCELL_ROW_3_1364
*10955 TAP_TAPCELL_ROW_3_1365
*10956 TAP_TAPCELL_ROW_3_1366
*10957 TAP_TAPCELL_ROW_3_1367
*10958 TAP_TAPCELL_ROW_3_1368
*10959 TAP_TAPCELL_ROW_3_1369
*10960 TAP_TAPCELL_ROW_3_1370
*10961 TAP_TAPCELL_ROW_3_1371
*10962 TAP_TAPCELL_ROW_3_1372
*10963 TAP_TAPCELL_ROW_3_1373
*10964 TAP_TAPCELL_ROW_3_1374
*10965 TAP_TAPCELL_ROW_3_1375
*10966 TAP_TAPCELL_ROW_3_1376
*10967 TAP_TAPCELL_ROW_3_1377
*10968 TAP_TAPCELL_ROW_3_1378
*10969 TAP_TAPCELL_ROW_3_1379
*10970 TAP_TAPCELL_ROW_3_1380
*10971 TAP_TAPCELL_ROW_3_1381
*10972 TAP_TAPCELL_ROW_3_1382
*10973 TAP_TAPCELL_ROW_3_1383
*10974 TAP_TAPCELL_ROW_3_1384
*10975 TAP_TAPCELL_ROW_3_1385
*10976 TAP_TAPCELL_ROW_3_1386
*10977 TAP_TAPCELL_ROW_3_1387
*10978 TAP_TAPCELL_ROW_3_1388
*10979 TAP_TAPCELL_ROW_3_1389
*10980 TAP_TAPCELL_ROW_40_2_1564
*10981 TAP_TAPCELL_ROW_40_3_2299
*10982 TAP_TAPCELL_ROW_42_2_1565
*10983 TAP_TAPCELL_ROW_42_3_2300
*10984 TAP_TAPCELL_ROW_44_2_1566
*10985 TAP_TAPCELL_ROW_44_3_2301
*10986 TAP_TAPCELL_ROW_46_2_1567
*10987 TAP_TAPCELL_ROW_46_3_2302
*10988 TAP_TAPCELL_ROW_48_2_1568
*10989 TAP_TAPCELL_ROW_48_3_2303
*10990 TAP_TAPCELL_ROW_4_1390
*10991 TAP_TAPCELL_ROW_4_1391
*10992 TAP_TAPCELL_ROW_4_1392
*10993 TAP_TAPCELL_ROW_4_1393
*10994 TAP_TAPCELL_ROW_4_1394
*10995 TAP_TAPCELL_ROW_4_1395
*10996 TAP_TAPCELL_ROW_4_1396
*10997 TAP_TAPCELL_ROW_4_1397
*10998 TAP_TAPCELL_ROW_4_1398
*10999 TAP_TAPCELL_ROW_4_1399
*11000 TAP_TAPCELL_ROW_4_1400
*11001 TAP_TAPCELL_ROW_4_1401
*11002 TAP_TAPCELL_ROW_4_1402
*11003 TAP_TAPCELL_ROW_4_1403
*11004 TAP_TAPCELL_ROW_4_1404
*11005 TAP_TAPCELL_ROW_4_1405
*11006 TAP_TAPCELL_ROW_4_1406
*11007 TAP_TAPCELL_ROW_4_1407
*11008 TAP_TAPCELL_ROW_4_1408
*11009 TAP_TAPCELL_ROW_4_1409
*11010 TAP_TAPCELL_ROW_4_1410
*11011 TAP_TAPCELL_ROW_4_1411
*11012 TAP_TAPCELL_ROW_4_1412
*11013 TAP_TAPCELL_ROW_4_1413
*11014 TAP_TAPCELL_ROW_4_1414
*11015 TAP_TAPCELL_ROW_4_1415
*11016 TAP_TAPCELL_ROW_4_1416
*11017 TAP_TAPCELL_ROW_50_2_1569
*11018 TAP_TAPCELL_ROW_50_3_2304
*11019 TAP_TAPCELL_ROW_52_2_1570
*11020 TAP_TAPCELL_ROW_52_3_2305
*11021 TAP_TAPCELL_ROW_54_2_1571
*11022 TAP_TAPCELL_ROW_54_3_2306
*11023 TAP_TAPCELL_ROW_56_2_1572
*11024 TAP_TAPCELL_ROW_56_3_2307
*11025 TAP_TAPCELL_ROW_58_2_1573
*11026 TAP_TAPCELL_ROW_58_3_2308
*11027 TAP_TAPCELL_ROW_5_1417
*11028 TAP_TAPCELL_ROW_5_1418
*11029 TAP_TAPCELL_ROW_5_1419
*11030 TAP_TAPCELL_ROW_5_1420
*11031 TAP_TAPCELL_ROW_5_1421
*11032 TAP_TAPCELL_ROW_5_1422
*11033 TAP_TAPCELL_ROW_5_1423
*11034 TAP_TAPCELL_ROW_5_1424
*11035 TAP_TAPCELL_ROW_5_1425
*11036 TAP_TAPCELL_ROW_5_1426
*11037 TAP_TAPCELL_ROW_5_1427
*11038 TAP_TAPCELL_ROW_5_1428
*11039 TAP_TAPCELL_ROW_5_1429
*11040 TAP_TAPCELL_ROW_5_1430
*11041 TAP_TAPCELL_ROW_5_1431
*11042 TAP_TAPCELL_ROW_5_1432
*11043 TAP_TAPCELL_ROW_5_1433
*11044 TAP_TAPCELL_ROW_5_1434
*11045 TAP_TAPCELL_ROW_5_1435
*11046 TAP_TAPCELL_ROW_5_1436
*11047 TAP_TAPCELL_ROW_5_1437
*11048 TAP_TAPCELL_ROW_5_1438
*11049 TAP_TAPCELL_ROW_5_1439
*11050 TAP_TAPCELL_ROW_5_1440
*11051 TAP_TAPCELL_ROW_5_1441
*11052 TAP_TAPCELL_ROW_5_1442
*11053 TAP_TAPCELL_ROW_60_2_1574
*11054 TAP_TAPCELL_ROW_60_3_2309
*11055 TAP_TAPCELL_ROW_62_2_1575
*11056 TAP_TAPCELL_ROW_62_3_2310
*11057 TAP_TAPCELL_ROW_64_2_1576
*11058 TAP_TAPCELL_ROW_64_3_2311
*11059 TAP_TAPCELL_ROW_66_2_1577
*11060 TAP_TAPCELL_ROW_66_3_2312
*11061 TAP_TAPCELL_ROW_68_2_1578
*11062 TAP_TAPCELL_ROW_68_3_2313
*11063 TAP_TAPCELL_ROW_6_1443
*11064 TAP_TAPCELL_ROW_6_1444
*11065 TAP_TAPCELL_ROW_6_1445
*11066 TAP_TAPCELL_ROW_6_1446
*11067 TAP_TAPCELL_ROW_6_1447
*11068 TAP_TAPCELL_ROW_6_1448
*11069 TAP_TAPCELL_ROW_6_1449
*11070 TAP_TAPCELL_ROW_6_1450
*11071 TAP_TAPCELL_ROW_6_1451
*11072 TAP_TAPCELL_ROW_6_1452
*11073 TAP_TAPCELL_ROW_6_1453
*11074 TAP_TAPCELL_ROW_6_1454
*11075 TAP_TAPCELL_ROW_6_1455
*11076 TAP_TAPCELL_ROW_6_1456
*11077 TAP_TAPCELL_ROW_6_1457
*11078 TAP_TAPCELL_ROW_6_1458
*11079 TAP_TAPCELL_ROW_6_1459
*11080 TAP_TAPCELL_ROW_6_1460
*11081 TAP_TAPCELL_ROW_6_1461
*11082 TAP_TAPCELL_ROW_6_1462
*11083 TAP_TAPCELL_ROW_6_1463
*11084 TAP_TAPCELL_ROW_6_1464
*11085 TAP_TAPCELL_ROW_6_1465
*11086 TAP_TAPCELL_ROW_6_1466
*11087 TAP_TAPCELL_ROW_6_1467
*11088 TAP_TAPCELL_ROW_6_1468
*11089 TAP_TAPCELL_ROW_6_1469
*11090 TAP_TAPCELL_ROW_70_2_1579
*11091 TAP_TAPCELL_ROW_70_3_2314
*11092 TAP_TAPCELL_ROW_72_2_1580
*11093 TAP_TAPCELL_ROW_72_3_2315
*11094 TAP_TAPCELL_ROW_74_2_1581
*11095 TAP_TAPCELL_ROW_74_3_2316
*11096 TAP_TAPCELL_ROW_76_2_1582
*11097 TAP_TAPCELL_ROW_76_3_2317
*11098 TAP_TAPCELL_ROW_78_2_1583
*11099 TAP_TAPCELL_ROW_78_3_2318
*11100 TAP_TAPCELL_ROW_7_1470
*11101 TAP_TAPCELL_ROW_7_1471
*11102 TAP_TAPCELL_ROW_7_1472
*11103 TAP_TAPCELL_ROW_7_1473
*11104 TAP_TAPCELL_ROW_7_1474
*11105 TAP_TAPCELL_ROW_7_1475
*11106 TAP_TAPCELL_ROW_7_1476
*11107 TAP_TAPCELL_ROW_7_1477
*11108 TAP_TAPCELL_ROW_7_1478
*11109 TAP_TAPCELL_ROW_7_1479
*11110 TAP_TAPCELL_ROW_7_1480
*11111 TAP_TAPCELL_ROW_7_1481
*11112 TAP_TAPCELL_ROW_7_1482
*11113 TAP_TAPCELL_ROW_7_1483
*11114 TAP_TAPCELL_ROW_7_1484
*11115 TAP_TAPCELL_ROW_7_1485
*11116 TAP_TAPCELL_ROW_7_1486
*11117 TAP_TAPCELL_ROW_7_1487
*11118 TAP_TAPCELL_ROW_7_1488
*11119 TAP_TAPCELL_ROW_7_1489
*11120 TAP_TAPCELL_ROW_7_1490
*11121 TAP_TAPCELL_ROW_7_1491
*11122 TAP_TAPCELL_ROW_7_1492
*11123 TAP_TAPCELL_ROW_7_1493
*11124 TAP_TAPCELL_ROW_7_1494
*11125 TAP_TAPCELL_ROW_7_1495
*11126 TAP_TAPCELL_ROW_80_2_1584
*11127 TAP_TAPCELL_ROW_80_3_2319
*11128 TAP_TAPCELL_ROW_82_2_1585
*11129 TAP_TAPCELL_ROW_82_3_2320
*11130 TAP_TAPCELL_ROW_84_2_1586
*11131 TAP_TAPCELL_ROW_84_3_2321
*11132 TAP_TAPCELL_ROW_86_2_1587
*11133 TAP_TAPCELL_ROW_86_3_2322
*11134 TAP_TAPCELL_ROW_88_2_1588
*11135 TAP_TAPCELL_ROW_88_3_2323
*11136 TAP_TAPCELL_ROW_8_1496
*11137 TAP_TAPCELL_ROW_8_1497
*11138 TAP_TAPCELL_ROW_8_1498
*11139 TAP_TAPCELL_ROW_8_1499
*11140 TAP_TAPCELL_ROW_8_1500
*11141 TAP_TAPCELL_ROW_8_1501
*11142 TAP_TAPCELL_ROW_8_1502
*11143 TAP_TAPCELL_ROW_8_1503
*11144 TAP_TAPCELL_ROW_8_1504
*11145 TAP_TAPCELL_ROW_8_1505
*11146 TAP_TAPCELL_ROW_8_1506
*11147 TAP_TAPCELL_ROW_8_1507
*11148 TAP_TAPCELL_ROW_8_1508
*11149 TAP_TAPCELL_ROW_8_1509
*11150 TAP_TAPCELL_ROW_8_1510
*11151 TAP_TAPCELL_ROW_8_1511
*11152 TAP_TAPCELL_ROW_8_1512
*11153 TAP_TAPCELL_ROW_8_1513
*11154 TAP_TAPCELL_ROW_8_1514
*11155 TAP_TAPCELL_ROW_8_1515
*11156 TAP_TAPCELL_ROW_8_1516
*11157 TAP_TAPCELL_ROW_8_1517
*11158 TAP_TAPCELL_ROW_8_1518
*11159 TAP_TAPCELL_ROW_8_1519
*11160 TAP_TAPCELL_ROW_8_1520
*11161 TAP_TAPCELL_ROW_8_1521
*11162 TAP_TAPCELL_ROW_8_1522
*11163 TAP_TAPCELL_ROW_8_1523
*11164 TAP_TAPCELL_ROW_8_1524
*11165 TAP_TAPCELL_ROW_8_1525
*11166 TAP_TAPCELL_ROW_8_1526
*11167 TAP_TAPCELL_ROW_8_1527
*11168 TAP_TAPCELL_ROW_8_1528
*11169 TAP_TAPCELL_ROW_8_1529
*11170 TAP_TAPCELL_ROW_8_1530
*11171 TAP_TAPCELL_ROW_8_1531
*11172 TAP_TAPCELL_ROW_8_1532
*11173 TAP_TAPCELL_ROW_8_1533
*11174 TAP_TAPCELL_ROW_8_1534
*11175 TAP_TAPCELL_ROW_8_1535
*11176 TAP_TAPCELL_ROW_8_1536
*11177 TAP_TAPCELL_ROW_8_1537
*11178 TAP_TAPCELL_ROW_8_1538
*11179 TAP_TAPCELL_ROW_8_1539
*11180 TAP_TAPCELL_ROW_8_1540
*11181 TAP_TAPCELL_ROW_8_1541
*11182 TAP_TAPCELL_ROW_8_1542
*11183 TAP_TAPCELL_ROW_8_1543
*11184 TAP_TAPCELL_ROW_8_1544
*11185 TAP_TAPCELL_ROW_8_1545
*11186 TAP_TAPCELL_ROW_8_1546
*11187 TAP_TAPCELL_ROW_8_1547
*11188 TAP_TAPCELL_ROW_8_1548
*11189 TAP_TAPCELL_ROW_90_2_1589
*11190 TAP_TAPCELL_ROW_90_3_2324
*11191 TAP_TAPCELL_ROW_92_2_1590
*11192 TAP_TAPCELL_ROW_92_3_2325
*11193 TAP_TAPCELL_ROW_94_2_1591
*11194 TAP_TAPCELL_ROW_94_3_2326
*11195 TAP_TAPCELL_ROW_96_2_1592
*11196 TAP_TAPCELL_ROW_96_3_2327
*11197 TAP_TAPCELL_ROW_98_2_1593
*11198 TAP_TAPCELL_ROW_98_3_2328
*11199 _123_
*11200 _124_
*11201 _125_
*11202 _126_
*11203 _127_
*11204 _128_
*11205 _129_
*11206 _130_
*11207 _131_
*11208 _132_
*11209 _133_
*11210 _134_
*11211 _135_
*11212 _136_
*11213 _137_
*11214 _138_
*11215 _139_
*11216 _140_
*11217 _141_
*11218 _142_
*11219 _143_
*11220 _144_
*11221 _145_
*11222 _146_
*11223 _147_
*11224 _148_
*11225 _149_
*11226 _150_
*11227 _151_
*11228 _152_
*11229 _153_
*11230 _154_
*11231 _155_
*11232 _156_
*11233 _157_
*11234 _158_
*11235 _159_
*11236 _160_
*11237 _161_
*11238 _162_
*11239 _163_
*11240 _164_
*11241 _165_
*11242 _166_
*11243 _167_
*11244 _168_
*11245 _169_
*11246 _170_
*11247 _171_
*11248 _172_
*11249 _173_
*11250 _174_
*11251 _175_
*11252 _176_
*11253 _177_
*11254 _178_
*11255 _179_
*11256 _180_
*11257 _181_
*11258 _182_
*11259 _183_
*11260 _184_
*11261 _185_
*11262 _186_
*11263 _187_
*11264 _188_
*11265 _189_
*11266 _190_
*11267 _191_
*11268 _192_
*11269 _193_
*11270 _194_
*11271 _195_
*11272 _196_
*11273 _197_
*11274 _198_
*11275 _199_
*11276 _200_
*11277 _201_
*11278 _202_
*11279 _203_
*11280 _204_
*11281 _205_
*11282 _206_
*11283 _207_
*11284 _208_
*11285 _209_
*11286 _210_
*11287 _211_
*11288 _212_
*11289 _213_
*11290 _214_
*11291 _215_
*11292 _216_
*11293 _217_
*11294 _218_
*11295 _219_
*11296 _220_
*11297 _221_
*11298 _222_
*11299 _223_
*11300 _224_
*11301 _225_
*11302 _226_
*11303 _227_
*11304 _228_
*11305 _229_
*11306 _230_
*11307 _231_
*11308 _232_
*11309 _233_
*11310 _234_
*11311 _235_
*11312 _236_
*11313 _237_
*11314 _238_
*11315 _239_
*11316 _240_
*11317 _241_
*11318 _242_
*11319 _243_
*11320 _244_
*11321 _245_
*11322 _246_
*11323 _247_
*11324 _248_
*11325 clkbuf_0_wb_clk_i
*11326 clkbuf_1_0__f_wb_clk_i
*11327 clkbuf_1_1__f_wb_clk_i
*11328 hold1
*11329 hold10
*11330 hold100
*11331 hold101
*11332 hold102
*11333 hold103
*11334 hold104
*11335 hold105
*11336 hold106
*11337 hold107
*11338 hold108
*11339 hold109
*11340 hold11
*11341 hold110
*11342 hold111
*11343 hold112
*11344 hold113
*11345 hold114
*11346 hold115
*11347 hold116
*11348 hold117
*11349 hold118
*11350 hold119
*11351 hold12
*11352 hold120
*11353 hold121
*11354 hold122
*11355 hold123
*11356 hold124
*11357 hold125
*11358 hold126
*11359 hold127
*11360 hold128
*11361 hold129
*11362 hold13
*11363 hold130
*11364 hold131
*11365 hold132
*11366 hold133
*11367 hold134
*11368 hold135
*11369 hold136
*11370 hold137
*11371 hold138
*11372 hold139
*11373 hold14
*11374 hold140
*11375 hold141
*11376 hold142
*11377 hold143
*11378 hold144
*11379 hold145
*11380 hold146
*11381 hold147
*11382 hold148
*11383 hold149
*11384 hold15
*11385 hold150
*11386 hold151
*11387 hold152
*11388 hold153
*11389 hold154
*11390 hold155
*11391 hold156
*11392 hold157
*11393 hold158
*11394 hold159
*11395 hold16
*11396 hold160
*11397 hold161
*11398 hold162
*11399 hold163
*11400 hold164
*11401 hold165
*11402 hold166
*11403 hold167
*11404 hold168
*11405 hold169
*11406 hold17
*11407 hold170
*11408 hold171
*11409 hold172
*11410 hold173
*11411 hold174
*11412 hold175
*11413 hold176
*11414 hold177
*11415 hold178
*11416 hold179
*11417 hold18
*11418 hold180
*11419 hold181
*11420 hold182
*11421 hold183
*11422 hold184
*11423 hold185
*11424 hold186
*11425 hold187
*11426 hold19
*11427 hold2
*11428 hold20
*11429 hold21
*11430 hold22
*11431 hold23
*11432 hold24
*11433 hold25
*11434 hold26
*11435 hold27
*11436 hold28
*11437 hold29
*11438 hold3
*11439 hold30
*11440 hold31
*11441 hold32
*11442 hold33
*11443 hold34
*11444 hold35
*11445 hold36
*11446 hold37
*11447 hold38
*11448 hold39
*11449 hold4
*11450 hold40
*11451 hold41
*11452 hold42
*11453 hold43
*11454 hold44
*11455 hold45
*11456 hold46
*11457 hold47
*11458 hold48
*11459 hold49
*11460 hold5
*11461 hold50
*11462 hold51
*11463 hold52
*11464 hold53
*11465 hold54
*11466 hold55
*11467 hold56
*11468 hold57
*11469 hold58
*11470 hold59
*11471 hold6
*11472 hold60
*11473 hold61
*11474 hold62
*11475 hold63
*11476 hold64
*11477 hold65
*11478 hold66
*11479 hold67
*11480 hold68
*11481 hold69
*11482 hold7
*11483 hold70
*11484 hold71
*11485 hold72
*11486 hold73
*11487 hold74
*11488 hold75
*11489 hold76
*11490 hold77
*11491 hold78
*11492 hold79
*11493 hold8
*11494 hold80
*11495 hold81
*11496 hold82
*11497 hold83
*11498 hold84
*11499 hold85
*11500 hold86
*11501 hold87
*11502 hold88
*11503 hold89
*11504 hold9
*11505 hold90
*11506 hold91
*11507 hold92
*11508 hold93
*11509 hold94
*11510 hold95
*11511 hold96
*11512 hold97
*11513 hold98
*11514 hold99
*11515 i_sram\.sram0
*11516 i_sram\.sram0_113
*11517 i_sram\.sram0_114
*11518 i_sram\.sram0_89
*11519 i_sram\.sram0_90
*11520 i_sram\.sram0_91
*11521 i_sram\.sram0_92
*11522 i_sram\.sram0_93
*11523 i_sram\.sram0_94
*11524 i_sram\.sram1
*11525 i_sram\.sram1_100
*11526 i_sram\.sram1_115
*11527 i_sram\.sram1_116
*11528 i_sram\.sram1_95
*11529 i_sram\.sram1_96
*11530 i_sram\.sram1_97
*11531 i_sram\.sram1_98
*11532 i_sram\.sram1_99
*11533 i_sram\.sram2
*11534 i_sram\.sram2_101
*11535 i_sram\.sram2_102
*11536 i_sram\.sram2_103
*11537 i_sram\.sram2_104
*11538 i_sram\.sram2_105
*11539 i_sram\.sram2_106
*11540 i_sram\.sram2_117
*11541 i_sram\.sram2_118
*11542 i_sram\.sram3
*11543 i_sram\.sram3_107
*11544 i_sram\.sram3_108
*11545 i_sram\.sram3_109
*11546 i_sram\.sram3_110
*11547 i_sram\.sram3_111
*11548 i_sram\.sram3_112
*11549 i_sram\.sram3_119
*11550 i_sram\.sram3_120
*11551 input1
*11552 input10
*11553 input11
*11554 input12
*11555 input13
*11556 input14
*11557 input15
*11558 input16
*11559 input17
*11560 input18
*11561 input19
*11562 input2
*11563 input20
*11564 input21
*11565 input22
*11566 input23
*11567 input24
*11568 input25
*11569 input26
*11570 input27
*11571 input28
*11572 input29
*11573 input3
*11574 input30
*11575 input31
*11576 input32
*11577 input33
*11578 input34
*11579 input35
*11580 input36
*11581 input37
*11582 input38
*11583 input39
*11584 input4
*11585 input40
*11586 input41
*11587 input42
*11588 input43
*11589 input44
*11590 input45
*11591 input46
*11592 input47
*11593 input48
*11594 input49
*11595 input5
*11596 input50
*11597 input51
*11598 input52
*11599 input6
*11600 input7
*11601 input8
*11602 input9
*11603 load_slew86
*11604 load_slew87
*11605 load_slew88
*11606 output53
*11607 output54
*11608 output55
*11609 output56
*11610 output57
*11611 output58
*11612 output59
*11613 output60
*11614 output61
*11615 output62
*11616 output63
*11617 output64
*11618 output65
*11619 output66
*11620 output67
*11621 output68
*11622 output69
*11623 output70
*11624 output71
*11625 output72
*11626 output73
*11627 output74
*11628 output75
*11629 output76
*11630 output77
*11631 output78
*11632 output79
*11633 output80
*11634 output81
*11635 output82
*11636 output83
*11637 output84
*11638 output85

*PORTS
wb_clk_i I
wb_rst_i I
wbs_ack_o O
wbs_adr_i[0] I
wbs_adr_i[10] I
wbs_adr_i[11] I
wbs_adr_i[12] I
wbs_adr_i[13] I
wbs_adr_i[14] I
wbs_adr_i[15] I
wbs_adr_i[16] I
wbs_adr_i[17] I
wbs_adr_i[18] I
wbs_adr_i[19] I
wbs_adr_i[1] I
wbs_adr_i[20] I
wbs_adr_i[21] I
wbs_adr_i[22] I
wbs_adr_i[23] I
wbs_adr_i[24] I
wbs_adr_i[25] I
wbs_adr_i[26] I
wbs_adr_i[27] I
wbs_adr_i[28] I
wbs_adr_i[29] I
wbs_adr_i[2] I
wbs_adr_i[30] I
wbs_adr_i[31] I
wbs_adr_i[3] I
wbs_adr_i[4] I
wbs_adr_i[5] I
wbs_adr_i[6] I
wbs_adr_i[7] I
wbs_adr_i[8] I
wbs_adr_i[9] I
wbs_cyc_i I
wbs_dat_i[0] I
wbs_dat_i[10] I
wbs_dat_i[11] I
wbs_dat_i[12] I
wbs_dat_i[13] I
wbs_dat_i[14] I
wbs_dat_i[15] I
wbs_dat_i[16] I
wbs_dat_i[17] I
wbs_dat_i[18] I
wbs_dat_i[19] I
wbs_dat_i[1] I
wbs_dat_i[20] I
wbs_dat_i[21] I
wbs_dat_i[22] I
wbs_dat_i[23] I
wbs_dat_i[24] I
wbs_dat_i[25] I
wbs_dat_i[26] I
wbs_dat_i[27] I
wbs_dat_i[28] I
wbs_dat_i[29] I
wbs_dat_i[2] I
wbs_dat_i[30] I
wbs_dat_i[31] I
wbs_dat_i[3] I
wbs_dat_i[4] I
wbs_dat_i[5] I
wbs_dat_i[6] I
wbs_dat_i[7] I
wbs_dat_i[8] I
wbs_dat_i[9] I
wbs_dat_o[0] O
wbs_dat_o[10] O
wbs_dat_o[11] O
wbs_dat_o[12] O
wbs_dat_o[13] O
wbs_dat_o[14] O
wbs_dat_o[15] O
wbs_dat_o[16] O
wbs_dat_o[17] O
wbs_dat_o[18] O
wbs_dat_o[19] O
wbs_dat_o[1] O
wbs_dat_o[20] O
wbs_dat_o[21] O
wbs_dat_o[22] O
wbs_dat_o[23] O
wbs_dat_o[24] O
wbs_dat_o[25] O
wbs_dat_o[26] O
wbs_dat_o[27] O
wbs_dat_o[28] O
wbs_dat_o[29] O
wbs_dat_o[2] O
wbs_dat_o[30] O
wbs_dat_o[31] O
wbs_dat_o[3] O
wbs_dat_o[4] O
wbs_dat_o[5] O
wbs_dat_o[6] O
wbs_dat_o[7] O
wbs_dat_o[8] O
wbs_dat_o[9] O
wbs_sel_i[0] I
wbs_sel_i[1] I
wbs_sel_i[2] I
wbs_sel_i[3] I
wbs_stb_i I
wbs_we_i I

*D_NET *3 0.137163
*CONN
*P wb_clk_i I
*I *1201:DIODE I *D sky130_fd_sc_hd__diode_2
*I *11325:A I *D sky130_fd_sc_hd__clkbuf_16
*CAP
1 wb_clk_i 0.00974423
2 *1201:DIODE 2.4564e-05
3 *11325:A 0
4 *3:35 0.00724418
5 *3:25 0.0320241
6 *3:23 0.0345487
7 *1201:DIODE *292:39 7.86973e-05
8 *1201:DIODE *306:30 0.000142011
9 *3:23 *11551:A 0
10 *3:23 *127:14 0.000721413
11 *3:23 *145:41 0.000269692
12 *3:23 *197:28 0.000233711
13 *3:23 *205:29 0
14 *3:23 *216:29 2.33863e-05
15 *3:23 *227:27 0.00548083
16 *3:23 *230:23 0.00104898
17 *3:23 *233:23 0.000358079
18 *3:23 *393:12 0.000358079
19 *3:25 *111:10 0.000101071
20 *3:25 *111:18 0.00020996
21 *3:25 *120:10 0.00235826
22 *3:25 *143:41 0.000161366
23 *3:25 *159:10 0.0021505
24 *3:25 *161:10 0.00103269
25 *3:25 *162:10 0.000182244
26 *3:25 *163:10 0.00230579
27 *3:25 *196:26 0.0143159
28 *3:25 *199:70 0.000270726
29 *3:25 *199:82 0.000208871
30 *3:25 *222:28 0.000113898
31 *3:25 *224:36 0.000113898
32 *3:25 *239:69 0.000140349
33 *3:25 *240:22 0.000421119
34 *3:25 *242:21 0.000238742
35 *3:25 *245:26 0.000580957
36 *3:25 *298:22 0.000276298
37 *3:25 *298:28 0.000143652
38 *3:25 *308:27 0.000111243
39 *3:25 *332:19 0.000209694
40 *3:25 *363:66 0.00583552
41 *3:25 *563:38 0.000294122
42 *3:25 *564:10 0.000914891
43 *3:25 *567:43 0.000415388
44 *3:25 *589:26 0.000799861
45 *3:25 *602:12 0.000378609
46 *3:25 *603:10 0.000164129
47 *3:35 *1005:DIODE 0.000287637
48 *3:35 *11281:A0 0.000270003
49 *3:35 *11281:S 0.000464613
50 *3:35 *11286:A0 0.000119216
51 *3:35 *11286:A1 0.000182899
52 *3:35 *11327:A 0.000187037
53 *3:35 *166:28 0.000128553
54 *3:35 *171:67 0.000639243
55 *3:35 *279:25 0.00133816
56 *3:35 *284:31 0.000261003
57 *3:35 *292:37 0.000204055
58 *3:35 *306:38 0.000267934
59 *3:35 *306:42 0.000747471
60 *3:35 *313:47 0.000719603
61 *3:35 *330:25 0.00459531
*RES
1 wb_clk_i *3:23 49.6271 
2 *3:23 *3:25 64.0735 
3 *3:25 *3:35 34.0205 
4 *3:35 *11325:A 9.3 
5 *3:35 *1201:DIODE 10.6571 
*END

*D_NET *4 0.000365877
*CONN
*P wb_rst_i I
*I *11551:A I *D sky130_fd_sc_hd__buf_1
*CAP
1 wb_rst_i 0.000171954
2 *11551:A 0.000171954
3 *11551:A wbs_ack_o 0
4 *11551:A *337:10 2.19684e-05
5 *3:23 *11551:A 0
*RES
1 wb_rst_i *11551:A 16.9786 
*END

*D_NET *5 0.000755086
*CONN
*P wbs_ack_o O
*I *11606:X O *D sky130_fd_sc_hd__buf_12
*CAP
1 wbs_ack_o 0.000377543
2 *11606:X 0.000377543
3 wbs_ack_o *337:10 0
4 *11551:A wbs_ack_o 0
*RES
1 *11606:X wbs_ack_o 20.2286 
*END

*D_NET *7 0.00435195
*CONN
*P wbs_adr_i[10] I
*I *11394:A I *D sky130_fd_sc_hd__dlygate4sd3_1
*CAP
1 wbs_adr_i[10] 0.0012685
2 *11394:A 0.0012685
3 *11394:A wbs_dat_o[10] 0.000570226
4 *11394:A wbs_dat_o[9] 0
5 *11394:A *11484:A 5.52886e-05
6 *11394:A *585:12 0.000314493
7 *11394:A *595:18 0.000531461
8 *11394:A *601:24 0.000134419
9 *11394:A *604:14 0.000209059
*RES
1 wbs_adr_i[10] *11394:A 44.425 
*END

*D_NET *8 0.00396637
*CONN
*P wbs_adr_i[11] I
*I *11397:A I *D sky130_fd_sc_hd__dlygate4sd3_1
*CAP
1 wbs_adr_i[11] 0.00104338
2 *11397:A 0.00104338
3 *11397:A wbs_dat_o[10] 0
4 *11397:A *11328:A 0.000326191
5 *11397:A *11481:A 0
6 *11397:A *11608:A 0
7 *11397:A *117:65 0.00051756
8 *11397:A *122:52 7.8195e-05
9 *11397:A *338:26 0.000390994
10 *11397:A *338:28 4.35336e-05
11 *11397:A *371:30 0.000146474
12 *11397:A *404:18 6.59766e-05
13 *11397:A *559:10 0.000159845
14 *11397:A *584:40 0.000141734
15 *11397:A *589:20 9.11048e-06
*RES
1 wbs_adr_i[11] *11397:A 44.4786 
*END

*D_NET *9 0.00134002
*CONN
*P wbs_adr_i[12] I
*I *11419:A I *D sky130_fd_sc_hd__dlygate4sd3_1
*CAP
1 wbs_adr_i[12] 0.000510254
2 *11419:A 0.000510254
3 *11419:A *11479:A 0
4 *11419:A *360:14 0.000230482
5 *11419:A *415:10 0
6 *11419:A *598:14 8.90314e-05
*RES
1 wbs_adr_i[12] *11419:A 22.1214 
*END

*D_NET *10 0.00194066
*CONN
*P wbs_adr_i[13] I
*I *11423:A I *D sky130_fd_sc_hd__dlygate4sd3_1
*CAP
1 wbs_adr_i[13] 0.000360464
2 *11423:A 0.000360464
3 *11423:A *11431:A 0
4 *11423:A *11475:A 0
5 *11423:A *11480:A 0
6 *11423:A *11560:A 6.95392e-05
7 *11423:A *11611:A 0.000575099
8 *11423:A *360:14 0.000575099
9 *11423:A *426:10 0
*RES
1 wbs_adr_i[13] *11423:A 24.3357 
*END

*D_NET *28 0.00250888
*CONN
*P wbs_adr_i[2] I
*I *11390:A I *D sky130_fd_sc_hd__dlygate4sd3_1
*CAP
1 wbs_adr_i[2] 0.000824972
2 *11390:A 0.000824972
3 *11390:A *745:DIODE 4.87854e-05
4 *11390:A *11324:RESET_B 1.98839e-05
5 *11390:A *11418:A 0
6 *11390:A *11512:A 0
7 *11390:A *586:18 0
8 *11390:A *618:18 0.000790267
*RES
1 wbs_adr_i[2] *11390:A 30.1036 
*END

*D_NET *31 0.00265762
*CONN
*P wbs_adr_i[3] I
*I *11381:A I *D sky130_fd_sc_hd__dlygate4sd3_1
*CAP
1 wbs_adr_i[3] 0.00069301
2 *11381:A 0.00069301
3 *11381:A *11342:A 0
4 *11381:A *11411:A 0
5 *11381:A *11501:A 0
6 *11381:A *11502:A 0.00056936
7 *11381:A *591:28 0
8 *11381:A *595:12 0
9 *11381:A *600:16 0.00035112
10 *11381:A *626:8 0.00035112
11 *11381:A *627:12 0
*RES
1 wbs_adr_i[3] *11381:A 29.5679 
*END

*D_NET *32 0.00206836
*CONN
*P wbs_adr_i[4] I
*I *11377:A I *D sky130_fd_sc_hd__dlygate4sd3_1
*CAP
1 wbs_adr_i[4] 0.000617638
2 *11377:A 0.000617638
3 *11377:A *11339:A 8.61809e-05
4 *11377:A *11378:A 0.000373567
5 *11377:A *11414:A 0
6 *11377:A *591:51 0.000186669
7 *11377:A *601:12 0.000186669
*RES
1 wbs_adr_i[4] *11377:A 25.4964 
*END

*D_NET *33 0.00186416
*CONN
*P wbs_adr_i[5] I
*I *11372:A I *D sky130_fd_sc_hd__dlygate4sd3_1
*CAP
1 wbs_adr_i[5] 0.000498642
2 *11372:A 0.000498642
3 *11372:A wbs_dat_o[4] 8.55871e-05
4 *11372:A *11335:A 4.97329e-05
5 *11372:A *11634:A 0.000731561
*RES
1 wbs_adr_i[5] *11372:A 24.4964 
*END

*D_NET *34 0.00159758
*CONN
*P wbs_adr_i[6] I
*I *11379:A I *D sky130_fd_sc_hd__dlygate4sd3_1
*CAP
1 wbs_adr_i[6] 0.000611402
2 *11379:A 0.000611402
3 *11379:A wbs_dat_o[5] 5.52302e-05
4 *11379:A *11333:A 0.000136322
5 *11379:A *11634:A 0.000183222
*RES
1 wbs_adr_i[6] *11379:A 26.3 
*END

*D_NET *35 0.00155471
*CONN
*P wbs_adr_i[7] I
*I *11383:A I *D sky130_fd_sc_hd__dlygate4sd3_1
*CAP
1 wbs_adr_i[7] 0.000539909
2 *11383:A 0.000539909
3 *11383:A wbs_dat_o[6] 0
4 *11383:A *11490:A 0
5 *11383:A *597:12 0.000308489
6 *11383:A *599:12 0.000166407
*RES
1 wbs_adr_i[7] *11383:A 24.3 
*END

*D_NET *36 0.00106467
*CONN
*P wbs_adr_i[8] I
*I *11386:A I *D sky130_fd_sc_hd__dlygate4sd3_1
*CAP
1 wbs_adr_i[8] 0.00046557
2 *11386:A 0.00046557
3 *11386:A wbs_dat_o[7] 0
4 *11386:A *11514:A 0
5 *11386:A *11589:A 0
6 *11386:A *599:12 2.89016e-05
7 *11386:A *604:12 0
8 *11386:A *628:22 0.000104631
*RES
1 wbs_adr_i[8] *11386:A 21.8357 
*END

*D_NET *37 0.00288972
*CONN
*P wbs_adr_i[9] I
*I *11392:A I *D sky130_fd_sc_hd__dlygate4sd3_1
*CAP
1 wbs_adr_i[9] 0.000644182
2 *11392:A 0.000644182
3 *11392:A wbs_dat_o[8] 0
4 *11392:A *11460:A 0.000708156
5 *11392:A *11487:A 0.000120816
6 *11392:A *11488:A 0
7 *11392:A *11510:A 5.71472e-05
8 *11392:A *11590:A 0.000114847
9 *11392:A *11637:A 4.44267e-05
10 *11392:A *584:28 0
11 *11392:A *599:12 0.000555958
*RES
1 wbs_adr_i[9] *11392:A 31.5679 
*END

*D_NET *38 0.000401858
*CONN
*P wbs_cyc_i I
*I *11556:A I *D sky130_fd_sc_hd__clkbuf_2
*CAP
1 wbs_cyc_i 0.000176937
2 *11556:A 0.000176937
3 *11556:A *11597:A 0
4 *11556:A *382:14 4.79842e-05
*RES
1 wbs_cyc_i *11556:A 17.0857 
*END

*D_NET *39 0.000677236
*CONN
*P wbs_dat_i[0] I
*I *11344:A I *D sky130_fd_sc_hd__dlygate4sd3_1
*CAP
1 wbs_dat_i[0] 0.000328978
2 *11344:A 0.000328978
3 *11344:A wbs_dat_o[0] 0
4 *11344:A *11440:A 1.92789e-05
*RES
1 wbs_dat_i[0] *11344:A 19.4429 
*END

*D_NET *40 0.00232536
*CONN
*P wbs_dat_i[10] I
*I *11484:A I *D sky130_fd_sc_hd__dlygate4sd3_1
*CAP
1 wbs_dat_i[10] 0.000757079
2 *11484:A 0.000757079
3 *11484:A *11211:A 2.01732e-05
4 *11484:A *11213:A 5.22381e-05
5 *11484:A *11396:A 2.31833e-05
6 *11484:A *11591:A 0.000552068
7 *11484:A *117:12 5.49544e-05
8 *11484:A *338:26 5.33005e-05
9 *11484:A *536:16 0
10 *11394:A *11484:A 5.52886e-05
*RES
1 wbs_dat_i[10] *11484:A 27.3536 
*END

*D_NET *41 0.00171204
*CONN
*P wbs_dat_i[11] I
*I *11481:A I *D sky130_fd_sc_hd__dlygate4sd3_1
*CAP
1 wbs_dat_i[11] 0.000461727
2 *11481:A 0.000461727
3 *11481:A wbs_dat_o[11] 0
4 *11481:A *448:10 0.000312767
5 *11481:A *536:16 0.000123288
6 *11481:A *559:10 0.000185911
7 *11481:A *599:12 0.000166616
8 *11397:A *11481:A 0
*RES
1 wbs_dat_i[11] *11481:A 24.3 
*END

*D_NET *42 0.00191188
*CONN
*P wbs_dat_i[12] I
*I *11479:A I *D sky130_fd_sc_hd__dlygate4sd3_1
*CAP
1 wbs_dat_i[12] 0.000475505
2 *11479:A 0.000475505
3 *11479:A wbs_dat_o[12] 0
4 *11479:A *11483:A 0.000160072
5 *11479:A *448:14 0.0004004
6 *11479:A *578:10 0
7 *11479:A *589:14 0.0004004
8 *11419:A *11479:A 0
*RES
1 wbs_dat_i[12] *11479:A 25.1214 
*END

*D_NET *43 0.00124158
*CONN
*P wbs_dat_i[13] I
*I *11475:A I *D sky130_fd_sc_hd__dlygate4sd3_1
*CAP
1 wbs_dat_i[13] 0.000535362
2 *11475:A 0.000535362
3 *11475:A wbs_dat_o[13] 0
4 *11475:A *11480:A 0
5 *11475:A *11595:A 2.80015e-05
6 *11475:A *448:14 0.000142856
7 *11423:A *11475:A 0
*RES
1 wbs_dat_i[13] *11475:A 22.6571 
*END

*D_NET *44 0.000938474
*CONN
*P wbs_dat_i[14] I
*I *11473:A I *D sky130_fd_sc_hd__dlygate4sd3_1
*CAP
1 wbs_dat_i[14] 0.000326381
2 *11473:A 0.000326381
3 *11473:A wbs_dat_o[14] 0
4 *11473:A *11561:A 0
5 *11473:A *11612:A 0.000142856
6 *11473:A *360:14 0.000142856
*RES
1 wbs_dat_i[14] *11473:A 20.2286 
*END

*D_NET *45 0.000905323
*CONN
*P wbs_dat_i[15] I
*I *11468:A I *D sky130_fd_sc_hd__dlygate4sd3_1
*CAP
1 wbs_dat_i[15] 0.000274853
2 *11468:A 0.000274853
3 *11468:A wbs_dat_o[15] 0
4 *11468:A *11613:A 0.000142856
5 *11468:A *608:12 0.000212761
*RES
1 wbs_dat_i[15] *11468:A 20.2286 
*END

*D_NET *46 0.000951967
*CONN
*P wbs_dat_i[16] I
*I *11355:A I *D sky130_fd_sc_hd__dlygate4sd3_1
*CAP
1 wbs_dat_i[16] 0.000251085
2 *11355:A 0.000251085
3 *11355:A wbs_dat_o[16] 0
4 *11355:A *11356:A 0
5 *11355:A *360:18 5.33433e-05
6 *11355:A *471:12 0
7 *11355:A *585:20 0.000396454
*RES
1 wbs_dat_i[16] *11355:A 19.8179 
*END

*D_NET *47 0.000766104
*CONN
*P wbs_dat_i[17] I
*I *11357:A I *D sky130_fd_sc_hd__dlygate4sd3_1
*CAP
1 wbs_dat_i[17] 0.00035638
2 *11357:A 0.00035638
3 *11357:A *11358:A 0
4 *11357:A *360:18 5.33433e-05
5 *11357:A *482:14 0
6 *11357:A *610:16 0
*RES
1 wbs_dat_i[17] *11357:A 19.8179 
*END

*D_NET *48 0.00244319
*CONN
*P wbs_dat_i[18] I
*I *11361:A I *D sky130_fd_sc_hd__dlygate4sd3_1
*CAP
1 wbs_dat_i[18] 0.000531985
2 *11361:A 0.000531985
3 *11361:A *11330:A 0.000610051
4 *11361:A *11363:A 0.000320024
5 *11361:A *609:16 9.20484e-05
6 *11361:A *613:12 0.0003571
*RES
1 wbs_dat_i[18] *11361:A 25.8179 
*END

*D_NET *49 0.00354462
*CONN
*P wbs_dat_i[19] I
*I *11346:A I *D sky130_fd_sc_hd__dlygate4sd3_1
*CAP
1 wbs_dat_i[19] 0.000945841
2 *11346:A 0.000945841
3 *11346:A *11616:A 0.000148054
4 *11346:A *482:14 0.000166358
5 *11346:A *610:28 0.00133852
*RES
1 wbs_dat_i[19] *11346:A 28.6036 
*END

*D_NET *50 0.00133327
*CONN
*P wbs_dat_i[1] I
*I *11337:A I *D sky130_fd_sc_hd__dlygate4sd3_1
*CAP
1 wbs_dat_i[1] 0.000594188
2 *11337:A 0.000594188
3 *11337:A wbs_dat_o[1] 0
4 *11337:A *11338:A 2.50479e-05
5 *11337:A *592:12 9.39125e-05
6 *11337:A *592:20 2.59355e-05
*RES
1 wbs_dat_i[1] *11337:A 22.9071 
*END

*D_NET *51 0.000994004
*CONN
*P wbs_dat_i[20] I
*I *11350:A I *D sky130_fd_sc_hd__dlygate4sd3_1
*CAP
1 wbs_dat_i[20] 0.000458115
2 *11350:A 0.000458115
3 *11350:A *426:22 0
4 *11350:A *526:10 0
5 *11350:A *609:20 7.77751e-05
*RES
1 wbs_dat_i[20] *11350:A 20.2286 
*END

*D_NET *52 0.00113235
*CONN
*P wbs_dat_i[21] I
*I *11353:A I *D sky130_fd_sc_hd__dlygate4sd3_1
*CAP
1 wbs_dat_i[21] 0.000429003
2 *11353:A 0.000429003
3 *11353:A *11434:A 0
4 *11353:A *11446:A 0.000150786
5 *11353:A *11619:A 0
6 *11353:A *609:20 0.00012356
*RES
1 wbs_dat_i[21] *11353:A 21.7107 
*END

*D_NET *53 0.000711548
*CONN
*P wbs_dat_i[22] I
*I *11359:A I *D sky130_fd_sc_hd__dlygate4sd3_1
*CAP
1 wbs_dat_i[22] 0.000281773
2 *11359:A 0.000281773
3 *11359:A wbs_dat_o[22] 0
4 *11359:A *11428:A 0
5 *11359:A *610:34 0.000148002
*RES
1 wbs_dat_i[22] *11359:A 19.0321 
*END

*D_NET *54 0.00306237
*CONN
*P wbs_dat_i[23] I
*I *11364:A I *D sky130_fd_sc_hd__dlygate4sd3_1
*CAP
1 wbs_dat_i[23] 0.000849448
2 *11364:A 0.000849448
3 *11364:A wbs_dat_o[23] 0.000416836
4 *11364:A *11351:A 0
5 *11364:A *11451:A 0.000142053
6 *11364:A *11572:A 5.65955e-05
7 *11364:A *471:12 0.00011307
8 *11364:A *548:10 0
9 *11364:A *610:34 0.000634918
*RES
1 wbs_dat_i[23] *11364:A 32.8714 
*END

*D_NET *55 0.000955605
*CONN
*P wbs_dat_i[24] I
*I *11366:A I *D sky130_fd_sc_hd__dlygate4sd3_1
*CAP
1 wbs_dat_i[24] 0.000384818
2 *11366:A 0.000384818
3 *11366:A wbs_dat_o[24] 0
4 *11366:A *11623:A 0.00018597
*RES
1 wbs_dat_i[24] *11366:A 20.6393 
*END

*D_NET *56 0.00212146
*CONN
*P wbs_dat_i[25] I
*I *11368:A I *D sky130_fd_sc_hd__dlygate4sd3_1
*CAP
1 wbs_dat_i[25] 0.000811517
2 *11368:A 0.000811517
3 *11368:A *11367:A 0
4 *11368:A *11624:A 0
5 *11368:A *569:10 0
6 *11368:A *570:12 0.000142434
7 *11368:A *617:16 0.000355987
*RES
1 wbs_dat_i[25] *11368:A 28.6929 
*END

*D_NET *57 0.00033197
*CONN
*P wbs_dat_i[26] I
*I *11370:A I *D sky130_fd_sc_hd__dlygate4sd3_1
*CAP
1 wbs_dat_i[26] 0.000165985
2 *11370:A 0.000165985
3 *11370:A wbs_dat_o[26] 0
*RES
1 wbs_dat_i[26] *11370:A 16.4429 
*END

*D_NET *58 0.000952055
*CONN
*P wbs_dat_i[27] I
*I *11375:A I *D sky130_fd_sc_hd__dlygate4sd3_1
*CAP
1 wbs_dat_i[27] 0.000333171
2 *11375:A 0.000333171
3 *11375:A wbs_dat_o[27] 0
4 *11375:A *11577:A 0
5 *11375:A *11626:A 0.000142856
6 *11375:A *616:22 0.000142856
*RES
1 wbs_dat_i[27] *11375:A 20.2286 
*END

*D_NET *59 0.00220589
*CONN
*P wbs_dat_i[28] I
*I *11388:A I *D sky130_fd_sc_hd__dlygate4sd3_1
*CAP
1 wbs_dat_i[28] 0.00101025
2 *11388:A 0.00101025
3 *11388:A wbs_dat_o[28] 0
4 *11388:A *11464:A 0.000185401
*RES
1 wbs_dat_i[28] *11388:A 28.0321 
*END

*D_NET *60 0.000969131
*CONN
*P wbs_dat_i[29] I
*I *11399:A I *D sky130_fd_sc_hd__dlygate4sd3_1
*CAP
1 wbs_dat_i[29] 0.000405029
2 *11399:A 0.000405029
3 *11399:A wbs_dat_o[29] 0
4 *11399:A *572:20 0.000105729
5 *11399:A *617:16 5.33433e-05
*RES
1 wbs_dat_i[29] *11399:A 19.8179 
*END

*D_NET *61 0.00326712
*CONN
*P wbs_dat_i[2] I
*I *11512:A I *D sky130_fd_sc_hd__dlygate4sd3_1
*CAP
1 wbs_dat_i[2] 0.000880212
2 *11512:A 0.000880212
3 *11512:A *11415:A 8.8358e-05
4 *11512:A *11418:A 0.000122091
5 *11512:A *11435:A 0.000868724
6 *11512:A *11593:A 2.89114e-05
7 *11512:A *575:22 0
8 *11512:A *586:18 0
9 *11512:A *592:20 0.000389497
10 *11512:A *621:16 9.11048e-06
11 *11390:A *11512:A 0
*RES
1 wbs_dat_i[2] *11512:A 33.1393 
*END

*D_NET *62 0.000918228
*CONN
*P wbs_dat_i[30] I
*I *11401:A I *D sky130_fd_sc_hd__dlygate4sd3_1
*CAP
1 wbs_dat_i[30] 0.000259378
2 *11401:A 0.000259378
3 *11401:A *493:16 0
4 *11401:A *526:16 0.000399473
5 *11401:A *576:8 0
*RES
1 wbs_dat_i[30] *11401:A 19.8179 
*END

*D_NET *63 0.000688616
*CONN
*P wbs_dat_i[31] I
*I *11403:A I *D sky130_fd_sc_hd__dlygate4sd3_1
*CAP
1 wbs_dat_i[31] 0.000306379
2 *11403:A 0.000306379
3 *11403:A wbs_dat_o[31] 0
4 *11403:A *577:10 7.58571e-05
*RES
1 wbs_dat_i[31] *11403:A 19.8179 
*END

*D_NET *64 0.00174624
*CONN
*P wbs_dat_i[3] I
*I *11501:A I *D sky130_fd_sc_hd__dlygate4sd3_1
*CAP
1 wbs_dat_i[3] 0.000393502
2 *11501:A 0.000393502
3 *11501:A wbs_dat_o[3] 0
4 *11501:A *11429:A 3.2551e-05
5 *11501:A *11600:A 0.00033554
6 *11501:A *11632:A 0.000271352
7 *11501:A *592:24 0.000271352
8 *11501:A *611:10 0
9 *11501:A *627:12 4.84453e-05
10 *11381:A *11501:A 0
*RES
1 wbs_dat_i[3] *11501:A 23.8893 
*END

*D_NET *65 0.00219637
*CONN
*P wbs_dat_i[4] I
*I *11497:A I *D sky130_fd_sc_hd__dlygate4sd3_1
*CAP
1 wbs_dat_i[4] 0.000556645
2 *11497:A 0.000556645
3 *11497:A wbs_dat_o[4] 0
4 *11497:A *11339:A 0
5 *11497:A *11406:A 0.000125731
6 *11497:A *11601:A 0
7 *11497:A *11633:A 0
8 *11497:A *591:51 0.000315165
9 *11497:A *601:12 0.000315165
10 *11497:A *622:12 0.000177982
11 *11497:A *624:26 0.000149035
*RES
1 wbs_dat_i[4] *11497:A 26.7286 
*END

*D_NET *66 0.00248089
*CONN
*P wbs_dat_i[5] I
*I *11495:A I *D sky130_fd_sc_hd__dlygate4sd3_1
*CAP
1 wbs_dat_i[5] 0.000450702
2 *11495:A 0.000450702
3 *11495:A wbs_dat_o[5] 0
4 *11495:A *11602:A 0.000305147
5 *11495:A *110:8 0.000190848
6 *11495:A *586:34 0.000727464
7 *11495:A *601:12 0.000356028
8 *11495:A *633:10 0
*RES
1 wbs_dat_i[5] *11495:A 27.1393 
*END

*D_NET *67 0.000637267
*CONN
*P wbs_dat_i[6] I
*I *11492:A I *D sky130_fd_sc_hd__dlygate4sd3_1
*CAP
1 wbs_dat_i[6] 0.000250107
2 *11492:A 0.000250107
3 *11492:A wbs_dat_o[6] 0
4 *11492:A *626:16 0.000137054
*RES
1 wbs_dat_i[6] *11492:A 18.8714 
*END

*D_NET *68 0.00084619
*CONN
*P wbs_dat_i[7] I
*I *11490:A I *D sky130_fd_sc_hd__dlygate4sd3_1
*CAP
1 wbs_dat_i[7] 0.000237189
2 *11490:A 0.000237189
3 *11490:A wbs_dat_o[7] 0
4 *11490:A *11636:A 0.000272321
5 *11490:A *597:14 9.94899e-05
6 *11383:A *11490:A 0
*RES
1 wbs_dat_i[7] *11490:A 19.0321 
*END

*D_NET *69 0.00204411
*CONN
*P wbs_dat_i[8] I
*I *11486:A I *D sky130_fd_sc_hd__dlygate4sd3_1
*CAP
1 wbs_dat_i[8] 0.000723695
2 *11486:A 0.000723695
3 *11486:A *11387:A 0.000372836
4 *11486:A *11554:A 2.59355e-05
5 *11486:A *599:12 0.000128331
6 *11486:A *604:12 6.96182e-05
*RES
1 wbs_dat_i[8] *11486:A 24.9607 
*END

*D_NET *70 0.00303615
*CONN
*P wbs_dat_i[9] I
*I *11488:A I *D sky130_fd_sc_hd__dlygate4sd3_1
*CAP
1 wbs_dat_i[9] 0.000707768
2 *11488:A 0.000707768
3 *11488:A *11487:A 0.000141734
4 *11488:A *585:12 0.000715425
5 *11488:A *597:14 0.000115921
6 *11488:A *601:24 0.000647532
7 *11392:A *11488:A 0
*RES
1 wbs_dat_i[9] *11488:A 33.1214 
*END

*D_NET *71 0.000881137
*CONN
*P wbs_dat_o[0] O
*I *11607:X O *D sky130_fd_sc_hd__buf_12
*CAP
1 wbs_dat_o[0] 0.000323517
2 *11607:X 0.000323517
3 wbs_dat_o[0] *11408:A 0
4 wbs_dat_o[0] *11557:A 0.000153054
5 wbs_dat_o[0] *393:10 2.82057e-05
6 wbs_dat_o[0] *592:12 5.28427e-05
7 *11344:A wbs_dat_o[0] 0
*RES
1 *11607:X wbs_dat_o[0] 20.4786 
*END

*D_NET *72 0.00143185
*CONN
*P wbs_dat_o[10] O
*I *11608:X O *D sky130_fd_sc_hd__buf_12
*CAP
1 wbs_dat_o[10] 0.000220898
2 *11608:X 0.000220898
3 wbs_dat_o[10] *11608:A 3.0285e-05
4 wbs_dat_o[10] *585:12 0.000180397
5 wbs_dat_o[10] *601:24 0.000209145
6 *11394:A wbs_dat_o[10] 0.000570226
7 *11397:A wbs_dat_o[10] 0
*RES
1 *11608:X wbs_dat_o[10] 21.6036 
*END

*D_NET *73 0.000955152
*CONN
*P wbs_dat_o[11] O
*I *11609:X O *D sky130_fd_sc_hd__buf_12
*CAP
1 wbs_dat_o[11] 0.000402041
2 *11609:X 0.000402041
3 wbs_dat_o[11] *360:10 0.000151071
4 wbs_dat_o[11] *415:10 0
5 *11481:A wbs_dat_o[11] 0
*RES
1 *11609:X wbs_dat_o[11] 21.4607 
*END

*D_NET *74 0.00123826
*CONN
*P wbs_dat_o[12] O
*I *11610:X O *D sky130_fd_sc_hd__buf_12
*CAP
1 wbs_dat_o[12] 0.000331257
2 *11610:X 0.000331257
3 wbs_dat_o[12] *11483:A 0
4 wbs_dat_o[12] *11610:A 0.000121842
5 wbs_dat_o[12] *11611:A 0.00014285
6 wbs_dat_o[12] *360:14 0.000269
7 wbs_dat_o[12] *598:14 4.20505e-05
8 *11479:A wbs_dat_o[12] 0
*RES
1 *11610:X wbs_dat_o[12] 21.4607 
*END

*D_NET *75 0.00123675
*CONN
*P wbs_dat_o[13] O
*I *11611:X O *D sky130_fd_sc_hd__buf_12
*CAP
1 wbs_dat_o[13] 0.000337041
2 *11611:X 0.000337041
3 wbs_dat_o[13] *11611:A 5.49544e-05
4 wbs_dat_o[13] *11612:A 0.000185541
5 wbs_dat_o[13] *360:14 0.00027068
6 wbs_dat_o[13] *437:10 5.14943e-05
7 *11475:A wbs_dat_o[13] 0
*RES
1 *11611:X wbs_dat_o[13] 21.4607 
*END

*D_NET *76 0.0015297
*CONN
*P wbs_dat_o[14] O
*I *11612:X O *D sky130_fd_sc_hd__buf_12
*CAP
1 wbs_dat_o[14] 0.000479191
2 *11612:X 0.000479191
3 wbs_dat_o[14] *11384:A 0.000173601
4 wbs_dat_o[14] *11612:A 9.66977e-05
5 wbs_dat_o[14] *360:14 0.000301016
6 *11473:A wbs_dat_o[14] 0
*RES
1 *11612:X wbs_dat_o[14] 22.5321 
*END

*D_NET *77 0.00128323
*CONN
*P wbs_dat_o[15] O
*I *11613:X O *D sky130_fd_sc_hd__buf_12
*CAP
1 wbs_dat_o[15] 0.000471671
2 *11613:X 0.000471671
3 wbs_dat_o[15] *11340:A 0.000224341
4 wbs_dat_o[15] *11613:A 6.05161e-06
5 wbs_dat_o[15] *360:18 7.20784e-05
6 wbs_dat_o[15] *460:12 3.74125e-05
7 *11468:A wbs_dat_o[15] 0
*RES
1 *11613:X wbs_dat_o[15] 21.8357 
*END

*D_NET *78 0.00107987
*CONN
*P wbs_dat_o[16] O
*I *11614:X O *D sky130_fd_sc_hd__buf_12
*CAP
1 wbs_dat_o[16] 0.000359405
2 *11614:X 0.000359405
3 wbs_dat_o[16] *11356:A 4.57445e-05
4 wbs_dat_o[16] *11462:A 0.000144499
5 wbs_dat_o[16] *11565:A 0
6 wbs_dat_o[16] *11614:A 5.52302e-05
7 wbs_dat_o[16] *360:18 0.000115587
8 *11355:A wbs_dat_o[16] 0
*RES
1 *11614:X wbs_dat_o[16] 21.4607 
*END

*D_NET *79 0.00121173
*CONN
*P wbs_dat_o[17] O
*I *11615:X O *D sky130_fd_sc_hd__buf_12
*CAP
1 wbs_dat_o[17] 0.000337724
2 *11615:X 0.000337724
3 wbs_dat_o[17] *11466:A 0.000146533
4 wbs_dat_o[17] *11566:A 0
5 wbs_dat_o[17] *360:18 0.000146533
6 wbs_dat_o[17] *610:16 0.000243221
*RES
1 *11615:X wbs_dat_o[17] 21.4607 
*END

*D_NET *80 0.00209834
*CONN
*P wbs_dat_o[18] O
*I *11616:X O *D sky130_fd_sc_hd__buf_12
*CAP
1 wbs_dat_o[18] 0.000565973
2 *11616:X 0.000565973
3 wbs_dat_o[18] *11616:A 0.000136958
4 wbs_dat_o[18] *482:14 0.00014225
5 wbs_dat_o[18] *493:10 0
6 wbs_dat_o[18] *610:28 0.000687187
*RES
1 *11616:X wbs_dat_o[18] 25.3357 
*END

*D_NET *81 0.00146991
*CONN
*P wbs_dat_o[19] O
*I *11617:X O *D sky130_fd_sc_hd__buf_12
*CAP
1 wbs_dat_o[19] 0.000577846
2 *11617:X 0.000577846
3 wbs_dat_o[19] *11347:A 3.5707e-05
4 wbs_dat_o[19] *11616:A 0
5 wbs_dat_o[19] *11617:A 3.18676e-05
6 wbs_dat_o[19] *504:12 0.00010096
7 wbs_dat_o[19] *609:20 0.000145685
*RES
1 *11617:X wbs_dat_o[19] 24.05 
*END

*D_NET *82 0.00111956
*CONN
*P wbs_dat_o[1] O
*I *11618:X O *D sky130_fd_sc_hd__buf_12
*CAP
1 wbs_dat_o[1] 0.000314995
2 *11618:X 0.000314995
3 wbs_dat_o[1] *586:18 0.000489571
4 *11337:A wbs_dat_o[1] 0
*RES
1 *11618:X wbs_dat_o[1] 20.7821 
*END

*D_NET *83 0.00140004
*CONN
*P wbs_dat_o[20] O
*I *11619:X O *D sky130_fd_sc_hd__buf_12
*CAP
1 wbs_dat_o[20] 0.000479974
2 *11619:X 0.000479974
3 wbs_dat_o[20] *11570:A 0
4 wbs_dat_o[20] *426:22 4.86293e-05
5 wbs_dat_o[20] *471:12 0.000118413
6 wbs_dat_o[20] *610:34 0.000273046
*RES
1 *11619:X wbs_dat_o[20] 23.4429 
*END

*D_NET *84 0.00201013
*CONN
*P wbs_dat_o[21] O
*I *11620:X O *D sky130_fd_sc_hd__buf_12
*CAP
1 wbs_dat_o[21] 0.000409779
2 *11620:X 0.000409779
3 wbs_dat_o[21] *11434:A 0
4 wbs_dat_o[21] *11446:A 0.000142856
5 wbs_dat_o[21] *11620:A 0.000225609
6 wbs_dat_o[21] *610:34 0.000822108
*RES
1 *11620:X wbs_dat_o[21] 24.0679 
*END

*D_NET *85 0.00165246
*CONN
*P wbs_dat_o[22] O
*I *11621:X O *D sky130_fd_sc_hd__buf_12
*CAP
1 wbs_dat_o[22] 0.000474083
2 *11621:X 0.000474083
3 wbs_dat_o[22] *11360:A 0.000157311
4 wbs_dat_o[22] *11395:A 0
5 wbs_dat_o[22] *11448:A 0.000128154
6 wbs_dat_o[22] *11621:A 0.000307336
7 wbs_dat_o[22] *617:16 0.000111491
8 *11359:A wbs_dat_o[22] 0
*RES
1 *11621:X wbs_dat_o[22] 23.925 
*END

*D_NET *86 0.00171168
*CONN
*P wbs_dat_o[23] O
*I *11622:X O *D sky130_fd_sc_hd__buf_12
*CAP
1 wbs_dat_o[23] 0.000415356
2 *11622:X 0.000415356
3 wbs_dat_o[23] *11351:A 0
4 wbs_dat_o[23] *11451:A 0.00036192
5 wbs_dat_o[23] *610:34 0.000102207
6 *11364:A wbs_dat_o[23] 0.000416836
*RES
1 *11622:X wbs_dat_o[23] 22.925 
*END

*D_NET *87 0.00115962
*CONN
*P wbs_dat_o[24] O
*I *11623:X O *D sky130_fd_sc_hd__buf_12
*CAP
1 wbs_dat_o[24] 0.000447303
2 *11623:X 0.000447303
3 wbs_dat_o[24] *11623:A 0.000142856
4 wbs_dat_o[24] *617:16 0.000122159
5 *11366:A wbs_dat_o[24] 0
*RES
1 *11623:X wbs_dat_o[24] 22.2821 
*END

*D_NET *88 0.000940645
*CONN
*P wbs_dat_o[25] O
*I *11624:X O *D sky130_fd_sc_hd__buf_12
*CAP
1 wbs_dat_o[25] 0.000470322
2 *11624:X 0.000470322
*RES
1 *11624:X wbs_dat_o[25] 21.0321 
*END

*D_NET *89 0.00115342
*CONN
*P wbs_dat_o[26] O
*I *11625:X O *D sky130_fd_sc_hd__buf_12
*CAP
1 wbs_dat_o[26] 0.000352613
2 *11625:X 0.000352613
3 wbs_dat_o[26] *11371:A 3.5848e-05
4 wbs_dat_o[26] *616:22 0.000269385
5 wbs_dat_o[26] *617:16 0.000142963
6 *11370:A wbs_dat_o[26] 0
*RES
1 *11625:X wbs_dat_o[26] 21.4607 
*END

*D_NET *90 0.00118523
*CONN
*P wbs_dat_o[27] O
*I *11626:X O *D sky130_fd_sc_hd__buf_12
*CAP
1 wbs_dat_o[27] 0.000347939
2 *11626:X 0.000347939
3 wbs_dat_o[27] *11376:A 0
4 wbs_dat_o[27] *11626:A 5.49544e-05
5 wbs_dat_o[27] *572:14 4.82859e-05
6 wbs_dat_o[27] *616:22 0.000270257
7 wbs_dat_o[27] *617:16 0.000115858
8 *11375:A wbs_dat_o[27] 0
*RES
1 *11626:X wbs_dat_o[27] 21.4607 
*END

*D_NET *91 0.00105017
*CONN
*P wbs_dat_o[28] O
*I *11627:X O *D sky130_fd_sc_hd__buf_12
*CAP
1 wbs_dat_o[28] 0.000439677
2 *11627:X 0.000439677
3 wbs_dat_o[28] *11464:A 0
4 wbs_dat_o[28] *573:10 0
5 wbs_dat_o[28] *616:22 5.52302e-05
6 wbs_dat_o[28] *617:16 0.000115587
7 *11388:A wbs_dat_o[28] 0
*RES
1 *11627:X wbs_dat_o[28] 21.4607 
*END

*D_NET *92 0.00115899
*CONN
*P wbs_dat_o[29] O
*I *11628:X O *D sky130_fd_sc_hd__buf_12
*CAP
1 wbs_dat_o[29] 0.000337924
2 *11628:X 0.000337924
3 wbs_dat_o[29] *11400:A 0.000222462
4 wbs_dat_o[29] *11477:A 0.000142801
5 wbs_dat_o[29] *11580:A 0
6 wbs_dat_o[29] *11628:A 5.52302e-05
7 wbs_dat_o[29] *548:20 0
8 wbs_dat_o[29] *572:20 0
9 wbs_dat_o[29] *574:10 6.26466e-05
10 *11399:A wbs_dat_o[29] 0
*RES
1 *11628:X wbs_dat_o[29] 21.4607 
*END

*D_NET *93 0.000711718
*CONN
*P wbs_dat_o[2] O
*I *11629:X O *D sky130_fd_sc_hd__buf_12
*CAP
1 wbs_dat_o[2] 0.00016919
2 *11629:X 0.00016919
3 wbs_dat_o[2] *11409:A 0.000186669
4 wbs_dat_o[2] *11411:A 0.000186669
*RES
1 *11629:X wbs_dat_o[2] 17.9071 
*END

*D_NET *94 0.000966547
*CONN
*P wbs_dat_o[30] O
*I *11630:X O *D sky130_fd_sc_hd__buf_12
*CAP
1 wbs_dat_o[30] 0.000387135
2 *11630:X 0.000387135
3 wbs_dat_o[30] *11402:A 4.57445e-05
4 wbs_dat_o[30] *11499:A 0.000146533
5 wbs_dat_o[30] *11582:A 0
6 wbs_dat_o[30] *493:16 0
*RES
1 *11630:X wbs_dat_o[30] 21.4607 
*END

*D_NET *95 0.000547756
*CONN
*P wbs_dat_o[31] O
*I *11631:X O *D sky130_fd_sc_hd__buf_12
*CAP
1 wbs_dat_o[31] 0.000273878
2 *11631:X 0.000273878
3 wbs_dat_o[31] *11583:A 0
4 wbs_dat_o[31] *577:10 0
5 *11403:A wbs_dat_o[31] 0
*RES
1 *11631:X wbs_dat_o[31] 18.8714 
*END

*D_NET *96 0.00186034
*CONN
*P wbs_dat_o[3] O
*I *11632:X O *D sky130_fd_sc_hd__buf_12
*CAP
1 wbs_dat_o[3] 0.000364033
2 *11632:X 0.000364033
3 wbs_dat_o[3] *11632:A 5.33005e-05
4 wbs_dat_o[3] *382:20 0.000601636
5 wbs_dat_o[3] *579:10 0.000100378
6 wbs_dat_o[3] *592:24 0.000111501
7 wbs_dat_o[3] *599:12 0.000265453
8 wbs_dat_o[3] *611:10 0
9 *11501:A wbs_dat_o[3] 0
*RES
1 *11632:X wbs_dat_o[3] 24.1929 
*END

*D_NET *97 0.000991244
*CONN
*P wbs_dat_o[4] O
*I *11633:X O *D sky130_fd_sc_hd__buf_12
*CAP
1 wbs_dat_o[4] 0.000348387
2 *11633:X 0.000348387
3 wbs_dat_o[4] *11335:A 8.55871e-05
4 wbs_dat_o[4] *11633:A 0.000123295
5 wbs_dat_o[4] *624:26 0
6 *11372:A wbs_dat_o[4] 8.55871e-05
7 *11497:A wbs_dat_o[4] 0
*RES
1 *11633:X wbs_dat_o[4] 19.175 
*END

*D_NET *98 0.000490262
*CONN
*P wbs_dat_o[5] O
*I *11634:X O *D sky130_fd_sc_hd__buf_12
*CAP
1 wbs_dat_o[5] 0.00020306
2 *11634:X 0.00020306
3 wbs_dat_o[5] *11333:A 2.89114e-05
4 wbs_dat_o[5] *586:34 0
5 *11379:A wbs_dat_o[5] 5.52302e-05
6 *11495:A wbs_dat_o[5] 0
*RES
1 *11634:X wbs_dat_o[5] 17.2821 
*END

*D_NET *99 0.000613538
*CONN
*P wbs_dat_o[6] O
*I *11635:X O *D sky130_fd_sc_hd__buf_12
*CAP
1 wbs_dat_o[6] 0.000213435
2 *11635:X 0.000213435
3 wbs_dat_o[6] *11636:A 0.000186669
4 *11383:A wbs_dat_o[6] 0
5 *11492:A wbs_dat_o[6] 0
*RES
1 *11635:X wbs_dat_o[6] 17.9071 
*END

*D_NET *100 0.00176059
*CONN
*P wbs_dat_o[7] O
*I *11636:X O *D sky130_fd_sc_hd__buf_12
*CAP
1 wbs_dat_o[7] 0.000517544
2 *11636:X 0.000517544
3 wbs_dat_o[7] *11387:A 9.58126e-05
4 wbs_dat_o[7] *11482:A 0.000150624
5 wbs_dat_o[7] *11514:A 4.35597e-05
6 wbs_dat_o[7] *11636:A 0.000369374
7 wbs_dat_o[7] *597:14 6.6128e-05
8 *11386:A wbs_dat_o[7] 0
9 *11490:A wbs_dat_o[7] 0
*RES
1 *11636:X wbs_dat_o[7] 24.0679 
*END

*D_NET *101 0.00139224
*CONN
*P wbs_dat_o[8] O
*I *11637:X O *D sky130_fd_sc_hd__buf_12
*CAP
1 wbs_dat_o[8] 0.000517523
2 *11637:X 0.000517523
3 wbs_dat_o[8] *11487:A 0.000143651
4 wbs_dat_o[8] *11514:A 5.52302e-05
5 wbs_dat_o[8] *11637:A 0
6 wbs_dat_o[8] *597:14 0.000158312
7 *11392:A wbs_dat_o[8] 0
*RES
1 *11637:X wbs_dat_o[8] 23.2464 
*END

*D_NET *102 0.00147088
*CONN
*P wbs_dat_o[9] O
*I *11638:X O *D sky130_fd_sc_hd__buf_12
*CAP
1 wbs_dat_o[9] 0.00042037
2 *11638:X 0.00042037
3 wbs_dat_o[9] *11460:A 0.00020212
4 wbs_dat_o[9] *360:10 0.000122159
5 wbs_dat_o[9] *601:22 7.8327e-05
6 wbs_dat_o[9] *628:22 0.000227539
7 *11394:A wbs_dat_o[9] 0
*RES
1 *11638:X wbs_dat_o[9] 23.1036 
*END

*D_NET *103 0.00104854
*CONN
*P wbs_sel_i[0] I
*I *11408:A I *D sky130_fd_sc_hd__dlygate4sd3_1
*CAP
1 wbs_sel_i[0] 0.000524268
2 *11408:A 0.000524268
3 *11408:A *11607:A 0
4 wbs_dat_o[0] *11408:A 0
*RES
1 wbs_sel_i[0] *11408:A 22.2464 
*END

*D_NET *104 0.00206577
*CONN
*P wbs_sel_i[1] I
*I *11418:A I *D sky130_fd_sc_hd__dlygate4sd3_1
*CAP
1 wbs_sel_i[1] 0.00067968
2 *11418:A 0.00067968
3 *11418:A *11415:A 0.00031194
4 *11418:A *11593:A 0.000138399
5 *11418:A *11618:A 0
6 *11418:A *515:10 0
7 *11418:A *592:20 0.000133977
8 *11390:A *11418:A 0
9 *11512:A *11418:A 0.000122091
*RES
1 wbs_sel_i[1] *11418:A 27.425 
*END

*D_NET *105 0.0018929
*CONN
*P wbs_sel_i[2] I
*I *11411:A I *D sky130_fd_sc_hd__dlygate4sd3_1
*CAP
1 wbs_sel_i[2] 0.000567763
2 *11411:A 0.000567763
3 *11411:A *11409:A 0.000176295
4 *11411:A *11629:A 0.000315117
5 *11411:A *591:28 7.92975e-05
6 wbs_dat_o[2] *11411:A 0.000186669
7 *11381:A *11411:A 0
*RES
1 wbs_sel_i[2] *11411:A 27.1214 
*END

*D_NET *106 0.00242985
*CONN
*P wbs_sel_i[3] I
*I *11414:A I *D sky130_fd_sc_hd__dlygate4sd3_1
*CAP
1 wbs_sel_i[3] 0.000737168
2 *11414:A 0.000737168
3 *11414:A *11412:A 0.000122221
4 *11414:A *11585:A 0
5 *11414:A *11596:A 0.00015116
6 *11414:A *11633:A 0
7 *11414:A *382:20 0
8 *11414:A *598:12 0
9 *11414:A *600:16 0.000309441
10 *11414:A *601:10 6.32536e-05
11 *11414:A *626:8 0.000309441
12 *11377:A *11414:A 0
*RES
1 wbs_sel_i[3] *11414:A 29.1571 
*END

*D_NET *107 0.000428709
*CONN
*P wbs_stb_i I
*I *11597:A I *D sky130_fd_sc_hd__clkbuf_2
*CAP
1 wbs_stb_i 0.000195381
2 *11597:A 0.000195381
3 *11597:A *11425:A 0
4 *11597:A *382:14 0
5 *11597:A *591:10 3.79467e-05
6 *11556:A *11597:A 0
*RES
1 wbs_stb_i *11597:A 17.0857 
*END

*D_NET *108 0.000303717
*CONN
*P wbs_we_i I
*I *11425:A I *D sky130_fd_sc_hd__dlygate4sd3_1
*CAP
1 wbs_we_i 0.000151859
2 *11425:A 0.000151859
3 *11425:A *591:10 0
4 *11597:A *11425:A 0
*RES
1 wbs_we_i *11425:A 16.4429 
*END

*D_NET *109 0.00642226
*CONN
*I *11324:RESET_B I *D sky130_fd_sc_hd__dfrtp_1
*I *11323:Y O *D sky130_fd_sc_hd__inv_2
*CAP
1 *11324:RESET_B 0.00158744
2 *11323:Y 0.00158744
3 *11324:RESET_B *745:DIODE 2.99701e-05
4 *11324:RESET_B *11231:A1 5.33005e-05
5 *11324:RESET_B *11231:A2 5.71472e-05
6 *11324:RESET_B *11231:B2 0.00031108
7 *11324:RESET_B *11231:C1 5.52238e-05
8 *11324:RESET_B *11338:A 0.000239693
9 *11324:RESET_B *11348:A 0.000478619
10 *11324:RESET_B *575:22 0.000268587
11 *11324:RESET_B *618:18 0.000564322
12 *11324:RESET_B *623:8 0.00116956
13 *11390:A *11324:RESET_B 1.98839e-05
*RES
1 *11323:Y *11324:RESET_B 45.5054 
*END

*D_NET *110 0.0215403
*CONN
*I *11212:A I *D sky130_fd_sc_hd__nor2_2
*I *11201:A I *D sky130_fd_sc_hd__inv_2
*I *11217:B I *D sky130_fd_sc_hd__nor2_2
*I *11200:Y O *D sky130_fd_sc_hd__nand2_2
*CAP
1 *11212:A 0
2 *11201:A 0.000311707
3 *11217:B 0
4 *11200:Y 0.0010438
5 *110:40 0.00115739
6 *110:18 0.000571224
7 *110:14 0.00196206
8 *110:8 0.00158895
9 *11201:A *122:10 0.000331309
10 *11201:A *199:6 4.58194e-05
11 *11201:A *199:12 0
12 *11201:A *199:70 0.000119971
13 *11201:A *567:43 2.49484e-05
14 *11201:A *589:22 9.41642e-05
15 *11201:A *611:12 0.000304394
16 *110:8 *11494:A 6.05161e-06
17 *110:8 *580:12 0.00232695
18 *110:8 *591:51 0.0018744
19 *110:8 *601:12 0.000481866
20 *110:8 *623:8 0.000224161
21 *110:14 *11635:A 0
22 *110:14 *199:26 0.000395743
23 *110:14 *338:10 3.25078e-05
24 *110:14 *582:10 0
25 *110:14 *626:16 9.91086e-05
26 *110:18 *199:12 0
27 *110:18 *199:26 0
28 *110:18 *567:43 0.000109884
29 *110:18 *597:12 0
30 *110:40 *582:14 0.00470838
31 *110:40 *582:22 2.1806e-05
32 *110:40 *583:14 0.00351284
33 *11495:A *110:8 0.000190848
*RES
1 *11200:Y *110:8 48.425 
2 *110:8 *110:14 14.6071 
3 *110:14 *110:18 9.17857 
4 *110:18 *11217:B 13.8 
5 *110:18 *11201:A 21.7821 
6 *110:14 *110:40 46.5536 
7 *110:40 *11212:A 9.3 
*END

*D_NET *111 0.0182448
*CONN
*I *11421:A I *D sky130_fd_sc_hd__dlygate4sd3_1
*I *11202:X O *D sky130_fd_sc_hd__and3_2
*CAP
1 *11421:A 0
2 *11202:X 0.000128442
3 *111:18 0.00102606
4 *111:10 0.00267546
5 *111:8 0.00177784
6 *111:8 *199:82 2.89016e-05
7 *111:10 *749:DIODE 0.000198353
8 *111:10 *879:DIODE 5.78834e-05
9 *111:10 *880:DIODE 0.000202835
10 *111:10 *120:10 0.00235021
11 *111:10 *143:41 0.00101159
12 *111:10 *143:80 0.000527319
13 *111:10 *202:24 1.90936e-05
14 *111:10 *202:39 0.000200057
15 *111:10 *238:85 2.09897e-05
16 *111:10 *238:103 0.000180138
17 *111:10 *239:83 0.000498473
18 *111:10 *240:22 0.000907418
19 *111:10 *242:21 0.000451829
20 *111:10 *242:35 0.000270094
21 *111:10 *245:26 0.000708984
22 *111:10 *248:27 1.12323e-05
23 *111:10 *259:29 0.000358827
24 *111:10 *264:29 1.94945e-05
25 *111:18 *120:10 0.00149223
26 *111:18 *245:26 0.00279176
27 *111:18 *564:8 1.83053e-05
28 *3:25 *111:10 0.000101071
29 *3:25 *111:18 0.00020996
*RES
1 *11202:X *111:8 15.1571 
2 *111:8 *111:10 63.6161 
3 *111:10 *111:18 42.9196 
4 *111:18 *11421:A 9.3 
*END

*D_NET *112 0.0252476
*CONN
*I *11205:A I *D sky130_fd_sc_hd__clkbuf_8
*I *11204:X O *D sky130_fd_sc_hd__and4b_2
*CAP
1 *11205:A 0.000612563
2 *11204:X 0.000200483
3 *112:20 0.00149383
4 *112:10 0.00259521
5 *112:8 0.00191443
6 *112:8 *11204:B 5.39629e-06
7 *112:8 *11204:C 3.80953e-06
8 *112:8 *591:57 2.22999e-05
9 *112:10 *125:12 0.00171469
10 *112:10 *125:14 1.09232e-05
11 *112:10 *212:31 0.000169194
12 *112:10 *229:34 0.00565186
13 *112:10 *229:40 2.59045e-05
14 *112:10 *549:10 0.00375834
15 *112:10 *552:12 0.000313565
16 *112:10 *596:12 0.000710291
17 *112:20 *11262:A0 6.77187e-05
18 *112:20 *11262:A1 0.00016997
19 *112:20 *153:20 0.000353612
20 *112:20 *229:34 0.00254162
21 *112:20 *552:12 0.000544011
22 *112:20 *552:14 0.00236787
*RES
1 *11204:X *112:8 15.9786 
2 *112:8 *112:10 81.5625 
3 *112:10 *112:20 43.0804 
4 *112:20 *11205:A 16.8179 
*END

*D_NET *113 0.0700076
*CONN
*I *11320:S I *D sky130_fd_sc_hd__mux2_4
*I *11317:S I *D sky130_fd_sc_hd__mux2_4
*I *11314:S I *D sky130_fd_sc_hd__mux2_4
*I *11280:A I *D sky130_fd_sc_hd__clkbuf_8
*I *11206:A I *D sky130_fd_sc_hd__buf_6
*I *11245:A I *D sky130_fd_sc_hd__buf_4
*I *11205:X O *D sky130_fd_sc_hd__clkbuf_8
*CAP
1 *11320:S 0.00083662
2 *11317:S 2.23854e-05
3 *11314:S 0
4 *11280:A 0.00025624
5 *11206:A 0
6 *11245:A 0
7 *11205:X 0.000359775
8 *113:68 0.00154657
9 *113:59 0.00228328
10 *113:57 0.00210249
11 *113:36 0.00393022
12 *113:34 0.00318959
13 *113:27 0.000272941
14 *113:20 0.000969513
15 *113:14 0.00312482
16 *113:12 0.00240586
17 *113:10 0.00792508
18 *113:8 0.00828485
19 *11280:A *166:10 0
20 *11280:A *315:35 0.000190395
21 *11317:S *11317:A0 0
22 *11317:S *11317:A1 0
23 *11320:S *11317:A0 0.00049098
24 *11320:S *11320:A0 3.48705e-05
25 *11320:S *11320:A1 0.00036192
26 *11320:S *184:38 0.00197564
27 *11320:S *324:30 0.000315009
28 *113:10 *204:10 0
29 *113:10 *214:22 0.00511942
30 *113:10 *217:22 0.000814128
31 *113:10 *222:28 0
32 *113:10 *226:26 0.00150319
33 *113:10 *246:69 0
34 *113:10 *309:55 0
35 *113:10 *326:27 0.00277246
36 *113:14 *301:21 0.00154555
37 *113:14 *304:51 0.00709049
38 *113:14 *329:27 4.43256e-05
39 *113:27 *203:8 0.000318107
40 *113:36 *1016:DIODE 0.000347874
41 *113:36 *11290:A0 0.000635364
42 *113:36 *11290:A1 0.00106822
43 *113:36 *11290:S 5.49489e-05
44 *113:36 *174:29 7.92229e-06
45 *113:36 *282:34 5.52302e-05
46 *113:36 *314:29 0.000165025
47 *113:57 *1124:DIODE 0
48 *113:57 *315:35 0
49 *113:59 *166:114 0.00119488
50 *113:59 *180:60 0.000219759
51 *113:59 *190:12 9.41642e-05
52 *113:59 *292:39 0.00300418
53 *113:59 *306:30 0.00156565
54 *113:59 *330:25 0.000100473
55 *113:68 *11314:A0 0.00095689
56 *113:68 *11317:A0 4.88637e-05
57 *113:68 *11317:A1 0.000188586
58 *113:68 *292:39 7.60424e-05
59 *113:68 *313:47 0.000136807
*RES
1 *11205:X *113:8 19.2643 
2 *113:8 *113:10 207.161 
3 *113:10 *113:12 4.5 
4 *113:12 *113:14 70.7679 
5 *113:14 *113:20 20.6607 
6 *113:20 *11245:A 9.3 
7 *113:20 *113:27 5.46429 
8 *113:27 *11206:A 9.3 
9 *113:27 *113:34 0.428571 
10 *113:34 *113:36 55.5714 
11 *113:36 *11280:A 23.5143 
12 *113:36 *113:57 16.4643 
13 *113:57 *113:59 52.2857 
14 *113:59 *11314:S 9.3 
15 *113:59 *113:68 14.1071 
16 *113:68 *11317:S 9.72857 
17 *113:68 *11320:S 34.0857 
*END

*D_NET *114 0.0141241
*CONN
*I *11208:A I *D sky130_fd_sc_hd__buf_4
*I *11207:X O *D sky130_fd_sc_hd__and3b_1
*CAP
1 *11208:A 0.000158975
2 *11207:X 7.60687e-05
3 *114:12 0.000979728
4 *114:10 0.000896821
5 *11208:A *217:32 0.000232833
6 *114:10 *11210:A 4.63699e-05
7 *114:10 *563:8 5.37741e-06
8 *114:12 *515:16 0.00586399
9 *114:12 *581:12 0.00586399
*RES
1 *11207:X *114:10 19.6393 
2 *114:10 *114:12 55.5714 
3 *114:12 *11208:A 21.4607 
*END

*D_NET *115 0.062237
*CONN
*I *11247:A I *D sky130_fd_sc_hd__buf_4
*I *11321:S I *D sky130_fd_sc_hd__mux2_2
*I *11318:S I *D sky130_fd_sc_hd__mux2_2
*I *11315:S I *D sky130_fd_sc_hd__mux2_1
*I *11282:A I *D sky130_fd_sc_hd__buf_4
*I *11209:A I *D sky130_fd_sc_hd__buf_8
*I *11208:X O *D sky130_fd_sc_hd__buf_4
*CAP
1 *11247:A 5.89501e-05
2 *11321:S 0.00143048
3 *11318:S 6.37143e-05
4 *11315:S 0
5 *11282:A 0
6 *11209:A 0
7 *11208:X 0.000868939
8 *115:71 0.00517829
9 *115:69 0.0036841
10 *115:67 0.00144315
11 *115:65 0.00187935
12 *115:54 0.000815907
13 *115:52 0.00237751
14 *115:43 0.00217973
15 *115:37 0.00198738
16 *115:30 0.00226029
17 *115:16 0.00138272
18 *11247:A *404:24 8.40933e-05
19 *11247:A *585:22 0.000175892
20 *11318:S *11318:A1 5.33005e-05
21 *11321:S *11321:A1 5.33005e-05
22 *11321:S *11467:A 0.000243662
23 *11321:S *168:114 0.00190532
24 *11321:S *369:79 2.79421e-05
25 *115:16 *167:121 3.5298e-05
26 *115:16 *169:20 0.0022842
27 *115:16 *217:32 0
28 *115:16 *404:20 0.00174101
29 *115:16 *404:24 0.000548449
30 *115:16 *585:22 0.000140933
31 *115:30 *718:DIODE 1.37292e-05
32 *115:30 *118:75 0.00035686
33 *115:30 *143:10 3.34295e-05
34 *115:30 *172:34 5.51502e-05
35 *115:30 *338:38 0.00113496
36 *115:30 *371:44 0.00145184
37 *115:30 *584:64 4.13496e-05
38 *115:30 *585:20 6.31653e-05
39 *115:37 *1232:DIODE 0.000173328
40 *115:37 *11322:B2 0.000117393
41 *115:37 *118:75 3.8274e-05
42 *115:37 *178:97 0.000144773
43 *115:37 *371:44 0.000871015
44 *115:37 *537:12 0.00194424
45 *115:37 *612:20 0.00324455
46 *115:37 *614:16 0.00251385
47 *115:37 *614:18 0.00142375
48 *115:43 *11351:A 0
49 *115:43 *11395:A 0
50 *115:43 *168:86 9.25014e-06
51 *115:52 *191:12 0.00244204
52 *115:54 *191:10 0
53 *115:54 *571:10 0.000270856
54 *115:65 *571:10 7.0098e-05
55 *115:67 *168:99 0.00507599
56 *115:67 *572:20 0.00145617
57 *115:71 *11467:A 0.00103865
58 *115:71 *168:103 0.00512849
59 *115:71 *168:114 0.000219886
*RES
1 *11208:X *115:16 49.3714 
2 *115:16 *115:30 28.5714 
3 *115:30 *11209:A 9.3 
4 *115:30 *115:37 68.3036 
5 *115:37 *115:43 11.8571 
6 *115:43 *11282:A 9.3 
7 *115:43 *115:52 49.3929 
8 *115:52 *115:54 7.41071 
9 *115:54 *11315:S 13.8 
10 *115:54 *115:65 12.2143 
11 *115:65 *115:67 48.5893 
12 *115:67 *115:69 4.5 
13 *115:69 *115:71 68.125 
14 *115:71 *11318:S 14.7464 
15 *115:71 *11321:S 39.1571 
16 *115:16 *11247:A 11.0679 
*END

*D_NET *116 0.00374498
*CONN
*I *11211:A I *D sky130_fd_sc_hd__buf_2
*I *11210:X O *D sky130_fd_sc_hd__or2_1
*CAP
1 *11211:A 0.00103753
2 *11210:X 0.00103753
3 *11211:A *11253:A 1.81548e-05
4 *11211:A *11328:A 0.000188586
5 *11211:A *117:10 0.000112544
6 *11211:A *117:12 0.000139202
7 *11211:A *118:12 1.95493e-05
8 *11211:A *118:14 7.69297e-05
9 *11211:A *140:16 0.000119174
10 *11211:A *338:26 0.00045003
11 *11211:A *582:14 0.000472268
12 *11211:A *582:22 5.33005e-05
13 *11484:A *11211:A 2.01732e-05
*RES
1 *11210:X *11211:A 46.3321 
*END

*D_NET *117 0.0360755
*CONN
*I *11322:A2 I *D sky130_fd_sc_hd__o221a_2
*I *11319:A2 I *D sky130_fd_sc_hd__o221a_2
*I *11285:A I *D sky130_fd_sc_hd__buf_2
*I *11212:B I *D sky130_fd_sc_hd__nor2_2
*I *11250:A I *D sky130_fd_sc_hd__clkbuf_4
*I *11214:A I *D sky130_fd_sc_hd__clkbuf_4
*I *11211:X O *D sky130_fd_sc_hd__buf_2
*CAP
1 *11322:A2 0
2 *11319:A2 2.04436e-05
3 *11285:A 0
4 *11212:B 0.000312694
5 *11250:A 0
6 *11214:A 0.000361664
7 *11211:X 0
8 *117:131 0.000942227
9 *117:104 0.000962671
10 *117:102 0.00291737
11 *117:71 0.00440234
12 *117:65 0.0022331
13 *117:12 0.000641921
14 *117:10 0.000854995
15 *117:4 0.00101017
16 *11212:B *118:12 0.000128517
17 *11212:B *118:14 0.000260593
18 *11212:B *122:52 8.0347e-05
19 *11212:B *215:32 3.83425e-05
20 *11214:A *11489:A 0.00010096
21 *11214:A *201:18 0.000184745
22 *11214:A *338:12 0.000126639
23 *11214:A *580:12 0.00140331
24 *11214:A *580:22 2.04825e-05
25 *11214:A *584:28 1.5424e-05
26 *11214:A *601:12 0.000156917
27 *11214:A *601:22 0.000883439
28 *11319:A2 *11319:B1 4.19624e-06
29 *11319:A2 *11322:C1 2.11419e-05
30 *117:10 *11328:A 0.000276211
31 *117:12 *11396:A 0.000225989
32 *117:12 *338:12 0.000198352
33 *117:12 *338:26 3.88131e-05
34 *117:65 *11328:A 0.00018372
35 *117:65 *338:26 8.43535e-06
36 *117:65 *338:28 0.000175725
37 *117:65 *371:30 0.00141447
38 *117:65 *584:40 0.000121573
39 *117:65 *589:14 0.000271898
40 *117:71 *11288:A 9.35228e-06
41 *117:71 *118:57 0.00328361
42 *117:71 *122:58 4.98323e-05
43 *117:71 *122:89 0.000373042
44 *117:71 *173:12 0.000531454
45 *117:71 *173:44 0.000278011
46 *117:102 *11295:B1 0.000135472
47 *117:102 *11295:C1 9.41642e-05
48 *117:102 *11298:B1 1.01417e-05
49 *117:102 *11298:B2 0
50 *117:102 *11298:C1 5.54856e-05
51 *117:102 *11614:A 0.000204216
52 *117:102 *118:57 0.000207998
53 *117:102 *118:61 0.000225616
54 *117:102 *122:89 0.000142498
55 *117:102 *122:93 0.000441258
56 *117:102 *170:16 8.28647e-05
57 *117:102 *170:63 0.000464902
58 *117:102 *170:76 0.000327494
59 *117:102 *170:89 0.000347924
60 *117:102 *170:102 0.00029773
61 *117:102 *170:106 6.48131e-05
62 *117:102 *173:44 4.33174e-05
63 *117:102 *173:63 6.3963e-05
64 *117:102 *349:12 0.000467422
65 *117:102 *448:16 0.00040734
66 *117:102 *580:42 0.00154192
67 *117:102 *608:12 7.1299e-05
68 *117:131 *11307:A2 9.60337e-06
69 *117:131 *11307:B2 0.00034912
70 *117:131 *11313:B1 4.6025e-06
71 *117:131 *11319:B1 2.91102e-05
72 *117:131 *11322:A1 6.59342e-05
73 *117:131 *11322:B2 0.000144787
74 *117:131 *11322:C1 0.000219664
75 *117:131 *11330:A 0.000142085
76 *117:131 *11471:A 0.000559259
77 *117:131 *11617:A 0
78 *117:131 *118:81 1.18666e-05
79 *117:131 *229:46 0.000302451
80 *117:131 *404:24 0.00116668
81 *117:131 *585:22 0.00102313
82 *11211:A *117:10 0.000112544
83 *11211:A *117:12 0.000139202
84 *11397:A *117:65 0.00051756
85 *11484:A *117:12 5.49544e-05
*RES
1 *11211:X *117:4 9.3 
2 *117:4 *117:10 4.375 
3 *117:10 *117:12 6.69643 
4 *117:12 *11214:A 35.3893 
5 *117:12 *11250:A 9.3 
6 *117:10 *11212:B 24.7821 
7 *117:4 *117:65 28.9107 
8 *117:65 *117:71 37.5357 
9 *117:71 *11285:A 9.3 
10 *117:71 *117:102 49.5224 
11 *117:102 *117:104 3.41 
12 *117:104 *11319:A2 14.0768 
13 *117:104 *117:131 42.5625 
14 *117:131 *11322:A2 9.3 
*END

*D_NET *118 0.0346269
*CONN
*I *11244:A I *D sky130_fd_sc_hd__clkbuf_4
*I *11279:A I *D sky130_fd_sc_hd__clkbuf_4
*I *11322:B1 I *D sky130_fd_sc_hd__o221a_2
*I *11316:B1 I *D sky130_fd_sc_hd__o221a_2
*I *11319:B1 I *D sky130_fd_sc_hd__o221a_2
*I *11213:A I *D sky130_fd_sc_hd__clkbuf_8
*I *11212:Y O *D sky130_fd_sc_hd__nor2_2
*CAP
1 *11244:A 0
2 *11279:A 0
3 *11322:B1 0.000807836
4 *11316:B1 1.39716e-05
5 *11319:B1 0.000117652
6 *11213:A 0.000292625
7 *11212:Y 0.000149746
8 *118:104 0.00151368
9 *118:81 0.00166949
10 *118:75 0.0027765
11 *118:61 0.00195589
12 *118:57 0.00198633
13 *118:43 0.00324702
14 *118:14 0.00179893
15 *118:12 0.000356017
16 *11213:A *11396:A 8.61074e-05
17 *11213:A *11489:A 5.71472e-05
18 *11213:A *11562:A 2.01732e-05
19 *11213:A *122:52 1.58357e-05
20 *11213:A *580:24 0.000357704
21 *11213:A *584:28 1.69961e-05
22 *11213:A *584:40 0.000270078
23 *11316:B1 *11322:C1 2.86459e-05
24 *11316:B1 *173:129 5.4754e-05
25 *11319:B1 *11319:A1 0
26 *11319:B1 *11319:B2 0.000113752
27 *11319:B1 *11322:C1 4.37429e-05
28 *11319:B1 *122:93 1.85392e-05
29 *11322:B1 *11310:A1 0.000620606
30 *11322:B1 *11313:A2 1.28809e-05
31 *11322:B1 *11313:C1 6.90249e-05
32 *11322:B1 *11322:B2 1.90936e-05
33 *11322:B1 *11617:A 4.65158e-06
34 *11322:B1 *191:32 8.23597e-06
35 *11322:B1 *615:12 7.45939e-06
36 *118:12 *582:22 5.47001e-05
37 *118:14 *11396:A 0.000110627
38 *118:14 *122:52 3.73998e-05
39 *118:43 *122:52 0.00161813
40 *118:43 *122:58 1.21289e-05
41 *118:43 *371:18 0.000488071
42 *118:43 *404:18 7.6644e-05
43 *118:43 *584:40 0.000488071
44 *118:57 *716:DIODE 9.54798e-06
45 *118:57 *122:58 0.00288672
46 *118:57 *165:12 8.74764e-05
47 *118:57 *165:20 0.000172356
48 *118:57 *173:12 0
49 *118:57 *580:42 0.000949536
50 *118:61 *170:63 0.000229181
51 *118:75 *11617:A 1.90936e-05
52 *118:75 *165:12 3.93986e-05
53 *118:75 *183:28 9.11048e-06
54 *118:75 *584:64 0.00152045
55 *118:75 *612:20 0.00048638
56 *118:75 *622:24 3.71496e-05
57 *118:81 *11307:A2 2.06178e-05
58 *118:81 *11307:B2 0.000143169
59 *118:81 *11319:B2 0.000172155
60 *118:81 *404:24 0.000855863
61 *118:104 *11310:A1 2.05484e-05
62 *118:104 *11316:A2 1.3807e-05
63 *118:104 *165:147 0.000858584
64 *118:104 *191:32 3.47641e-06
65 *11211:A *118:12 1.95493e-05
66 *11211:A *118:14 7.69297e-05
67 *11212:B *118:12 0.000128517
68 *11212:B *118:14 0.000260593
69 *11319:A2 *11319:B1 4.19624e-06
70 *11484:A *11213:A 5.22381e-05
71 *115:30 *118:75 0.00035686
72 *115:37 *118:75 3.8274e-05
73 *117:71 *118:57 0.00328361
74 *117:102 *118:57 0.000207998
75 *117:102 *118:61 0.000225616
76 *117:131 *11319:B1 2.91102e-05
77 *117:131 *118:81 1.18666e-05
*RES
1 *11212:Y *118:12 16.2107 
2 *118:12 *118:14 5.28571 
3 *118:14 *11213:A 20.8357 
4 *118:14 *118:43 35.6429 
5 *118:43 *118:57 46.4461 
6 *118:57 *118:61 6.67857 
7 *118:61 *118:75 46.1429 
8 *118:75 *118:81 17.8214 
9 *118:81 *11319:B1 16.5366 
10 *118:81 *118:104 18.375 
11 *118:104 *11316:B1 14.3313 
12 *118:104 *11322:B1 22.7914 
13 *118:61 *11279:A 9.3 
14 *118:12 *11244:A 13.8 
*END

*D_NET *119 0.0300329
*CONN
*I *11249:A2 I *D sky130_fd_sc_hd__o221a_2
*I *11234:A2 I *D sky130_fd_sc_hd__o221a_1
*I *11243:A2 I *D sky130_fd_sc_hd__o221a_2
*I *11231:A2 I *D sky130_fd_sc_hd__o221a_1
*I *11240:A2 I *D sky130_fd_sc_hd__o221a_2
*I *11237:A2 I *D sky130_fd_sc_hd__o221a_2
*I *11228:A2 I *D sky130_fd_sc_hd__o221a_1
*I *11222:A2 I *D sky130_fd_sc_hd__o221a_1
*I *11225:A2 I *D sky130_fd_sc_hd__o221a_1
*I *11219:A2 I *D sky130_fd_sc_hd__o221a_1
*I *11214:X O *D sky130_fd_sc_hd__clkbuf_4
*CAP
1 *11249:A2 0
2 *11234:A2 0.000166303
3 *11243:A2 0
4 *11231:A2 0.000212704
5 *11240:A2 0.000181629
6 *11237:A2 0.000276048
7 *11228:A2 4.52455e-05
8 *11222:A2 0
9 *11225:A2 0
10 *11219:A2 0.000390829
11 *11214:X 0.000282938
12 *119:77 0.000372851
13 *119:48 0.000618855
14 *119:44 0.000316966
15 *119:42 0.000371395
16 *119:40 0.000593752
17 *119:38 0.000418992
18 *119:36 8.2767e-05
19 *119:34 0.00045824
20 *119:26 0.00271133
21 *119:16 0.0032517
22 *119:10 0.00105754
23 *11219:A2 *735:DIODE 5.80706e-06
24 *11219:A2 *11219:C1 5.52238e-05
25 *11219:A2 *11225:B2 0.000357638
26 *11219:A2 *11607:A 6.05161e-06
27 *11219:A2 *227:27 0.000173683
28 *11228:A2 *11228:B2 0.000153047
29 *11228:A2 *230:27 7.71321e-05
30 *11231:A2 *745:DIODE 9.25014e-06
31 *11231:A2 *11231:B1 0
32 *11231:A2 *11231:B2 5.71472e-05
33 *11231:A2 *11348:A 6.42338e-05
34 *11231:A2 *201:54 0
35 *11231:A2 *201:126 0.000125724
36 *11231:A2 *231:21 0.000328394
37 *11234:A2 *11231:B2 0
38 *11234:A2 *11243:A1 0.000163046
39 *11234:A2 *231:21 7.80714e-06
40 *11234:A2 *625:12 5.33005e-05
41 *11237:A2 *11228:B2 1.721e-05
42 *11237:A2 *11237:B1 2.79753e-05
43 *11237:A2 *11237:B2 2.59355e-05
44 *11237:A2 *123:43 4.08637e-05
45 *11237:A2 *123:49 5.33005e-05
46 *11237:A2 *216:29 0.000145255
47 *11237:A2 *230:27 0.000192674
48 *11240:A2 *11240:A1 0.000106533
49 *119:10 *123:10 0
50 *119:10 *201:18 0
51 *119:16 *123:14 0.00444811
52 *119:16 *148:16 0.000117621
53 *119:16 *201:22 0.00396358
54 *119:16 *201:46 0.000349112
55 *119:16 *633:10 0.000123295
56 *119:26 *11249:B2 1.02504e-05
57 *119:26 *201:50 0.00120955
58 *119:26 *575:30 0.00219661
59 *119:26 *595:12 0
60 *119:26 *600:16 3.8274e-05
61 *119:34 *11249:B1 6.40221e-05
62 *119:34 *123:16 3.98695e-05
63 *119:34 *123:18 0.000532071
64 *119:34 *627:12 0.000677479
65 *119:36 *123:18 7.32756e-05
66 *119:36 *627:12 7.20217e-06
67 *119:38 *123:18 2.89016e-05
68 *119:40 *11243:B1 1.28809e-05
69 *119:40 *123:18 6.24897e-05
70 *119:40 *123:22 8.66063e-05
71 *119:40 *123:26 0.000178847
72 *119:42 *11222:A1 5.52302e-05
73 *119:42 *123:26 0.000260574
74 *119:44 *11222:A1 0.000226828
75 *119:44 *618:18 0.000215726
76 *119:48 *735:DIODE 9.90367e-05
77 *119:48 *11225:B1 5.7661e-06
78 *119:48 *201:88 0.000313934
79 *119:48 *618:18 0.000521318
80 *11324:RESET_B *11231:A2 5.71472e-05
*RES
1 *11214:X *119:10 22.675 
2 *119:10 *119:16 48.5714 
3 *119:16 *119:26 48.5357 
4 *119:26 *119:34 11.7857 
5 *119:34 *119:36 1.35714 
6 *119:36 *119:38 0.535714 
7 *119:38 *119:40 3.82143 
8 *119:40 *119:42 4.23214 
9 *119:42 *119:44 3 
10 *119:44 *119:48 7.125 
11 *119:48 *11219:A2 26.8 
12 *119:48 *11225:A2 9.3 
13 *119:44 *11222:A2 9.3 
14 *119:42 *119:77 5.46429 
15 *119:77 *11228:A2 15.7464 
16 *119:77 *11237:A2 19.4964 
17 *119:40 *11240:A2 20.8536 
18 *119:38 *11231:A2 24.175 
19 *119:36 *11243:A2 9.3 
20 *119:34 *11234:A2 21.3893 
21 *119:26 *11249:A2 9.3 
*END

*D_NET *120 0.0384487
*CONN
*I *11216:A0 I *D sky130_fd_sc_hd__mux2_2
*I *11215:X O *D sky130_fd_sc_hd__mux2_2
*CAP
1 *11216:A0 0.000108052
2 *11215:X 0.000110462
3 *120:10 0.00446849
4 *120:8 0.00447089
5 *11216:A0 *11216:S 5.33005e-05
6 *11216:A0 *143:80 8.55871e-05
7 *11216:A0 *237:27 5.96516e-05
8 *120:8 *326:35 0.000135028
9 *120:10 *1163:DIODE 8.15939e-05
10 *120:10 *159:10 0.0127604
11 *120:10 *163:10 0.000404901
12 *120:10 *200:66 0
13 *120:10 *240:22 0.00107743
14 *120:10 *240:49 0.000190911
15 *120:10 *245:26 2.50556e-05
16 *120:10 *298:28 0.000666589
17 *120:10 *327:60 6.37408e-06
18 *120:10 *564:10 0.00754331
19 *3:25 *120:10 0.00235826
20 *111:10 *120:10 0.00235021
21 *111:18 *120:10 0.00149223
*RES
1 *11215:X *120:8 15.1571 
2 *120:8 *120:10 188.643 
3 *120:10 *11216:A0 15.9964 
*END

*D_NET *121 0.0347434
*CONN
*I *11219:B2 I *D sky130_fd_sc_hd__o221a_1
*I *11216:X O *D sky130_fd_sc_hd__mux2_2
*CAP
1 *11219:B2 0.000479678
2 *11216:X 5.41058e-05
3 *121:18 0.00267409
4 *121:16 0.00330455
5 *121:10 0.00305064
6 *121:8 0.00199461
7 *11219:B2 *11219:B1 1.02504e-05
8 *11219:B2 *11225:B2 0
9 *11219:B2 *205:29 0.000323119
10 *11219:B2 *227:27 0
11 *121:8 *143:80 9.60939e-05
12 *121:10 *129:8 0.00125454
13 *121:10 *130:10 0.00206408
14 *121:10 *242:41 0.00182025
15 *121:16 *11257:A2 0.000749061
16 *121:16 *11257:B1 0.000832285
17 *121:16 *129:8 9.25165e-05
18 *121:16 *140:134 0.000906972
19 *121:16 *145:41 0.00061219
20 *121:16 *145:112 0.000381194
21 *121:16 *145:123 0.000920186
22 *121:16 *148:24 0.000249984
23 *121:16 *148:97 0.000256756
24 *121:16 *148:108 1.0033e-05
25 *121:18 *125:18 0.00038616
26 *121:18 *129:12 0.00683579
27 *121:18 *137:16 0.000116749
28 *121:18 *205:29 0.000587716
29 *121:18 *229:42 0.000774361
30 *121:18 *231:19 0.000144561
31 *121:18 *235:19 0.00376092
*RES
1 *11216:X *121:8 14.7464 
2 *121:8 *121:10 55.6696 
3 *121:10 *121:16 44.3304 
4 *121:16 *121:18 79.3929 
5 *121:18 *11219:B2 29.9607 
*END

*D_NET *122 0.0395348
*CONN
*I *11319:C1 I *D sky130_fd_sc_hd__o221a_2
*I *11322:C1 I *D sky130_fd_sc_hd__o221a_2
*I *11288:A I *D sky130_fd_sc_hd__buf_2
*I *11253:A I *D sky130_fd_sc_hd__clkbuf_4
*I *11218:A I *D sky130_fd_sc_hd__clkbuf_4
*I *11217:Y O *D sky130_fd_sc_hd__nor2_2
*CAP
1 *11319:C1 0
2 *11322:C1 0.0013642
3 *11288:A 3.01357e-05
4 *11253:A 7.06e-05
5 *11218:A 0.00024025
6 *11217:Y 0.000117304
7 *122:93 0.00236085
8 *122:89 0.00155543
9 *122:58 0.00122979
10 *122:52 0.001721
11 *122:29 0.00226376
12 *122:16 0.00255795
13 *122:10 0.00132196
14 *11218:A *123:10 0
15 *11218:A *600:24 5.94923e-05
16 *11253:A *140:16 1.84368e-05
17 *11322:C1 *11310:A1 3.47641e-06
18 *11322:C1 *11310:B1 2.73571e-05
19 *11322:C1 *11310:B2 0
20 *11322:C1 *11313:A2 0.000135887
21 *11322:C1 *11313:C1 0.000183157
22 *11322:C1 *11316:A2 1.66955e-05
23 *11322:C1 *11319:A1 2.32517e-05
24 *11322:C1 *11319:B2 2.95641e-05
25 *11322:C1 *11330:A 0.000282243
26 *11322:C1 *11617:A 2.47697e-05
27 *11322:C1 *173:125 0.000643332
28 *11322:C1 *173:129 0.000116647
29 *11322:C1 *448:28 0
30 *122:10 *567:43 0.000334351
31 *122:16 *567:31 0
32 *122:16 *589:22 0.00304523
33 *122:16 *600:24 0.000171615
34 *122:16 *611:12 0.00304523
35 *122:29 *11284:A2 0.000532299
36 *122:29 *148:16 0.000382279
37 *122:52 *11284:A2 0.000393285
38 *122:52 *11503:A 0.00026596
39 *122:52 *11562:A 0.000144773
40 *122:52 *371:18 0.000569201
41 *122:52 *404:18 0
42 *122:52 *567:16 0
43 *122:52 *584:40 0.000317848
44 *122:58 *580:24 0.00225314
45 *122:58 *584:40 9.80173e-05
46 *122:89 *170:16 0.000129118
47 *122:89 *173:44 0.000399375
48 *122:89 *607:16 0
49 *122:89 *608:12 0
50 *122:93 *11319:A1 4.88637e-05
51 *122:93 *11319:B2 5.71472e-05
52 *122:93 *11469:A 0.000267731
53 *122:93 *349:12 0.00217869
54 *122:93 *448:16 0.00207716
55 *11201:A *122:10 0.000331309
56 *11211:A *11253:A 1.81548e-05
57 *11212:B *122:52 8.0347e-05
58 *11213:A *122:52 1.58357e-05
59 *11316:B1 *11322:C1 2.86459e-05
60 *11319:A2 *11322:C1 2.11419e-05
61 *11319:B1 *11322:C1 4.37429e-05
62 *11319:B1 *122:93 1.85392e-05
63 *11397:A *122:52 7.8195e-05
64 *117:71 *11288:A 9.35228e-06
65 *117:71 *122:58 4.98323e-05
66 *117:71 *122:89 0.000373042
67 *117:102 *122:89 0.000142498
68 *117:102 *122:93 0.000441258
69 *117:131 *11322:C1 0.000219664
70 *118:14 *122:52 3.73998e-05
71 *118:43 *122:52 0.00161813
72 *118:43 *122:58 1.21289e-05
73 *118:57 *122:58 0.00288672
*RES
1 *11217:Y *122:10 22.675 
2 *122:10 *122:16 46.25 
3 *122:16 *11218:A 17.8714 
4 *122:16 *122:29 20.2321 
5 *122:29 *11253:A 19.6393 
6 *122:29 *122:52 36.8393 
7 *122:52 *122:58 33.9464 
8 *122:58 *11288:A 9.72857 
9 *122:58 *122:89 30.1429 
10 *122:89 *122:93 41.2143 
11 *122:93 *11322:C1 48.7464 
12 *122:93 *11319:C1 9.3 
*END

*D_NET *123 0.0284738
*CONN
*I *11249:C1 I *D sky130_fd_sc_hd__o221a_2
*I *11234:C1 I *D sky130_fd_sc_hd__o221a_1
*I *11243:C1 I *D sky130_fd_sc_hd__o221a_2
*I *11231:C1 I *D sky130_fd_sc_hd__o221a_1
*I *11237:C1 I *D sky130_fd_sc_hd__o221a_2
*I *11219:C1 I *D sky130_fd_sc_hd__o221a_1
*I *11225:C1 I *D sky130_fd_sc_hd__o221a_1
*I *11222:C1 I *D sky130_fd_sc_hd__o221a_1
*I *11228:C1 I *D sky130_fd_sc_hd__o221a_1
*I *11240:C1 I *D sky130_fd_sc_hd__o221a_2
*I *11218:X O *D sky130_fd_sc_hd__clkbuf_4
*CAP
1 *11249:C1 2.23854e-05
2 *11234:C1 0.000150125
3 *11243:C1 0
4 *11231:C1 0.000206514
5 *11237:C1 0
6 *11219:C1 0.000195869
7 *11225:C1 3.40518e-05
8 *11222:C1 0
9 *11228:C1 0.000283132
10 *11240:C1 0.00016661
11 *11218:X 0.000232721
12 *123:75 0.000731969
13 *123:51 0.000322812
14 *123:49 0.00103609
15 *123:43 0.00065117
16 *123:26 0.000545835
17 *123:22 0.000464313
18 *123:20 5.77658e-05
19 *123:18 0.000755974
20 *123:16 0.00218215
21 *123:14 0.00282473
22 *123:10 0.00148115
23 *11219:C1 *11219:B1 0.000109728
24 *11219:C1 *11225:B2 0.000108725
25 *11225:C1 *11219:B1 9.71123e-06
26 *11225:C1 *11225:B2 1.72079e-05
27 *11225:C1 *11607:A 0
28 *11228:C1 *201:79 0.000378762
29 *11231:C1 *745:DIODE 2.27416e-05
30 *11231:C1 *11231:B1 0.000121573
31 *11231:C1 *11240:B2 0.000246057
32 *11231:C1 *201:54 9.64387e-05
33 *11231:C1 *201:126 0
34 *11231:C1 *201:132 2.8266e-06
35 *11231:C1 *618:18 2.8266e-06
36 *11234:C1 *11243:B2 0.000116971
37 *11234:C1 *201:132 0.000116971
38 *11240:C1 *742:DIODE 1.02504e-05
39 *11240:C1 *201:71 9.90367e-05
40 *11240:C1 *230:27 0.000227021
41 *11240:C1 *621:16 1.92789e-05
42 *11249:C1 *11249:B1 0
43 *123:10 *600:24 0.000196276
44 *123:14 *148:16 0.000134184
45 *123:14 *628:10 0.00363251
46 *123:16 *11249:B1 0.000347651
47 *123:16 *11266:A1 0.00232427
48 *123:16 *11266:B1 3.92799e-05
49 *123:16 *11266:C1 0.000180348
50 *123:16 *145:68 0.000425325
51 *123:16 *145:74 0.00018077
52 *123:16 *382:47 6.12668e-05
53 *123:16 *628:8 6.27374e-05
54 *123:16 *628:10 6.8377e-06
55 *123:18 *11243:B1 1.28809e-05
56 *123:43 *230:27 0.000156
57 *123:49 *11222:B2 2.94278e-05
58 *123:51 *11222:B2 1.15211e-05
59 *123:51 *201:79 5.37741e-06
60 *123:75 *11219:B1 9.90431e-05
61 *123:75 *201:88 0.00060121
62 *11218:A *123:10 0
63 *11219:A2 *11219:C1 5.52238e-05
64 *11237:A2 *123:43 4.08637e-05
65 *11237:A2 *123:49 5.33005e-05
66 *11324:RESET_B *11231:C1 5.52238e-05
67 *119:10 *123:10 0
68 *119:16 *123:14 0.00444811
69 *119:34 *123:16 3.98695e-05
70 *119:34 *123:18 0.000532071
71 *119:36 *123:18 7.32756e-05
72 *119:38 *123:18 2.89016e-05
73 *119:40 *123:18 6.24897e-05
74 *119:40 *123:22 8.66063e-05
75 *119:40 *123:26 0.000178847
76 *119:42 *123:26 0.000260574
*RES
1 *11218:X *123:10 22.675 
2 *123:10 *123:14 47.5714 
3 *123:14 *123:16 34.2143 
4 *123:16 *123:18 12.0357 
5 *123:18 *123:20 0.428571 
6 *123:20 *123:22 0.946429 
7 *123:22 *123:26 8.73214 
8 *123:26 *11240:C1 17.6036 
9 *123:26 *123:43 7.28571 
10 *123:43 *123:49 12.0179 
11 *123:49 *123:51 0.732143 
12 *123:51 *11228:C1 20.0679 
13 *123:51 *11222:C1 13.8 
14 *123:49 *123:75 15.6964 
15 *123:75 *11225:C1 14.5321 
16 *123:75 *11219:C1 18.7107 
17 *123:43 *11237:C1 9.3 
18 *123:22 *11231:C1 23.8179 
19 *123:20 *11243:C1 9.3 
20 *123:18 *11234:C1 21.3179 
21 *123:16 *11249:C1 9.72857 
*END

*D_NET *124 0.0392572
*CONN
*I *11221:A0 I *D sky130_fd_sc_hd__mux2_2
*I *11220:X O *D sky130_fd_sc_hd__mux2_2
*CAP
1 *11221:A0 0.000135306
2 *11220:X 5.05023e-05
3 *124:10 0.00495701
4 *124:8 0.0048722
5 *11221:A0 *11221:S 9.0145e-05
6 *11221:A0 *125:12 1.46148e-05
7 *124:8 *1117:DIODE 1.07719e-05
8 *124:10 *128:10 0.0138734
9 *124:10 *130:10 0.000439455
10 *124:10 *151:18 0.0143929
11 *124:10 *295:28 0.000420931
*RES
1 *11220:X *124:8 14.3357 
2 *124:8 *124:10 198.054 
3 *124:10 *11221:A0 15.9786 
*END

*D_NET *125 0.0358394
*CONN
*I *11222:B2 I *D sky130_fd_sc_hd__o221a_1
*I *11221:X O *D sky130_fd_sc_hd__mux2_2
*CAP
1 *11222:B2 0.000876919
2 *11221:X 0.000786091
3 *125:18 0.00289319
4 *125:16 0.00201627
5 *125:14 0.00226178
6 *125:12 0.00304787
7 *11222:B2 *11228:B2 0
8 *11222:B2 *201:79 1.00332e-05
9 *11222:B2 *515:10 0
10 *125:12 *11221:S 5.33005e-05
11 *125:12 *11265:S 0.000257619
12 *125:12 *133:12 3.35668e-05
13 *125:12 *133:14 0
14 *125:12 *143:106 0.000124245
15 *125:12 *242:41 0.000219289
16 *125:12 *242:43 0.000175892
17 *125:12 *242:45 0.000175892
18 *125:12 *549:22 0.00054477
19 *125:12 *552:12 0.00107922
20 *125:14 *133:14 0.000582344
21 *125:14 *212:31 0.00302426
22 *125:14 *549:10 0.000563618
23 *125:14 *592:34 0.00509306
24 *125:14 *596:12 0
25 *125:18 *131:14 0.00503388
26 *125:18 *137:16 0.00419467
27 *125:18 *205:29 0.000540232
28 *125:18 *231:19 8.40933e-05
29 *11221:A0 *125:12 1.46148e-05
30 *112:10 *125:12 0.00171469
31 *112:10 *125:14 1.09232e-05
32 *121:18 *125:18 0.00038616
33 *123:49 *11222:B2 2.94278e-05
34 *123:51 *11222:B2 1.15211e-05
*RES
1 *11221:X *125:12 42.8625 
2 *125:12 *125:14 79.2054 
3 *125:14 *125:16 4.5 
4 *125:16 *125:18 64.6071 
5 *125:18 *11222:B2 33.6036 
*END

*D_NET *126 0.0430326
*CONN
*I *11224:A0 I *D sky130_fd_sc_hd__mux2_2
*I *11223:X O *D sky130_fd_sc_hd__mux2_2
*CAP
1 *11224:A0 0.000192427
2 *11223:X 0.00032061
3 *126:10 0.00549749
4 *126:8 0.00562567
5 *11224:A0 *927:DIODE 9.83442e-05
6 *11224:A0 *127:8 4.98406e-05
7 *11224:A0 *242:35 0.000216755
8 *11224:A0 *259:33 0.000286046
9 *11224:A0 *259:35 0.000169387
10 *126:8 *11223:A1 0.000228507
11 *126:8 *128:8 1.38323e-05
12 *126:8 *203:88 0.000180951
13 *126:10 *132:22 0.000598819
14 *126:10 *133:12 5.47743e-05
15 *126:10 *133:14 0.000554775
16 *126:10 *134:18 0.000206998
17 *126:10 *136:10 0.0147734
18 *126:10 *138:10 0.000310452
19 *126:10 *143:80 0.000117389
20 *126:10 *143:93 0.000207956
21 *126:10 *147:16 7.70035e-05
22 *126:10 *149:24 0.0120343
23 *126:10 *202:60 0.000170333
24 *126:10 *202:69 0.000797702
25 *126:10 *202:84 0.000159251
26 *126:10 *213:33 0
27 *126:10 *267:55 1.90936e-05
28 *126:10 *294:32 9.11048e-06
29 *126:10 *330:39 6.13772e-05
*RES
1 *11223:X *126:8 18.0768 
2 *126:8 *126:10 209.286 
3 *126:10 *11224:A0 19.2643 
*END

*D_NET *127 0.0301519
*CONN
*I *11225:B2 I *D sky130_fd_sc_hd__o221a_1
*I *11224:X O *D sky130_fd_sc_hd__mux2_2
*CAP
1 *11225:B2 0.000404713
2 *11224:X 0.000176132
3 *127:14 0.00210355
4 *127:12 0.00169884
5 *127:10 0.00319049
6 *127:8 0.00336662
7 *11225:B2 *227:27 0.000146204
8 *127:8 *242:35 4.82865e-05
9 *127:10 *129:8 0.000318472
10 *127:10 *131:10 0
11 *127:10 *140:113 0.000332241
12 *127:10 *140:130 0.000146953
13 *127:10 *213:33 0.00441558
14 *127:14 *133:18 0.00559985
15 *127:14 *228:26 0.000818314
16 *127:14 *233:23 0.00475521
17 *127:14 *234:23 0.000197167
18 *127:14 *393:12 0.00117845
19 *11219:A2 *11225:B2 0.000357638
20 *11219:B2 *11225:B2 0
21 *11219:C1 *11225:B2 0.000108725
22 *11224:A0 *127:8 4.98406e-05
23 *11225:C1 *11225:B2 1.72079e-05
24 *3:23 *127:14 0.000721413
*RES
1 *11224:X *127:8 16.3893 
2 *127:8 *127:10 77.2321 
3 *127:10 *127:12 4.5 
4 *127:12 *127:14 74.0536 
5 *127:14 *11225:B2 28.1393 
*END

*D_NET *128 0.0374071
*CONN
*I *11227:A0 I *D sky130_fd_sc_hd__mux2_2
*I *11226:X O *D sky130_fd_sc_hd__mux2_2
*CAP
1 *11227:A0 9.01555e-05
2 *11226:X 6.01377e-05
3 *128:10 0.00579296
4 *128:8 0.00576294
5 *11227:A0 *202:49 6.81704e-05
6 *128:8 *11223:A1 9.66977e-05
7 *128:8 *203:88 0.000132092
8 *128:8 *323:71 5.49489e-05
9 *128:8 *323:73 0.000215474
10 *128:10 *11221:S 2.21728e-05
11 *128:10 *130:10 1.34406e-05
12 *128:10 *146:18 0.000897126
13 *128:10 *149:24 0
14 *128:10 *160:10 0.00316037
15 *128:10 *213:29 0.00551062
16 *128:10 *213:33 0.000113522
17 *128:10 *242:41 0.00139959
18 *128:10 *295:28 0.000129422
19 *124:10 *128:10 0.0138734
20 *126:8 *128:8 1.38323e-05
*RES
1 *11226:X *128:8 16.3089 
2 *128:8 *128:10 198.964 
3 *128:10 *11227:A0 15.1571 
*END

*D_NET *129 0.0288625
*CONN
*I *11228:B2 I *D sky130_fd_sc_hd__o221a_1
*I *11227:X O *D sky130_fd_sc_hd__mux2_2
*CAP
1 *11228:B2 0.000816539
2 *11227:X 0
3 *129:12 0.00333539
4 *129:10 0.00251885
5 *129:8 0.00218674
6 *129:6 0.00218674
7 *11228:B2 *742:DIODE 4.1331e-06
8 *11228:B2 *216:29 0.000539368
9 *11228:B2 *230:27 2.59795e-05
10 *11228:B2 *515:10 0.000574272
11 *129:8 *11257:B1 5.91763e-05
12 *129:8 *11257:C1 0.000692499
13 *129:8 *148:24 0.000460456
14 *129:8 *148:97 0.000512367
15 *129:8 *148:108 0.000908701
16 *129:8 *160:10 0.00424515
17 *129:8 *213:33 0.000442633
18 *129:8 *242:41 0.00068193
19 *11222:B2 *11228:B2 0
20 *11228:A2 *11228:B2 0.000153047
21 *11237:A2 *11228:B2 1.721e-05
22 *121:10 *129:8 0.00125454
23 *121:16 *129:8 9.25165e-05
24 *121:18 *129:12 0.00683579
25 *127:10 *129:8 0.000318472
*RES
1 *11227:X *129:6 13.8 
2 *129:6 *129:8 79.6607 
3 *129:8 *129:10 4.5 
4 *129:10 *129:12 65.4286 
5 *129:12 *11228:B2 37.8536 
*END

*D_NET *130 0.0356807
*CONN
*I *11230:A0 I *D sky130_fd_sc_hd__mux2_2
*I *11229:X O *D sky130_fd_sc_hd__mux2_2
*CAP
1 *11230:A0 6.08355e-05
2 *11229:X 5.88523e-05
3 *130:10 0.00881197
4 *130:8 0.00880999
5 *11230:A0 *131:8 6.05161e-06
6 *11230:A0 *263:29 0.0001399
7 *130:8 *327:60 3.32631e-05
8 *130:10 *802:DIODE 0.000355922
9 *130:10 *11221:S 0.000335316
10 *130:10 *11256:S 0.00016284
11 *130:10 *143:132 0.000148196
12 *130:10 *143:141 0.000158246
13 *130:10 *143:160 0.000212133
14 *130:10 *151:18 0.0130393
15 *130:10 *202:47 0.000761746
16 *130:10 *242:41 2.76859e-05
17 *130:10 *266:21 2.09897e-05
18 *130:10 *268:39 2.04825e-05
19 *121:10 *130:10 0.00206408
20 *124:10 *130:10 0.000439455
21 *128:10 *130:10 1.34406e-05
*RES
1 *11229:X *130:8 14.7464 
2 *130:8 *130:10 209.589 
3 *130:10 *11230:A0 15.1571 
*END

*D_NET *131 0.0270716
*CONN
*I *11231:B2 I *D sky130_fd_sc_hd__o221a_1
*I *11230:X O *D sky130_fd_sc_hd__mux2_2
*CAP
1 *11231:B2 0.00147159
2 *11230:X 0.000270786
3 *131:14 0.00285168
4 *131:12 0.00138009
5 *131:10 0.00263809
6 *131:8 0.00290888
7 *11231:B2 *745:DIODE 0.000102197
8 *11231:B2 *11231:A1 5.52238e-05
9 *11231:B2 *11243:A1 0
10 *11231:B2 *11513:A 0.000123288
11 *11231:B2 *11599:A 2.59355e-05
12 *11231:B2 *575:22 5.52302e-05
13 *11231:B2 *600:12 2.73349e-05
14 *131:8 *943:DIODE 1.83136e-05
15 *131:8 *263:29 0.000124929
16 *131:10 *133:14 0.00544667
17 *131:10 *140:113 0.000661689
18 *131:10 *140:130 0.000468253
19 *131:14 *139:24 0
20 *131:14 *144:16 6.39211e-05
21 *131:14 *154:20 0.00247733
22 *131:14 *205:29 0.000358994
23 *131:14 *232:33 5.06433e-05
24 *131:14 *236:17 0
25 *131:14 *596:14 8.23726e-05
26 *11230:A0 *131:8 6.05161e-06
27 *11231:A2 *11231:B2 5.71472e-05
28 *11234:A2 *11231:B2 0
29 *11324:RESET_B *11231:B2 0.00031108
30 *125:18 *131:14 0.00503388
31 *127:10 *131:10 0
*RES
1 *11230:X *131:8 18.0321 
2 *131:8 *131:10 70.5536 
3 *131:10 *131:12 4.5 
4 *131:12 *131:14 49.4107 
5 *131:14 *11231:B2 45.1571 
*END

*D_NET *132 0.0406965
*CONN
*I *11233:A0 I *D sky130_fd_sc_hd__mux2_2
*I *11232:X O *D sky130_fd_sc_hd__mux2_2
*CAP
1 *11233:A0 0
2 *11232:X 7.32274e-05
3 *132:22 0.000908992
4 *132:10 0.00471457
5 *132:8 0.00387881
6 *132:8 *223:22 9.58181e-05
7 *132:10 *11515:R_WB 6.53397e-05
8 *132:10 *134:8 0.00152871
9 *132:10 *142:10 0.0136251
10 *132:10 *146:10 0.00434696
11 *132:10 *153:20 0.00188533
12 *132:10 *330:39 0.000194325
13 *132:10 *552:14 0.00420853
14 *132:10 *552:24 0.00170923
15 *132:22 *11233:S 0.000303542
16 *132:22 *11605:A 9.60875e-05
17 *132:22 *134:18 0.00149245
18 *132:22 *143:80 0.000117389
19 *132:22 *143:93 0.000217066
20 *132:22 *147:16 0.000218409
21 *132:22 *202:69 3.27461e-05
22 *132:22 *202:84 0.00016625
23 *132:22 *213:33 6.35083e-05
24 *132:22 *264:35 0.000155267
25 *126:10 *132:22 0.000598819
*RES
1 *11232:X *132:8 14.7464 
2 *132:8 *132:10 173.768 
3 *132:10 *132:22 41.6786 
4 *132:22 *11233:A0 9.3 
*END

*D_NET *133 0.0345665
*CONN
*I *11234:B2 I *D sky130_fd_sc_hd__o221a_1
*I *11233:X O *D sky130_fd_sc_hd__mux2_2
*CAP
1 *11234:B2 0.000196382
2 *11233:X 0.000596223
3 *133:18 0.0013564
4 *133:16 0.00116001
5 *133:14 0.00199699
6 *133:12 0.00259321
7 *11234:B2 *11243:A1 0.00058556
8 *11234:B2 *231:21 0.000593971
9 *133:12 *947:DIODE 3.30337e-05
10 *133:12 *11233:S 0.000221815
11 *133:12 *138:10 0.00101342
12 *133:12 *549:22 0.000535959
13 *133:12 *552:12 0.000588155
14 *133:14 *140:113 0.000187494
15 *133:14 *549:22 3.4323e-06
16 *133:14 *592:34 0.00549928
17 *133:18 *227:27 0.000295203
18 *133:18 *234:23 0.00483803
19 *125:12 *133:12 3.35668e-05
20 *125:12 *133:14 0
21 *125:14 *133:14 0.000582344
22 *126:10 *133:12 5.47743e-05
23 *126:10 *133:14 0.000554775
24 *127:14 *133:18 0.00559985
25 *131:10 *133:14 0.00544667
*RES
1 *11233:X *133:12 33.4161 
2 *133:12 *133:14 84.9732 
3 *133:14 *133:16 4.5 
4 *133:16 *133:18 53.5179 
5 *133:18 *11234:B2 26.0143 
*END

*D_NET *134 0.0393424
*CONN
*I *11236:A0 I *D sky130_fd_sc_hd__mux2_2
*I *11235:X O *D sky130_fd_sc_hd__mux2_2
*CAP
1 *11236:A0 1.71076e-05
2 *11235:X 0
3 *134:18 0.00239925
4 *134:16 0.00271936
5 *134:8 0.00295561
6 *134:6 0.00261839
7 *11236:A0 *751:DIODE 5.33005e-05
8 *11236:A0 *202:84 2.84109e-05
9 *134:8 *11226:A0 9.91086e-05
10 *134:8 *146:10 0.00501487
11 *134:8 *153:20 0.00145701
12 *134:8 *229:32 0.000245069
13 *134:8 *229:34 0.00776621
14 *134:8 *296:40 0.000555614
15 *134:8 *326:35 0.000218734
16 *134:8 *552:24 0.00122769
17 *134:16 *11515:R_WB 2.59355e-05
18 *134:18 *11236:A1 4.08789e-05
19 *134:18 *143:106 0.000966261
20 *134:18 *143:132 0.000233734
21 *134:18 *146:18 0.00493246
22 *134:18 *147:16 3.42301e-05
23 *134:18 *149:24 0.00203017
24 *134:18 *197:16 0.00010192
25 *134:18 *197:35 0.000190048
26 *134:18 *213:33 0.000182845
27 *126:10 *134:18 0.000206998
28 *132:10 *134:8 0.00152871
29 *132:22 *134:18 0.00149245
*RES
1 *11235:X *134:6 13.8 
2 *134:6 *134:8 116.393 
3 *134:8 *134:16 13.25 
4 *134:16 *134:18 85.125 
5 *134:18 *11236:A0 14.3357 
*END

*D_NET *135 0.0309548
*CONN
*I *11237:B2 I *D sky130_fd_sc_hd__o221a_2
*I *11236:X O *D sky130_fd_sc_hd__mux2_2
*CAP
1 *11237:B2 0.000381001
2 *11236:X 0.0012445
3 *135:16 0.00127956
4 *135:10 0.00260309
5 *135:8 0.00294903
6 *11237:B2 *11237:A1 0.00081512
7 *11237:B2 *11237:B1 0.00038907
8 *11237:B2 *11240:B2 0.000325996
9 *11237:B2 *11243:B2 0
10 *135:8 *751:DIODE 1.82549e-05
11 *135:8 *265:63 8.83549e-05
12 *135:8 *265:65 4.85033e-05
13 *135:8 *265:67 5.21937e-05
14 *135:10 *137:10 0.00680159
15 *135:10 *139:18 0.00518243
16 *135:10 *156:10 0.000771955
17 *135:10 *211:13 0.000125726
18 *135:10 *365:46 0.000954357
19 *135:10 *367:42 4.96435e-05
20 *135:10 *369:41 0.000452487
21 *135:10 *549:44 0.000699004
22 *135:10 *549:62 0.000133012
23 *135:10 *588:20 5.31541e-05
24 *135:16 *139:24 0.00109478
25 *135:16 *227:27 0.000290017
26 *135:16 *234:23 0.00412606
27 *11237:A2 *11237:B2 2.59355e-05
*RES
1 *11236:X *135:8 30.7643 
2 *135:8 *135:10 100.607 
3 *135:10 *135:16 48.1429 
4 *135:16 *11237:B2 25.9429 
*END

*D_NET *136 0.0389806
*CONN
*I *11239:A0 I *D sky130_fd_sc_hd__mux2_2
*I *11238:X O *D sky130_fd_sc_hd__mux2_2
*CAP
1 *11239:A0 0
2 *11238:X 0.000290258
3 *136:10 0.00421793
4 *136:8 0.00450819
5 *136:8 *11238:A1 0.000110029
6 *136:8 *298:30 6.06291e-05
7 *136:10 *138:10 0.0150203
8 *126:10 *136:10 0.0147734
*RES
1 *11238:X *136:8 18.0321 
2 *136:8 *136:10 191.375 
3 *136:10 *11239:A0 13.8 
*END

*D_NET *137 0.0310158
*CONN
*I *11240:B2 I *D sky130_fd_sc_hd__o221a_2
*I *11239:X O *D sky130_fd_sc_hd__mux2_2
*CAP
1 *11240:B2 0.000770692
2 *11239:X 0.00111913
3 *137:16 0.00131128
4 *137:10 0.00197749
5 *137:8 0.00255604
6 *11240:B2 *11237:A1 5.28368e-06
7 *11240:B2 *11240:A1 0.00100728
8 *11240:B2 *11240:B1 1.43643e-05
9 *11240:B2 *11243:B2 0
10 *11240:B2 *201:69 0.000190858
11 *11240:B2 *201:132 0
12 *11240:B2 *231:21 0
13 *11240:B2 *621:16 5.05484e-05
14 *137:8 *962:DIODE 5.21937e-05
15 *137:8 *11515:BEN[7] 2.51343e-06
16 *137:8 *233:17 5.84943e-05
17 *137:8 *266:36 5.21937e-05
18 *137:8 *549:32 0.000122084
19 *137:10 *139:10 0.00161142
20 *137:10 *209:17 0.00143286
21 *137:10 *211:13 2.16719e-05
22 *137:10 *235:9 0.00132309
23 *137:10 *235:15 0.00107831
24 *137:10 *367:42 0.000256766
25 *137:16 *205:29 0.000427162
26 *137:16 *231:19 0.003889
27 *11231:C1 *11240:B2 0.000246057
28 *11237:B2 *11240:B2 0.000325996
29 *121:18 *137:16 0.000116749
30 *125:18 *137:16 0.00419467
31 *135:10 *137:10 0.00680159
*RES
1 *11239:X *137:8 29.5321 
2 *137:8 *137:10 84.5179 
3 *137:10 *137:16 48.5536 
4 *137:16 *11240:B2 34.6393 
*END

*D_NET *138 0.0410652
*CONN
*I *11242:A0 I *D sky130_fd_sc_hd__mux2_2
*I *11241:X O *D sky130_fd_sc_hd__mux2_2
*CAP
1 *11242:A0 0
2 *11241:X 0.000172164
3 *138:10 0.00426733
4 *138:8 0.00443949
5 *138:8 *11241:A1 6.24874e-05
6 *138:8 *299:22 0.000300406
7 *138:8 *331:80 0.000122591
8 *138:8 *331:82 0.000383166
9 *138:10 *142:10 0.0145372
10 *138:10 *265:63 4.11173e-05
11 *138:10 *267:55 2.04825e-05
12 *138:10 *294:32 0.000173797
13 *138:10 *330:39 6.13772e-05
14 *138:10 *552:12 0.000139466
15 *126:10 *138:10 0.000310452
16 *133:12 *138:10 0.00101342
17 *136:10 *138:10 0.0150203
*RES
1 *11241:X *138:8 18.8536 
2 *138:8 *138:10 202.304 
3 *138:10 *11242:A0 13.8 
*END

*D_NET *139 0.0271005
*CONN
*I *11243:B2 I *D sky130_fd_sc_hd__o221a_2
*I *11242:X O *D sky130_fd_sc_hd__mux2_2
*CAP
1 *11243:B2 0.00040623
2 *11242:X 0.00157943
3 *139:24 0.00154267
4 *139:18 0.00217227
5 *139:16 0.00108495
6 *139:10 0.00162855
7 *11243:B2 *11237:A1 0.000183633
8 *11243:B2 *201:126 9.25014e-06
9 *11243:B2 *201:132 2.84216e-05
10 *11243:B2 *231:21 0.000915055
11 *139:10 *235:9 0.00161484
12 *139:10 *267:57 1.22751e-05
13 *139:10 *267:59 1.22751e-05
14 *139:10 *267:63 1.32091e-05
15 *139:10 *365:46 2.47753e-05
16 *139:10 *367:28 0.000189404
17 *139:10 *367:40 1.24368e-05
18 *139:16 *11515:DI[10] 0.000136951
19 *139:16 *206:9 6.57032e-05
20 *139:18 *156:10 0.00514874
21 *139:18 *156:24 1.17921e-05
22 *139:18 *588:20 9.25014e-06
23 *139:24 *144:16 1.34703e-05
24 *139:24 *234:23 5.19842e-06
25 *139:24 *236:17 0.000400894
26 *139:24 *611:12 0.00187323
27 *11234:C1 *11243:B2 0.000116971
28 *11237:B2 *11243:B2 0
29 *11240:B2 *11243:B2 0
30 *131:14 *139:24 0
31 *135:10 *139:18 0.00518243
32 *135:16 *139:24 0.00109478
33 *137:10 *139:10 0.00161142
*RES
1 *11242:X *139:10 49.2821 
2 *139:10 *139:16 10.3571 
3 *139:16 *139:18 64.4821 
4 *139:18 *139:24 46.9107 
5 *139:24 *11243:B2 25.7643 
*END

*D_NET *140 0.0386999
*CONN
*I *11278:B1 I *D sky130_fd_sc_hd__o221a_2
*I *11275:B1 I *D sky130_fd_sc_hd__o221a_2
*I *11257:B1 I *D sky130_fd_sc_hd__o221a_2
*I *11272:B1 I *D sky130_fd_sc_hd__o221a_2
*I *11260:B1 I *D sky130_fd_sc_hd__o221a_2
*I *11266:B1 I *D sky130_fd_sc_hd__o221a_2
*I *11249:B1 I *D sky130_fd_sc_hd__o221a_2
*I *11263:B1 I *D sky130_fd_sc_hd__o221a_2
*I *11269:B1 I *D sky130_fd_sc_hd__o221a_2
*I *11254:B1 I *D sky130_fd_sc_hd__o221a_2
*I *11244:X O *D sky130_fd_sc_hd__clkbuf_4
*CAP
1 *11278:B1 0.000101092
2 *11275:B1 0.000127381
3 *11257:B1 0.00134779
4 *11272:B1 2.02722e-05
5 *11260:B1 0.00071679
6 *11266:B1 5.67486e-05
7 *11249:B1 0.000140815
8 *11263:B1 0
9 *11269:B1 3.15998e-05
10 *11254:B1 0.000425475
11 *11244:X 0.00105975
12 *140:134 0.00164155
13 *140:130 0.000781217
14 *140:113 0.00171889
15 *140:89 0.00031183
16 *140:76 0.000344638
17 *140:53 0.000409745
18 *140:36 0.00228582
19 *140:34 0.00399178
20 *140:24 0.00199045
21 *140:16 0.00129165
22 *11249:B1 *11266:C1 9.58126e-05
23 *11249:B1 *627:12 8.35892e-05
24 *11249:B1 *628:8 0.000355986
25 *11254:B1 *11254:A1 0.000649814
26 *11254:B1 *11254:B2 0.00012825
27 *11254:B1 *595:12 0.000141734
28 *11257:B1 *11257:A2 0.000166192
29 *11257:B1 *11257:B2 4.86809e-05
30 *11257:B1 *11257:C1 0.000706668
31 *11257:B1 *207:15 2.42516e-05
32 *11257:B1 *596:8 0.000125355
33 *11260:B1 *11260:A1 2.32959e-05
34 *11260:B1 *11260:A2 8.25016e-05
35 *11260:B1 *11260:C1 0
36 *11260:B1 *597:8 0.000593382
37 *11266:B1 *11266:C1 9.8621e-05
38 *11266:B1 *628:8 0.000162691
39 *11269:B1 *11269:C1 2.96504e-05
40 *11269:B1 *158:22 5.55449e-05
41 *11269:B1 *598:12 7.19199e-06
42 *11272:B1 *11204:B 2.57194e-05
43 *11272:B1 *11272:B2 5.28563e-05
44 *11275:B1 *11275:A1 0.000220096
45 *11275:B1 *11275:A2 5.86935e-05
46 *11275:B1 *11275:C1 0.000205344
47 *11275:B1 *213:37 5.33005e-05
48 *11278:B1 *11278:A2 3.50678e-05
49 *11278:B1 *11278:B2 5.42698e-05
50 *11278:B1 *11278:C1 5.64195e-06
51 *11278:B1 *148:16 4.64488e-06
52 *11278:B1 *148:24 7.53616e-06
53 *11278:B1 *604:12 3.58979e-06
54 *140:16 *11278:A1 5.52302e-05
55 *140:16 *11420:A 0.000971506
56 *140:16 *145:35 0.000539117
57 *140:16 *215:32 0
58 *140:16 *600:26 0.00158249
59 *140:24 *11278:A1 0.000328713
60 *140:34 *11217:A 0.000823213
61 *140:34 *11278:A1 0.00029138
62 *140:34 *145:41 0.000702391
63 *140:34 *148:24 0.000487101
64 *140:34 *597:12 0
65 *140:36 *11217:A 0.00012867
66 *140:36 *11254:A1 0.00227681
67 *140:36 *592:30 0.000563289
68 *140:53 *11263:A1 0
69 *140:53 *11269:C1 0.000104077
70 *140:53 *158:22 0.000308599
71 *140:76 *11263:A1 0.000122934
72 *140:76 *232:35 0.0005153
73 *140:76 *598:12 3.51917e-05
74 *140:76 *625:12 9.05198e-05
75 *140:89 *145:74 4.67882e-05
76 *140:89 *154:20 8.6229e-06
77 *140:89 *197:28 1.77187e-05
78 *140:89 *587:12 0.000185185
79 *140:89 *625:12 1.28809e-05
80 *140:113 *148:24 0
81 *140:113 *592:34 7.68478e-05
82 *140:130 *11275:C1 5.52302e-05
83 *140:130 *213:37 0.000180066
84 *140:134 *11257:C1 1.00332e-05
85 *140:134 *148:108 0.000895098
86 *11211:A *140:16 0.000119174
87 *11249:C1 *11249:B1 0
88 *11253:A *140:16 1.84368e-05
89 *119:34 *11249:B1 6.40221e-05
90 *121:16 *11257:B1 0.000832285
91 *121:16 *140:134 0.000906972
92 *123:16 *11249:B1 0.000347651
93 *123:16 *11266:B1 3.92799e-05
94 *127:10 *140:113 0.000332241
95 *127:10 *140:130 0.000146953
96 *129:8 *11257:B1 5.91763e-05
97 *131:10 *140:113 0.000661689
98 *131:10 *140:130 0.000468253
99 *133:14 *140:113 0.000187494
*RES
1 *11244:X *140:16 49.1929 
2 *140:16 *140:24 8.73825 
3 *140:24 *140:34 24.7733 
4 *140:34 *140:36 32.1607 
5 *140:36 *11254:B1 18.5054 
6 *140:36 *140:53 8.57143 
7 *140:53 *11269:B1 14.8 
8 *140:53 *140:76 11.3616 
9 *140:76 *11263:B1 9.3 
10 *140:76 *140:89 11.683 
11 *140:89 *11249:B1 15.733 
12 *140:89 *11266:B1 11.4116 
13 *140:34 *140:113 21.3214 
14 *140:113 *11260:B1 23.1795 
15 *140:113 *140:130 14.1071 
16 *140:130 *140:134 16.1607 
17 *140:134 *11272:B1 14.3313 
18 *140:134 *11257:B1 37.3402 
19 *140:130 *11275:B1 12.7688 
20 *140:24 *11278:B1 18.9689 
*END

*D_NET *141 0.0461474
*CONN
*I *11261:S I *D sky130_fd_sc_hd__mux2_4
*I *11264:S I *D sky130_fd_sc_hd__mux2_2
*I *11267:S I *D sky130_fd_sc_hd__mux2_4
*I *11255:S I *D sky130_fd_sc_hd__mux2_2
*I *11251:S I *D sky130_fd_sc_hd__mux2_2
*I *11258:S I *D sky130_fd_sc_hd__mux2_2
*I *11270:S I *D sky130_fd_sc_hd__mux2_2
*I *11273:S I *D sky130_fd_sc_hd__mux2_2
*I *11276:S I *D sky130_fd_sc_hd__mux2_2
*I *11246:S I *D sky130_fd_sc_hd__mux2_2
*I *11245:X O *D sky130_fd_sc_hd__buf_4
*CAP
1 *11261:S 0.00039089
2 *11264:S 0
3 *11267:S 0.000665045
4 *11255:S 0
5 *11251:S 0.000271661
6 *11258:S 0
7 *11270:S 0
8 *11273:S 0.000699033
9 *11276:S 0
10 *11246:S 0.00026375
11 *11245:X 0.000452503
12 *141:121 0.00125338
13 *141:109 0.00124671
14 *141:100 0.00213515
15 *141:60 0.000857164
16 *141:53 0.000744963
17 *141:38 0.000960115
18 *141:34 0.000606089
19 *141:24 0.00181641
20 *141:14 0.00296728
21 *141:10 0.0044124
22 *141:8 0.00481347
23 *11246:S *1054:DIODE 0.000175892
24 *11246:S *558:129 0.000179656
25 *11246:S *630:66 0.000176234
26 *11251:S *228:12 0.00020489
27 *11261:S *153:14 0
28 *11267:S *11267:A0 0.000175493
29 *11267:S *11267:A1 0.00022209
30 *11273:S *1095:DIODE 0.000101545
31 *11273:S *159:8 9.41642e-05
32 *11273:S *161:8 0.000178847
33 *11273:S *163:8 0.000135028
34 *11273:S *200:66 0.000917114
35 *11273:S *298:22 0
36 *11273:S *298:28 0.000213879
37 *11273:S *300:22 6.8646e-06
38 *11273:S *301:29 2.42516e-05
39 *11273:S *308:54 6.26276e-05
40 *11273:S *309:57 0.000267281
41 *11273:S *309:59 0.000135028
42 *11273:S *332:31 0.0001619
43 *141:8 *203:8 0.000550017
44 *141:8 *203:10 1.28856e-05
45 *141:10 *203:10 0.00432189
46 *141:14 *558:141 0.000165412
47 *141:14 *631:68 0.000172948
48 *141:24 *738:DIODE 5.49544e-05
49 *141:24 *11515:DI[30] 4.66781e-05
50 *141:24 *394:60 0.000190175
51 *141:24 *463:36 0.000196908
52 *141:24 *483:44 0.000331965
53 *141:24 *558:129 0.000180928
54 *141:24 *558:141 0.000355312
55 *141:24 *629:58 0.000771215
56 *141:24 *629:72 0.000956344
57 *141:24 *629:74 4.82813e-05
58 *141:24 *631:68 0.00252593
59 *141:34 *394:60 0.000399894
60 *141:34 *463:36 0.000396594
61 *141:34 *629:30 5.49489e-05
62 *141:38 *483:44 0.000101738
63 *141:38 *558:129 0.000431827
64 *141:38 *630:66 0.00044037
65 *141:53 *1097:DIODE 0.000178425
66 *141:53 *1112:DIODE 8.93791e-05
67 *141:53 *203:36 8.55871e-05
68 *141:53 *308:54 0.00033363
69 *141:53 *308:56 0.000163455
70 *141:53 *310:31 7.34839e-05
71 *141:60 *163:8 5.96516e-05
72 *141:60 *308:54 0.00038986
73 *141:100 *992:DIODE 5.49489e-05
74 *141:100 *11255:A0 0.000405683
75 *141:100 *149:22 0.000493706
76 *141:100 *303:41 6.97409e-05
77 *141:100 *306:42 0.00247762
78 *141:109 *992:DIODE 9.51577e-05
79 *141:109 *306:42 0.000169046
80 *141:121 *11264:A1 8.02172e-05
81 *141:121 *11267:A1 0.000111727
82 *141:121 *306:42 0.000120111
*RES
1 *11245:X *141:8 19.5054 
2 *141:8 *141:10 81.6518 
3 *141:10 *141:14 6.75 
4 *141:14 *141:24 48.1964 
5 *141:24 *141:34 15.4821 
6 *141:34 *141:38 10.0893 
7 *141:38 *11246:S 19.4607 
8 *141:38 *141:53 15.3036 
9 *141:53 *11276:S 9.3 
10 *141:53 *141:60 3.82143 
11 *141:60 *11273:S 38.0321 
12 *141:60 *11270:S 9.3 
13 *141:34 *11258:S 9.3 
14 *141:24 *11251:S 18.0321 
15 *141:14 *141:100 49.3929 
16 *141:100 *11255:S 9.3 
17 *141:100 *141:109 6.30357 
18 *141:109 *141:121 18.1964 
19 *141:121 *11267:S 21.3536 
20 *141:121 *11264:S 9.3 
21 *141:109 *11261:S 22.9786 
*END

*D_NET *142 0.0441594
*CONN
*I *11248:A0 I *D sky130_fd_sc_hd__mux2_2
*I *11246:X O *D sky130_fd_sc_hd__mux2_2
*CAP
1 *11248:A0 0
2 *11246:X 8.46394e-05
3 *142:10 0.00465947
4 *142:8 0.00474411
5 *142:8 *332:39 0.000135028
6 *142:10 *146:10 1.82896e-05
7 *142:10 *153:20 0.00145727
8 *142:10 *203:38 3.65015e-05
9 *142:10 *203:44 4.59215e-05
10 *142:10 *224:32 9.39059e-05
11 *142:10 *269:28 0.000207304
12 *142:10 *280:20 0.000936321
13 *142:10 *294:20 0.00176162
14 *142:10 *294:32 0.000240665
15 *142:10 *330:39 0.000228975
16 *142:10 *552:12 0.00132085
17 *142:10 *552:14 2.61928e-05
18 *132:10 *142:10 0.0136251
19 *138:10 *142:10 0.0145372
*RES
1 *11246:X *142:8 15.1571 
2 *142:8 *142:10 214.446 
3 *142:10 *11248:A0 13.8 
*END

*D_NET *143 0.0611926
*CONN
*I *11256:S I *D sky130_fd_sc_hd__mux2_1
*I *11271:S I *D sky130_fd_sc_hd__mux2_1
*I *11268:S I *D sky130_fd_sc_hd__mux2_2
*I *11252:S I *D sky130_fd_sc_hd__mux2_1
*I *11259:S I *D sky130_fd_sc_hd__mux2_1
*I *11262:S I *D sky130_fd_sc_hd__mux2_2
*I *11265:S I *D sky130_fd_sc_hd__mux2_1
*I *11248:S I *D sky130_fd_sc_hd__mux2_2
*I *11274:S I *D sky130_fd_sc_hd__mux2_1
*I *11277:S I *D sky130_fd_sc_hd__mux2_1
*I *11247:X O *D sky130_fd_sc_hd__buf_4
*CAP
1 *11256:S 0.000307265
2 *11271:S 0.000217906
3 *11268:S 0.000821149
4 *11252:S 0
5 *11259:S 0.00017607
6 *11262:S 0.000150951
7 *11265:S 0.000368289
8 *11248:S 2.89229e-05
9 *11274:S 3.04135e-05
10 *11277:S 0.000160499
11 *11247:X 0.000673788
12 *143:160 0.000686034
13 *143:141 0.00111904
14 *143:132 0.000639212
15 *143:108 0.000327021
16 *143:106 0.000873718
17 *143:93 0.000813495
18 *143:80 0.00100066
19 *143:41 0.00194993
20 *143:20 0.00144427
21 *143:16 0.00194218
22 *143:14 0.00167986
23 *143:12 0.00152824
24 *143:10 0.00220203
25 *11248:S *268:43 5.33005e-05
26 *11256:S *239:87 4.58194e-05
27 *11256:S *239:89 0.000109263
28 *11259:S *1204:DIODE 9.41642e-05
29 *11259:S *152:8 2.59355e-05
30 *11259:S *240:53 5.87969e-05
31 *11262:S *152:8 0.000168915
32 *11262:S *240:53 4.25569e-05
33 *11262:S *240:59 9.24522e-05
34 *11265:S *242:45 1.98839e-05
35 *11265:S *242:47 6.57032e-05
36 *11265:S *242:49 0.000105471
37 *11268:S *11268:A1 0.000108423
38 *11268:S *243:21 5.33005e-05
39 *11271:S *11271:A0 5.33005e-05
40 *11271:S *160:8 0.000135028
41 *11271:S *244:54 1.39726e-05
42 *11271:S *244:56 8.48807e-05
43 *11271:S *244:58 3.69047e-06
44 *11274:S *245:50 5.33005e-05
45 *11277:S *164:8 4.85049e-06
46 *11277:S *246:106 0.000207274
47 *11277:S *246:108 5.33005e-05
48 *143:10 *11343:A 0.000213876
49 *143:10 *172:34 0.000507519
50 *143:10 *220:30 0.000359943
51 *143:10 *391:20 0.000147853
52 *143:10 *622:24 0
53 *143:12 *226:30 0.012135
54 *143:12 *229:42 0.012301
55 *143:12 *603:12 8.71079e-05
56 *143:16 *164:10 0
57 *143:16 *214:22 0.00153583
58 *143:16 *222:28 0
59 *143:16 *241:53 0.000819945
60 *143:16 *597:12 0.000360394
61 *143:20 *164:8 7.40839e-05
62 *143:20 *246:73 0
63 *143:20 *246:106 5.33005e-05
64 *143:41 *199:82 0.000184675
65 *143:41 *239:69 0.000767878
66 *143:41 *239:71 0.00161097
67 *143:41 *242:21 0.00119061
68 *143:41 *242:35 0.000267665
69 *143:41 *245:28 2.24646e-05
70 *143:41 *245:34 0.000126439
71 *143:41 *246:84 0.000213485
72 *143:41 *246:90 3.17148e-05
73 *143:41 *259:29 0.000357112
74 *143:80 *751:DIODE 5.33005e-05
75 *143:80 *11216:S 0.000110604
76 *143:80 *202:84 0.000187003
77 *143:80 *202:93 8.71878e-05
78 *143:80 *240:22 0.000151972
79 *143:80 *245:26 0.000138676
80 *143:80 *245:28 0.000247629
81 *143:80 *264:29 6.05161e-06
82 *143:106 *213:33 0.000966261
83 *143:132 *802:DIODE 9.33978e-07
84 *143:132 *213:33 0.000241191
85 *11216:A0 *143:80 8.55871e-05
86 *3:25 *143:41 0.000161366
87 *111:10 *143:41 0.00101159
88 *111:10 *143:80 0.000527319
89 *115:30 *143:10 3.34295e-05
90 *121:8 *143:80 9.60939e-05
91 *125:12 *11265:S 0.000257619
92 *125:12 *143:106 0.000124245
93 *126:10 *143:80 0.000117389
94 *126:10 *143:93 0.000207956
95 *130:10 *11256:S 0.00016284
96 *130:10 *143:132 0.000148196
97 *130:10 *143:141 0.000158246
98 *130:10 *143:160 0.000212133
99 *132:22 *143:80 0.000117389
100 *132:22 *143:93 0.000217066
101 *134:18 *143:106 0.000966261
102 *134:18 *143:132 0.000233734
*RES
1 *11247:X *143:10 34.5143 
2 *143:10 *143:12 115.946 
3 *143:12 *143:14 4.5 
4 *143:14 *143:16 47.4821 
5 *143:16 *143:20 9.14286 
6 *143:20 *11277:S 12.3179 
7 *143:20 *143:41 47.2321 
8 *143:41 *11274:S 14.3357 
9 *143:41 *143:80 38.5357 
10 *143:80 *11248:S 14.3357 
11 *143:80 *143:93 7.35714 
12 *143:93 *11265:S 15.5857 
13 *143:93 *143:106 18.4286 
14 *143:106 *143:108 4.5 
15 *143:108 *11262:S 12.7107 
16 *143:108 *11259:S 12.3 
17 *143:106 *143:132 17.1071 
18 *143:132 *11252:S 13.8 
19 *143:132 *143:141 2.25 
20 *143:141 *11268:S 25.3 
21 *143:141 *143:160 2.85714 
22 *143:160 *11271:S 17.6214 
23 *143:160 *11256:S 19.05 
*END

*D_NET *144 0.0285943
*CONN
*I *11249:B2 I *D sky130_fd_sc_hd__o221a_2
*I *11248:X O *D sky130_fd_sc_hd__mux2_2
*CAP
1 *11249:B2 0.000724905
2 *11248:X 0.000894326
3 *144:16 0.00134797
4 *144:10 0.0021964
5 *144:8 0.00246766
6 *11249:B2 *11249:A1 0.000312065
7 *11249:B2 *595:12 0
8 *144:8 *981:DIODE 3.55471e-05
9 *144:8 *156:8 2.25341e-05
10 *144:8 *268:45 3.55471e-05
11 *144:8 *372:28 0.000112823
12 *144:10 *147:18 0.00678909
13 *144:10 *158:12 0.00811056
14 *144:10 *197:18 2.16719e-05
15 *144:10 *209:25 0.00132828
16 *144:10 *354:10 2.14474e-05
17 *144:16 *154:20 0.000173124
18 *144:16 *158:22 0.000166485
19 *144:16 *209:25 0.00200112
20 *144:16 *232:33 0.00143636
21 *144:16 *236:17 0.000308697
22 *119:26 *11249:B2 1.02504e-05
23 *131:14 *144:16 6.39211e-05
24 *139:24 *144:16 1.34703e-05
*RES
1 *11248:X *144:8 26.2464 
2 *144:8 *144:10 101.214 
3 *144:10 *144:16 37.0536 
4 *144:16 *11249:B2 27.5857 
*END

*D_NET *145 0.0399083
*CONN
*I *11278:A2 I *D sky130_fd_sc_hd__o221a_2
*I *11257:A2 I *D sky130_fd_sc_hd__o221a_2
*I *11272:A2 I *D sky130_fd_sc_hd__o221a_2
*I *11275:A2 I *D sky130_fd_sc_hd__o221a_2
*I *11269:A2 I *D sky130_fd_sc_hd__o221a_2
*I *11266:A2 I *D sky130_fd_sc_hd__o221a_2
*I *11254:A2 I *D sky130_fd_sc_hd__o221a_2
*I *11263:A2 I *D sky130_fd_sc_hd__o221a_2
*I *11260:A2 I *D sky130_fd_sc_hd__o221a_2
*I *11284:A2 I *D sky130_fd_sc_hd__o221a_2
*I *11250:X O *D sky130_fd_sc_hd__clkbuf_4
*CAP
1 *11278:A2 0.000171463
2 *11257:A2 0.00105303
3 *11272:A2 5.29945e-05
4 *11275:A2 0.000171145
5 *11269:A2 0
6 *11266:A2 2.18906e-05
7 *11254:A2 0.000297461
8 *11263:A2 0
9 *11260:A2 0.000173869
10 *11284:A2 0.000341149
11 *11250:X 8.52788e-05
12 *145:123 0.00177569
13 *145:112 0.00111203
14 *145:74 0.000504868
15 *145:68 0.000650526
16 *145:60 0.00172505
17 *145:58 0.00264088
18 *145:45 0.00189771
19 *145:41 0.00317099
20 *145:35 0.00487286
21 *145:8 0.00261484
22 *11254:A2 *11254:B2 0.000226403
23 *11254:A2 *154:20 0.000404781
24 *11254:A2 *197:28 0.000420666
25 *11257:A2 *11257:B2 7.43578e-06
26 *11257:A2 *11257:C1 0.00104649
27 *11257:A2 *207:15 0.000259549
28 *11257:A2 *596:8 4.13496e-05
29 *11260:A2 *11260:A1 4.87854e-05
30 *11260:A2 *597:8 0.000175892
31 *11266:A2 *156:24 5.4826e-05
32 *11266:A2 *611:10 5.4826e-05
33 *11272:A2 *11204:B 5.33005e-05
34 *11272:A2 *11272:A1 4.1896e-06
35 *11272:A2 *11272:B2 6.05161e-06
36 *11272:A2 *212:35 1.21258e-05
37 *11275:A2 *11275:A1 3.20768e-05
38 *11275:A2 *11275:C1 0.000135028
39 *11278:A2 *11278:A1 4.1896e-06
40 *11278:A2 *11278:B2 1.41448e-05
41 *11278:A2 *604:12 1.55936e-05
42 *11284:A2 *11284:A1 5.01867e-05
43 *11284:A2 *11284:B1 6.32582e-05
44 *11284:A2 *11284:B2 5.52238e-05
45 *11284:A2 *11284:C1 0.000798921
46 *11284:A2 *148:16 0.000187951
47 *11284:A2 *169:28 0
48 *145:8 *575:36 9.91086e-05
49 *145:35 *11278:A1 0.00036695
50 *145:35 *11420:A 0.000141326
51 *145:35 *575:36 0.000278409
52 *145:41 *11278:A1 0.000247452
53 *145:41 *148:24 0.00019471
54 *145:41 *214:26 0.000122494
55 *145:41 *221:26 0.000133145
56 *145:41 *223:28 0.000129701
57 *145:41 *225:30 0.000240055
58 *145:41 *228:26 0.000177621
59 *145:41 *393:16 0.000282188
60 *145:41 *602:14 0.000114096
61 *145:45 *597:8 0.000839203
62 *145:58 *229:40 0.000629075
63 *145:58 *581:10 0.000128224
64 *145:58 *592:30 0
65 *145:58 *592:34 0
66 *145:58 *596:12 9.97648e-05
67 *145:60 *211:13 0.00120733
68 *145:60 *232:35 0.000151071
69 *145:60 *625:22 0.000492749
70 *145:68 *158:22 3.39451e-05
71 *145:68 *598:12 7.14469e-05
72 *145:74 *154:20 9.54798e-06
73 *145:74 *197:28 0.000116971
74 *11257:B1 *11257:A2 0.000166192
75 *11260:B1 *11260:A2 8.25016e-05
76 *11275:B1 *11275:A2 5.86935e-05
77 *11278:B1 *11278:A2 3.50678e-05
78 *3:23 *145:41 0.000269692
79 *121:16 *11257:A2 0.000749061
80 *121:16 *145:41 0.00061219
81 *121:16 *145:112 0.000381194
82 *121:16 *145:123 0.000920186
83 *122:29 *11284:A2 0.000532299
84 *122:52 *11284:A2 0.000393285
85 *123:16 *145:68 0.000425325
86 *123:16 *145:74 0.00018077
87 *140:16 *145:35 0.000539117
88 *140:34 *145:41 0.000702391
89 *140:89 *145:74 4.67882e-05
*RES
1 *11250:X *145:8 15.4429 
2 *145:8 *11284:A2 26.8 
3 *145:8 *145:35 39.721 
4 *145:35 *145:41 23.6273 
5 *145:41 *145:45 12.8393 
6 *145:45 *11260:A2 12.7107 
7 *145:45 *145:58 30.6786 
8 *145:58 *145:60 27.2321 
9 *145:60 *145:68 15.1786 
10 *145:68 *145:74 7.91071 
11 *145:74 *11263:A2 13.8 
12 *145:74 *11254:A2 21.9964 
13 *145:68 *11266:A2 19.0321 
14 *145:60 *11269:A2 9.3 
15 *145:41 *145:112 4.98214 
16 *145:112 *11275:A2 16.8 
17 *145:112 *145:123 11.9643 
18 *145:123 *11272:A2 14.7643 
19 *145:123 *11257:A2 35.6929 
20 *145:35 *11278:A2 19.8261 
*END

*D_NET *146 0.0404712
*CONN
*I *1203:DIODE I *D sky130_fd_sc_hd__diode_2
*I *11252:A0 I *D sky130_fd_sc_hd__mux2_1
*I *11251:X O *D sky130_fd_sc_hd__mux2_2
*CAP
1 *1203:DIODE 0.000163733
2 *11252:A0 0
3 *11251:X 0.000205412
4 *146:22 0.000280248
5 *146:18 0.0036548
6 *146:16 0.0038437
7 *146:10 0.00242592
8 *146:8 0.00232591
9 *1203:DIODE *238:103 0.000257619
10 *1203:DIODE *238:105 4.08637e-05
11 *146:8 *990:DIODE 5.33005e-05
12 *146:8 *1074:DIODE 5.33005e-05
13 *146:8 *296:36 0.00038021
14 *146:10 *153:20 0.00126336
15 *146:10 *272:21 1.77757e-05
16 *146:10 *294:20 0.0029006
17 *146:10 *296:36 0.0019244
18 *146:10 *296:40 0.000126997
19 *146:10 *302:64 5.31158e-05
20 *146:18 *11515:CLKin 0.000148552
21 *146:18 *149:24 0.000728281
22 *146:18 *197:35 0.000752725
23 *146:18 *213:29 0.00278251
24 *146:18 *213:33 0.000659728
25 *146:22 *238:105 0.000218404
26 *128:10 *146:18 0.000897126
27 *132:10 *146:10 0.00434696
28 *134:8 *146:10 0.00501487
29 *134:18 *146:18 0.00493246
30 *142:10 *146:10 1.82896e-05
*RES
1 *11251:X *146:8 17.6214 
2 *146:8 *146:10 93.3214 
3 *146:10 *146:16 12.8214 
4 *146:16 *146:18 116.393 
5 *146:18 *146:22 6.67857 
6 *146:22 *11252:A0 9.3 
7 *146:22 *1203:DIODE 12.3 
*END

*D_NET *147 0.0343488
*CONN
*I *11254:B2 I *D sky130_fd_sc_hd__o221a_2
*I *11252:X O *D sky130_fd_sc_hd__mux2_1
*CAP
1 *11254:B2 0.000638079
2 *11252:X 0.00124009
3 *147:28 0.00123778
4 *147:18 0.00219675
5 *147:16 0.00283713
6 *11254:B2 *11254:A1 0.0026235
7 *11254:B2 *156:24 0.00203822
8 *147:16 *746:DIODE 0.00013683
9 *147:16 *11515:BEN[4] 0.000168915
10 *147:16 *11605:A 0.000480934
11 *147:16 *238:105 0.000180959
12 *147:18 *155:16 0.00120505
13 *147:18 *158:12 9.72247e-05
14 *147:18 *354:10 0.00817093
15 *147:28 *11515:BEN[14] 1.32091e-05
16 *147:28 *209:17 6.05161e-06
17 *147:28 *210:11 3.40335e-05
18 *147:28 *374:24 0.000118028
19 *147:28 *558:10 0.00126143
20 *147:28 *558:23 9.67412e-05
21 *147:28 *558:35 0.000276409
22 *147:28 *590:14 0.0018171
23 *11254:A2 *11254:B2 0.000226403
24 *11254:B1 *11254:B2 0.00012825
25 *126:10 *147:16 7.70035e-05
26 *132:22 *147:16 0.000218409
27 *134:18 *147:16 3.42301e-05
28 *144:10 *147:18 0.00678909
*RES
1 *11252:X *147:16 40.5143 
2 *147:16 *147:18 101.518 
3 *147:18 *147:28 38.4643 
4 *147:28 *11254:B2 36.9696 
*END

*D_NET *148 0.0375805
*CONN
*I *11284:C1 I *D sky130_fd_sc_hd__o221a_2
*I *11278:C1 I *D sky130_fd_sc_hd__o221a_2
*I *11257:C1 I *D sky130_fd_sc_hd__o221a_2
*I *11272:C1 I *D sky130_fd_sc_hd__o221a_2
*I *11275:C1 I *D sky130_fd_sc_hd__o221a_2
*I *11260:C1 I *D sky130_fd_sc_hd__o221a_2
*I *11269:C1 I *D sky130_fd_sc_hd__o221a_2
*I *11263:C1 I *D sky130_fd_sc_hd__o221a_2
*I *11266:C1 I *D sky130_fd_sc_hd__o221a_2
*I *11254:C1 I *D sky130_fd_sc_hd__o221a_2
*I *11253:X O *D sky130_fd_sc_hd__clkbuf_4
*CAP
1 *11284:C1 0.000201501
2 *11278:C1 3.76335e-05
3 *11257:C1 0.00125154
4 *11272:C1 0
5 *11275:C1 0.000101669
6 *11260:C1 0.000195528
7 *11269:C1 0.000112573
8 *11263:C1 0
9 *11266:C1 0.000119999
10 *11254:C1 0.000256662
11 *11253:X 0
12 *148:108 0.00154473
13 *148:97 0.000595017
14 *148:57 0.000211614
15 *148:40 0.000812836
16 *148:38 0.00262418
17 *148:28 0.0035799
18 *148:24 0.00324747
19 *148:16 0.00317736
20 *148:4 0.00163125
21 *11254:C1 *11249:A1 4.25974e-05
22 *11254:C1 *154:20 0
23 *11254:C1 *515:14 7.922e-05
24 *11254:C1 *595:12 0
25 *11257:C1 *11257:B2 1.39841e-05
26 *11260:C1 *11260:A1 0.000175892
27 *11266:C1 *587:12 0.00016306
28 *11266:C1 *595:12 0.00016457
29 *11269:C1 *11263:A1 2.47093e-05
30 *11269:C1 *579:10 0.000194348
31 *11284:C1 *11284:A1 0.000179628
32 *11284:C1 *169:28 0
33 *11284:C1 *567:16 0.000211599
34 *148:16 *201:22 0.000430308
35 *148:16 *567:16 0.000747674
36 *148:16 *604:12 0.000208457
37 *148:24 *11217:A 0.000521125
38 *148:24 *214:26 0.000664461
39 *148:38 *210:11 0.00132708
40 *148:38 *232:23 0.000704119
41 *148:38 *233:19 0.000160405
42 *148:38 *382:51 8.70387e-05
43 *148:38 *515:16 0.000172057
44 *148:38 *558:10 0.00185453
45 *148:40 *515:14 2.18985e-05
46 *148:40 *515:16 0.000269905
47 *148:57 *154:20 1.50179e-05
48 *148:57 *587:12 0.000217025
49 *148:57 *595:12 0.000254557
50 *11249:B1 *11266:C1 9.58126e-05
51 *11257:A2 *11257:C1 0.00104649
52 *11257:B1 *11257:C1 0.000706668
53 *11260:B1 *11260:C1 0
54 *11266:B1 *11266:C1 9.8621e-05
55 *11269:B1 *11269:C1 2.96504e-05
56 *11275:A2 *11275:C1 0.000135028
57 *11275:B1 *11275:C1 0.000205344
58 *11278:B1 *11278:C1 5.64195e-06
59 *11278:B1 *148:16 4.64488e-06
60 *11278:B1 *148:24 7.53616e-06
61 *11284:A2 *11284:C1 0.000798921
62 *11284:A2 *148:16 0.000187951
63 *119:16 *148:16 0.000117621
64 *121:16 *148:24 0.000249984
65 *121:16 *148:97 0.000256756
66 *121:16 *148:108 1.0033e-05
67 *122:29 *148:16 0.000382279
68 *123:14 *148:16 0.000134184
69 *123:16 *11266:C1 0.000180348
70 *129:8 *11257:C1 0.000692499
71 *129:8 *148:24 0.000460456
72 *129:8 *148:97 0.000512367
73 *129:8 *148:108 0.000908701
74 *140:34 *148:24 0.000487101
75 *140:53 *11269:C1 0.000104077
76 *140:113 *148:24 0
77 *140:130 *11275:C1 5.52302e-05
78 *140:134 *11257:C1 1.00332e-05
79 *140:134 *148:108 0.000895098
80 *145:41 *148:24 0.00019471
*RES
1 *11253:X *148:4 9.3 
2 *148:4 *148:16 41.5357 
3 *148:16 *148:24 44.1786 
4 *148:24 *148:28 18.1786 
5 *148:28 *148:38 48.5536 
6 *148:38 *148:40 5.875 
7 *148:40 *11254:C1 22.1214 
8 *148:40 *148:57 7.96429 
9 *148:57 *11266:C1 17.8179 
10 *148:57 *11263:C1 13.8 
11 *148:38 *11269:C1 21.7643 
12 *148:28 *11260:C1 13.0143 
13 *148:24 *148:97 6.80357 
14 *148:97 *11275:C1 16.3893 
15 *148:97 *148:108 11.9643 
16 *148:108 *11272:C1 13.8 
17 *148:108 *11257:C1 35.8 
18 *148:16 *11278:C1 10.1348 
19 *148:4 *11284:C1 17.675 
*END

*D_NET *149 0.0517706
*CONN
*I *11256:A0 I *D sky130_fd_sc_hd__mux2_1
*I *11255:X O *D sky130_fd_sc_hd__mux2_2
*CAP
1 *11256:A0 0
2 *11255:X 0.0071725
3 *149:24 0.00534787
4 *149:22 0.0125204
5 *149:22 *153:14 0
6 *149:22 *153:20 0.00550805
7 *149:22 *229:22 0.000134168
8 *149:22 *270:18 0.000309422
9 *149:22 *272:21 0.000464497
10 *149:22 *297:20 0.000309422
11 *149:22 *297:36 0.00011994
12 *149:22 *306:42 0.000276671
13 *149:22 *387:72 0
14 *149:22 *485:86 0.000662821
15 *149:24 *11229:S 6.96564e-05
16 *149:24 *11515:CLKin 0.00029148
17 *149:24 *197:16 0.000103573
18 *149:24 *197:35 0.00167481
19 *149:24 *203:69 9.43495e-05
20 *149:24 *269:28 0.000808329
21 *149:24 *294:32 0.000172185
22 *149:24 *295:28 0
23 *149:24 *328:27 0.00044403
24 *126:10 *149:24 0.0120343
25 *128:10 *149:24 0
26 *134:18 *149:24 0.00203017
27 *141:100 *149:22 0.000493706
28 *146:18 *149:24 0.000728281
*RES
1 *11255:X *149:22 48.1211 
2 *149:22 *149:24 170.884 
3 *149:24 *11256:A0 13.8 
*END

*D_NET *150 0.0178063
*CONN
*I *11257:B2 I *D sky130_fd_sc_hd__o221a_2
*I *11256:X O *D sky130_fd_sc_hd__mux2_1
*CAP
1 *11257:B2 3.3145e-05
2 *11256:X 0.00092913
3 *150:14 0.00172725
4 *150:12 0.00262324
5 *150:12 *783:DIODE 0.000178847
6 *150:12 *801:DIODE 0.000116964
7 *150:12 *152:12 0.000124829
8 *150:12 *201:167 0.000628651
9 *150:12 *239:91 0.000135028
10 *150:12 *239:93 0.000178847
11 *150:12 *239:95 0.000175892
12 *150:12 *376:28 6.33321e-05
13 *150:12 *383:54 0
14 *150:12 *383:62 0.000410308
15 *150:14 *809:DIODE 7.83587e-05
16 *150:14 *954:DIODE 0.000172226
17 *150:14 *152:12 0
18 *150:14 *152:14 0.00411815
19 *150:14 *200:22 0.000147971
20 *150:14 *201:167 0.00569535
21 *150:14 *242:66 0.000198698
22 *11257:A2 *11257:B2 7.43578e-06
23 *11257:B1 *11257:B2 4.86809e-05
24 *11257:C1 *11257:B2 1.39841e-05
*RES
1 *11256:X *150:12 37.6661 
2 *150:12 *150:14 72.1518 
3 *150:14 *11257:B2 14.7643 
*END

*D_NET *151 0.0425999
*CONN
*I *1204:DIODE I *D sky130_fd_sc_hd__diode_2
*I *11259:A0 I *D sky130_fd_sc_hd__mux2_1
*I *11258:X O *D sky130_fd_sc_hd__mux2_2
*CAP
1 *1204:DIODE 0.000160641
2 *11259:A0 0
3 *11258:X 0.00101953
4 *151:20 0.000160641
5 *151:18 0.00472362
6 *151:16 0.00574315
7 *1204:DIODE *240:51 0.000125355
8 *1204:DIODE *240:53 2.89016e-05
9 *151:16 *269:28 0.00056171
10 *151:16 *280:20 0.000574443
11 *151:16 *300:26 0.000220035
12 *151:16 *304:61 4.85033e-05
13 *151:16 *304:63 0.000116649
14 *151:18 *11273:A1 0.000132297
15 *151:18 *277:40 0.000641892
16 *151:18 *291:22 0.000816148
17 *151:18 *295:28 0
18 *11259:S *1204:DIODE 9.41642e-05
19 *124:10 *151:18 0.0143929
20 *130:10 *151:18 0.0130393
*RES
1 *11258:X *151:16 39.9071 
2 *151:16 *151:18 198.661 
3 *151:18 *151:20 4.5 
4 *151:20 *11259:A0 9.3 
5 *151:20 *1204:DIODE 12.3 
*END

*D_NET *152 0.0217403
*CONN
*I *11260:B2 I *D sky130_fd_sc_hd__o221a_2
*I *11259:X O *D sky130_fd_sc_hd__mux2_1
*CAP
1 *11260:B2 0
2 *11259:X 0.000902579
3 *152:14 0.00173259
4 *152:12 0.00267953
5 *152:8 0.00184951
6 *152:8 *154:8 0.000470798
7 *152:8 *240:59 5.20448e-05
8 *152:12 *801:DIODE 5.21702e-05
9 *152:12 *809:DIODE 2.56601e-05
10 *152:12 *954:DIODE 5.9462e-05
11 *152:12 *242:66 6.98762e-05
12 *152:12 *383:54 0.00208444
13 *152:14 *971:DIODE 0.000200406
14 *152:14 *972:DIODE 7.83659e-05
15 *152:14 *11515:DI[14] 0.000120065
16 *152:14 *201:167 0.000893292
17 *152:14 *234:19 0.00554388
18 *152:14 *378:79 0.000270503
19 *152:14 *383:48 0.00017345
20 *152:14 *549:32 4.38265e-05
21 *11259:S *152:8 2.59355e-05
22 *11262:S *152:8 0.000168915
23 *150:12 *152:12 0.000124829
24 *150:14 *152:12 0
25 *150:14 *152:14 0.00411815
*RES
1 *11259:X *152:8 24.6036 
2 *152:8 *152:12 27.4375 
3 *152:12 *152:14 79.2054 
4 *152:14 *11260:B2 13.8 
*END

*D_NET *153 0.0613499
*CONN
*I *11262:A0 I *D sky130_fd_sc_hd__mux2_2
*I *11261:X O *D sky130_fd_sc_hd__mux2_4
*CAP
1 *11262:A0 2.02818e-05
2 *11261:X 0.00429795
3 *153:20 0.0143769
4 *153:14 0.0186545
5 *11262:A0 *229:34 6.95556e-05
6 *153:14 *273:18 0.000751922
7 *153:20 *200:22 0.00190018
8 *153:20 *203:20 0.000168046
9 *153:20 *203:59 0.000115787
10 *153:20 *212:23 0.000127383
11 *153:20 *229:32 0.000109425
12 *153:20 *229:34 0.00151227
13 *153:20 *277:26 0.000147853
14 *153:20 *294:20 0.000159985
15 *153:20 *295:20 0.000229612
16 *153:20 *296:36 0.000165754
17 *153:20 *330:39 0.003695
18 *153:20 *376:28 7.59402e-06
19 *153:20 *380:28 4.65519e-05
20 *153:20 *485:86 0
21 *153:20 *491:44 0
22 *153:20 *552:14 0.000618044
23 *153:20 *552:24 0.000304114
24 *153:20 *555:8 0.00187888
25 *11261:S *153:14 0
26 *112:20 *11262:A0 6.77187e-05
27 *112:20 *153:20 0.000353612
28 *132:10 *153:20 0.00188533
29 *134:8 *153:20 0.00145701
30 *142:10 *153:20 0.00145727
31 *146:10 *153:20 0.00126336
32 *149:22 *153:14 0
33 *149:22 *153:20 0.00550805
*RES
1 *11261:X *153:14 30.3485 
2 *153:14 *153:20 47.6448 
3 *153:20 *11262:A0 18.0939 
*END

*D_NET *154 0.0300302
*CONN
*I *11263:B2 I *D sky130_fd_sc_hd__o221a_2
*I *11262:X O *D sky130_fd_sc_hd__mux2_2
*CAP
1 *11263:B2 0
2 *11262:X 0.000547273
3 *154:20 0.00112276
4 *154:10 0.00311294
5 *154:8 0.00253746
6 *154:8 *790:DIODE 6.09773e-05
7 *154:8 *11605:A 0
8 *154:8 *232:7 0
9 *154:8 *240:59 6.43196e-05
10 *154:10 *209:25 0.000465614
11 *154:10 *354:10 0.00838147
12 *154:10 *590:14 0.00904959
13 *154:20 *158:22 0.000923963
14 *154:20 *197:28 4.47757e-05
15 *154:20 *232:33 5.81568e-05
16 *154:20 *587:12 0.000101722
17 *154:20 *611:10 0
18 *11254:A2 *154:20 0.000404781
19 *11254:C1 *154:20 0
20 *131:14 *154:20 0.00247733
21 *140:89 *154:20 8.6229e-06
22 *144:16 *154:20 0.000173124
23 *145:74 *154:20 9.54798e-06
24 *148:57 *154:20 1.50179e-05
25 *152:8 *154:8 0.000470798
*RES
1 *11262:X *154:8 23.3714 
2 *154:8 *154:10 114.571 
3 *154:10 *154:20 49.6071 
4 *154:20 *11263:B2 9.3 
*END

*D_NET *155 0.0602556
*CONN
*I *11265:A0 I *D sky130_fd_sc_hd__mux2_1
*I *11264:X O *D sky130_fd_sc_hd__mux2_2
*CAP
1 *11265:A0 0.00051223
2 *11264:X 0.000320584
3 *155:16 0.00455029
4 *155:14 0.00403805
5 *155:12 0.00161875
6 *155:10 0.00193933
7 *11265:A0 *156:8 8.06005e-05
8 *11265:A0 *233:17 7.9908e-05
9 *11265:A0 *242:53 1.07719e-05
10 *11265:A0 *549:78 0
11 *155:12 *157:12 0.00505912
12 *155:16 *157:16 0.0185819
13 *155:16 *158:12 0.0015142
14 *155:16 *197:18 0.00177227
15 *155:16 *354:10 0.000175556
16 *155:16 *376:48 6.8646e-06
17 *155:16 *387:66 0.0154391
18 *155:16 *391:88 0.00335096
19 *147:18 *155:16 0.00120505
*RES
1 *11264:X *155:10 24.4964 
2 *155:10 *155:12 47.7679 
3 *155:12 *155:14 4.5 
4 *155:14 *155:16 250.268 
5 *155:16 *11265:A0 21.7286 
*END

*D_NET *156 0.0272974
*CONN
*I *11266:B2 I *D sky130_fd_sc_hd__o221a_2
*I *11265:X O *D sky130_fd_sc_hd__mux2_1
*CAP
1 *11266:B2 0
2 *11265:X 0.000359401
3 *156:24 0.00149325
4 *156:10 0.00318945
5 *156:8 0.0020556
6 *156:8 *233:17 0.000424029
7 *156:8 *372:28 0.00054662
8 *156:10 *197:18 0.000129981
9 *156:10 *231:13 0.00806391
10 *156:10 *365:46 0.000954357
11 *156:10 *369:41 0.000822765
12 *156:24 *197:18 0.000274289
13 *156:24 *197:28 0.000278131
14 *156:24 *588:20 0.000332887
15 *156:24 *611:10 0.000244077
16 *11254:B2 *156:24 0.00203822
17 *11265:A0 *156:8 8.06005e-05
18 *11266:A2 *156:24 5.4826e-05
19 *135:10 *156:10 0.000771955
20 *139:18 *156:10 0.00514874
21 *139:18 *156:24 1.17921e-05
22 *144:8 *156:8 2.25341e-05
*RES
1 *11265:X *156:8 21.7286 
2 *156:8 *156:10 103.491 
3 *156:10 *156:24 46.0089 
4 *156:24 *11266:B2 9.3 
*END

*D_NET *157 0.0545937
*CONN
*I *11268:A0 I *D sky130_fd_sc_hd__mux2_2
*I *11267:X O *D sky130_fd_sc_hd__mux2_4
*CAP
1 *11268:A0 0.000445345
2 *11267:X 0.000374152
3 *157:16 0.00443227
4 *157:14 0.00398692
5 *157:12 0.00248872
6 *157:10 0.00286287
7 *11268:A0 *158:10 0.00032094
8 *157:16 *740:DIODE 9.88679e-05
9 *157:16 *229:22 0.00155462
10 *157:16 *354:10 0.00443133
11 *157:16 *376:48 0.00658927
12 *157:16 *391:88 0.0028409
13 *157:16 *555:41 0.000526469
14 *155:12 *157:12 0.00505912
15 *155:16 *157:16 0.0185819
*RES
1 *11267:X *157:10 25.4071 
2 *157:10 *157:12 64.1964 
3 *157:12 *157:14 4.5 
4 *157:14 *157:16 230.536 
5 *157:16 *11268:A0 21.3179 
*END

*D_NET *158 0.0295293
*CONN
*I *11269:B2 I *D sky130_fd_sc_hd__o221a_2
*I *11268:X O *D sky130_fd_sc_hd__mux2_2
*CAP
1 *11269:B2 0
2 *11268:X 0.000374813
3 *158:22 0.00102991
4 *158:12 0.00295456
5 *158:10 0.00229946
6 *158:10 *746:DIODE 0
7 *158:10 *376:46 6.57032e-05
8 *158:10 *380:28 7.08853e-05
9 *158:12 *197:18 0.00980803
10 *158:22 *11263:A1 0
11 *158:22 *232:33 0.00139447
12 *11268:A0 *158:10 0.00032094
13 *11269:B1 *158:22 5.55449e-05
14 *140:53 *158:22 0.000308599
15 *144:10 *158:12 0.00811056
16 *144:16 *158:22 0.000166485
17 *145:68 *158:22 3.39451e-05
18 *147:18 *158:12 9.72247e-05
19 *154:20 *158:22 0.000923963
20 *155:16 *158:12 0.0015142
*RES
1 *11268:X *158:10 21.3357 
2 *158:10 *158:12 121.857 
3 *158:12 *158:22 41.6071 
4 *158:22 *11269:B2 9.3 
*END

*D_NET *159 0.039829
*CONN
*I *11271:A0 I *D sky130_fd_sc_hd__mux2_1
*I *11270:X O *D sky130_fd_sc_hd__mux2_2
*CAP
1 *11271:A0 1.77645e-05
2 *11270:X 7.70325e-05
3 *159:10 0.00411707
4 *159:8 0.00417634
5 *11271:A0 *244:54 7.43578e-06
6 *11271:A0 *244:56 2.89114e-05
7 *159:10 *163:10 0.0150253
8 *159:10 *298:22 0.000299683
9 *159:10 *298:28 0.00102112
10 *11271:S *11271:A0 5.33005e-05
11 *11273:S *159:8 9.41642e-05
12 *3:25 *159:10 0.0021505
13 *120:10 *159:10 0.0127604
*RES
1 *11270:X *159:8 14.7464 
2 *159:8 *159:10 191.375 
3 *159:10 *11271:A0 14.3357 
*END

*D_NET *160 0.0208488
*CONN
*I *11272:B2 I *D sky130_fd_sc_hd__o221a_2
*I *11271:X O *D sky130_fd_sc_hd__mux2_1
*CAP
1 *11272:B2 8.17962e-05
2 *11271:X 0.000239158
3 *160:10 0.00246618
4 *160:8 0.00262354
5 *11272:B2 *11204:B 4.74336e-05
6 *11272:B2 *212:35 0.000216755
7 *160:8 *244:58 4.12921e-05
8 *160:10 *213:33 0.0074894
9 *160:10 *242:41 4.37659e-05
10 *11271:S *160:8 0.000135028
11 *11272:A2 *11272:B2 6.05161e-06
12 *11272:B1 *11272:B2 5.28563e-05
13 *128:10 *160:10 0.00316037
14 *129:8 *160:10 0.00424515
*RES
1 *11271:X *160:8 17.2107 
2 *160:8 *160:10 97.5714 
3 *160:10 *11272:B2 15.9786 
*END

*D_NET *161 0.0417715
*CONN
*I *11274:A0 I *D sky130_fd_sc_hd__mux2_1
*I *11273:X O *D sky130_fd_sc_hd__mux2_2
*CAP
1 *11274:A0 2.80869e-05
2 *11273:X 0.00010272
3 *161:10 0.011738
4 *161:8 0.0118126
5 *11274:A0 *162:8 6.05161e-06
6 *11274:A0 *245:59 5.33005e-05
7 *161:10 *163:10 0.0168193
8 *11273:S *161:8 0.000178847
9 *3:25 *161:10 0.00103269
*RES
1 *11273:X *161:8 15.5679 
2 *161:8 *161:10 214.446 
3 *161:10 *11274:A0 14.3357 
*END

*D_NET *162 0.0136172
*CONN
*I *11275:B2 I *D sky130_fd_sc_hd__o221a_2
*I *11274:X O *D sky130_fd_sc_hd__mux2_1
*CAP
1 *11275:B2 0
2 *11274:X 0.000124046
3 *162:10 0.00419494
4 *162:8 0.00431899
5 *162:8 *245:59 3.63775e-05
6 *162:10 *163:10 0.00312691
7 *162:10 *240:22 0.000221893
8 *162:10 *589:26 0.000497074
9 *162:10 *602:12 0.000908679
10 *11274:A0 *162:8 6.05161e-06
11 *3:25 *162:10 0.000182244
*RES
1 *11274:X *162:8 15.1571 
2 *162:8 *162:10 74.5 
3 *162:10 *11275:B2 13.8 
*END

*D_NET *163 0.0551735
*CONN
*I *11277:A0 I *D sky130_fd_sc_hd__mux2_1
*I *11276:X O *D sky130_fd_sc_hd__mux2_2
*CAP
1 *11277:A0 0
2 *11276:X 0.000218775
3 *163:10 0.00579208
4 *163:8 0.00601085
5 *163:10 *998:DIODE 0.000263505
6 *163:10 *240:22 0.00482911
7 *163:10 *240:49 0.000182288
8 *11273:S *163:8 0.000135028
9 *3:25 *163:10 0.00230579
10 *120:10 *163:10 0.000404901
11 *141:60 *163:8 5.96516e-05
12 *159:10 *163:10 0.0150253
13 *161:10 *163:10 0.0168193
14 *162:10 *163:10 0.00312691
*RES
1 *11276:X *163:8 16.3893 
2 *163:8 *163:10 265.75 
3 *163:10 *11277:A0 13.8 
*END

*D_NET *164 0.0118261
*CONN
*I *11278:B2 I *D sky130_fd_sc_hd__o221a_2
*I *11277:X O *D sky130_fd_sc_hd__mux2_1
*CAP
1 *11278:B2 0.000866779
2 *11277:X 0.000202246
3 *164:10 0.00241753
4 *164:8 0.001753
5 *11278:B2 *596:14 0.00182816
6 *11278:B2 *604:12 7.97383e-06
7 *11278:B2 *611:12 0.000510767
8 *164:10 *222:28 0.00365903
9 *164:10 *224:36 2.59093e-05
10 *164:10 *563:38 8.22896e-05
11 *164:10 *597:12 0.000325102
12 *11277:S *164:8 4.85049e-06
13 *11278:A2 *11278:B2 1.41448e-05
14 *11278:B1 *11278:B2 5.42698e-05
15 *143:16 *164:10 0
16 *143:20 *164:8 7.40839e-05
*RES
1 *11277:X *164:8 16.3893 
2 *164:8 *164:10 49 
3 *164:10 *11278:B2 46.8134 
*END

*D_NET *165 0.0291917
*CONN
*I *11304:B1 I *D sky130_fd_sc_hd__o221a_2
*I *11310:B1 I *D sky130_fd_sc_hd__o221a_2
*I *11313:B1 I *D sky130_fd_sc_hd__o221a_2
*I *11307:B1 I *D sky130_fd_sc_hd__o221a_2
*I *11301:B1 I *D sky130_fd_sc_hd__o221a_2
*I *11298:B1 I *D sky130_fd_sc_hd__o221a_2
*I *11295:B1 I *D sky130_fd_sc_hd__o221a_2
*I *11292:B1 I *D sky130_fd_sc_hd__o221a_2
*I *11289:B1 I *D sky130_fd_sc_hd__o221a_2
*I *11284:B1 I *D sky130_fd_sc_hd__o221a_2
*I *11279:X O *D sky130_fd_sc_hd__clkbuf_4
*CAP
1 *11304:B1 2.12266e-05
2 *11310:B1 8.27934e-05
3 *11313:B1 0.000794614
4 *11307:B1 3.7701e-05
5 *11301:B1 0
6 *11298:B1 5.20068e-05
7 *11295:B1 0.000122901
8 *11292:B1 2.92571e-05
9 *11289:B1 2.30855e-05
10 *11284:B1 0.000547905
11 *11279:X 0
12 *165:147 0.00128656
13 *165:134 0.000881235
14 *165:130 0.000751609
15 *165:111 0.000634187
16 *165:84 0.000884862
17 *165:34 0.00111457
18 *165:22 0.000789414
19 *165:20 0.000581228
20 *165:12 0.000986407
21 *165:4 0.00100586
22 *11284:B1 *11284:A1 1.28809e-05
23 *11284:B1 *11284:B2 8.43535e-06
24 *11284:B1 *169:28 0.00183513
25 *11284:B1 *567:16 4.02462e-05
26 *11284:B1 *605:6 0.00176984
27 *11292:B1 *11289:A2 1.72457e-05
28 *11292:B1 *11292:A1 5.4754e-05
29 *11292:B1 *11292:A2 9.34926e-06
30 *11292:B1 *11292:C1 5.80335e-06
31 *11295:B1 *11295:B2 2.78014e-05
32 *11295:B1 *170:48 0.000117729
33 *11295:B1 *170:63 5.49544e-05
34 *11295:B1 *173:63 3.12256e-05
35 *11295:B1 *219:34 0.000151667
36 *11298:B1 *11298:A2 2.95746e-06
37 *11298:B1 *11298:B2 1.55475e-05
38 *11298:B1 *11298:C1 5.54856e-05
39 *11298:B1 *173:76 1.93512e-05
40 *11298:B1 *580:42 1.93512e-05
41 *11304:B1 *11304:C1 5.43052e-06
42 *11307:B1 *11307:B2 1.00733e-05
43 *11307:B1 *173:125 1.27498e-05
44 *11310:B1 *11310:C1 1.00733e-05
45 *11310:B1 *11313:A2 3.74464e-06
46 *11310:B1 *11313:C1 4.96587e-05
47 *11310:B1 *504:12 5.05056e-05
48 *11313:B1 *11313:A2 0.000354051
49 *11313:B1 *11313:C1 7.03393e-05
50 *11313:B1 *170:127 2.06178e-05
51 *11313:B1 *225:36 0
52 *11313:B1 *504:12 0.000112485
53 *11313:B1 *615:12 0.000963678
54 *11313:B1 *617:10 2.34043e-05
55 *11313:B1 *619:6 0.000185643
56 *11313:B1 *620:10 9.11048e-06
57 *165:12 *716:DIODE 1.95763e-05
58 *165:12 *172:34 0.000109428
59 *165:12 *219:34 0
60 *165:12 *622:24 0
61 *165:20 *11292:B2 3.47641e-06
62 *165:20 *172:34 0.000974466
63 *165:20 *580:42 4.57872e-05
64 *165:20 *584:56 0.000345001
65 *165:22 *11289:A2 1.74352e-05
66 *165:22 *11292:A1 0.000230475
67 *165:22 *11292:C1 0.000911858
68 *165:22 *172:34 0.000119114
69 *165:22 *338:28 0.00043891
70 *165:22 *607:16 3.95804e-05
71 *165:34 *11289:A1 0.000198879
72 *165:34 *338:28 0.00169917
73 *165:34 *371:30 0.000121573
74 *165:34 *584:56 0.001027
75 *165:34 *607:16 9.34548e-05
76 *165:84 *173:63 0.000700639
77 *165:84 *173:76 4.18895e-05
78 *165:111 *11298:A2 2.06178e-05
79 *165:111 *170:76 0.000141343
80 *165:111 *173:76 0.000891439
81 *165:111 *173:97 7.93965e-05
82 *165:111 *580:42 0.000263878
83 *165:130 *720:DIODE 0.000230475
84 *165:130 *11304:A1 0.000115609
85 *165:130 *173:97 0.000359357
86 *165:130 *173:110 4.70713e-05
87 *165:130 *610:16 0.000203658
88 *165:130 *612:12 6.42095e-05
89 *165:134 *11304:A1 0.000171535
90 *165:134 *173:110 0.000319703
91 *165:134 *173:125 1.73462e-05
92 *165:134 *613:12 5.52302e-05
93 *165:147 *11307:A1 0.000180072
94 *165:147 *11307:B2 5.07736e-05
95 *165:147 *11310:A1 6.71755e-05
96 *165:147 *11313:C1 4.18895e-05
97 *165:147 *173:125 8.59937e-05
98 *165:147 *173:129 0.000401764
99 *165:147 *224:48 8.80543e-05
100 *11284:A2 *11284:B1 6.32582e-05
101 *11322:C1 *11310:B1 2.73571e-05
102 *117:102 *11295:B1 0.000135472
103 *117:102 *11298:B1 1.01417e-05
104 *117:131 *11313:B1 4.6025e-06
105 *118:57 *165:12 8.74764e-05
106 *118:57 *165:20 0.000172356
107 *118:75 *165:12 3.93986e-05
108 *118:104 *165:147 0.000858584
*RES
1 *11279:X *165:4 9.3 
2 *165:4 *165:12 11.6145 
3 *165:12 *165:20 10.0508 
4 *165:20 *165:22 9.97768 
5 *165:22 *165:34 34.7366 
6 *165:34 *11284:B1 39.0366 
7 *165:22 *11289:B1 9.72857 
8 *165:20 *11292:B1 10.2598 
9 *165:12 *11295:B1 20.6698 
10 *165:4 *165:84 7.10714 
11 *165:84 *11298:B1 19.7107 
12 *165:84 *165:111 19.567 
13 *165:111 *11301:B1 9.3 
14 *165:111 *165:130 10.2411 
15 *165:130 *165:134 8.36161 
16 *165:134 *11307:B1 10.1616 
17 *165:134 *165:147 16.9464 
18 *165:147 *11313:B1 48.1973 
19 *165:147 *11310:B1 15.2152 
20 *165:130 *11304:B1 9.72857 
*END

*D_NET *166 0.0313673
*CONN
*I *11302:S I *D sky130_fd_sc_hd__mux2_4
*I *11311:S I *D sky130_fd_sc_hd__mux2_4
*I *11308:S I *D sky130_fd_sc_hd__mux2_4
*I *11305:S I *D sky130_fd_sc_hd__mux2_4
*I *11299:S I *D sky130_fd_sc_hd__mux2_4
*I *11296:S I *D sky130_fd_sc_hd__mux2_4
*I *11293:S I *D sky130_fd_sc_hd__mux2_4
*I *11290:S I *D sky130_fd_sc_hd__mux2_4
*I *11281:S I *D sky130_fd_sc_hd__mux2_4
*I *11286:S I *D sky130_fd_sc_hd__mux2_4
*I *11280:X O *D sky130_fd_sc_hd__clkbuf_8
*CAP
1 *11302:S 4.4165e-05
2 *11311:S 0.000837382
3 *11308:S 1.78392e-05
4 *11305:S 3.66078e-05
5 *11299:S 2.23854e-05
6 *11296:S 2.03441e-05
7 *11293:S 4.30666e-05
8 *11290:S 0.000233166
9 *11281:S 0.000913333
10 *11286:S 0
11 *11280:X 0.000433751
12 *166:127 0.00150926
13 *166:114 0.0015652
14 *166:102 0.00207882
15 *166:87 0.00174497
16 *166:66 0.000805073
17 *166:28 0.00125601
18 *166:20 0.00123874
19 *166:16 0.0013735
20 *166:10 0.00132353
21 *11281:S *1005:DIODE 2.44318e-05
22 *11281:S *11281:A0 0.0012786
23 *11281:S *11281:A1 1.00733e-05
24 *11281:S *11286:A1 0.0012414
25 *11281:S *279:29 9.88879e-05
26 *11281:S *292:37 0.000549292
27 *11281:S *292:39 4.69993e-05
28 *11290:S *11290:A1 5.49489e-05
29 *11293:S *11293:A1 4.8765e-06
30 *11293:S *176:50 0
31 *11296:S *1017:DIODE 5.7661e-06
32 *11302:S *11302:A1 5.37741e-06
33 *11302:S *180:52 0
34 *11305:S *287:45 1.51217e-05
35 *11311:S *11308:A0 0.000318199
36 *11311:S *11311:A0 4.78308e-05
37 *11311:S *11311:A1 0.000358683
38 *11311:S *186:8 0.000293597
39 *166:10 *1016:DIODE 6.02394e-05
40 *166:10 *176:75 3.17148e-05
41 *166:10 *315:35 0
42 *166:16 *176:50 0.000285637
43 *166:16 *176:57 9.66945e-05
44 *166:16 *176:64 9.77274e-05
45 *166:16 *176:75 0.000111393
46 *166:16 *284:31 1.74352e-05
47 *166:16 *284:45 1.98839e-05
48 *166:20 *176:6 0.000219887
49 *166:20 *176:8 7.17235e-05
50 *166:20 *176:50 9.61939e-05
51 *166:20 *284:31 1.74352e-05
52 *166:20 *306:38 0.000268583
53 *166:28 *11286:A0 0.00108903
54 *166:28 *11286:A1 3.99189e-05
55 *166:28 *292:37 1.21371e-05
56 *166:28 *292:39 0.00122212
57 *166:28 *306:36 0
58 *166:66 *1017:DIODE 4.72917e-05
59 *166:66 *284:45 2.14757e-05
60 *166:66 *284:52 0.000358971
61 *166:87 *1017:DIODE 0.000373438
62 *166:87 *11296:A0 0.000401639
63 *166:87 *11299:A0 8.07313e-05
64 *166:87 *178:6 0.000359947
65 *166:87 *178:17 8.49019e-06
66 *166:87 *178:24 0.000195804
67 *166:87 *178:33 0.000319326
68 *166:102 *11299:A0 0.000116588
69 *166:102 *178:33 0.000172906
70 *166:102 *180:6 5.20187e-05
71 *166:102 *306:22 0.00156275
72 *166:102 *313:47 0.000160191
73 *166:114 *11302:A0 0
74 *166:114 *180:52 0
75 *166:114 *313:47 0.000209244
76 *166:127 *1027:DIODE 0.000366575
77 *166:127 *1028:DIODE 1.40415e-05
78 *166:127 *11308:A0 7.8195e-05
79 *166:127 *11308:A1 0.000235908
80 *166:127 *184:15 0.00044449
81 *166:127 *184:22 0.000186662
82 *166:127 *287:45 2.94004e-05
83 *166:127 *314:29 0.000119237
84 *11280:A *166:10 0
85 *3:35 *11281:S 0.000464613
86 *3:35 *166:28 0.000128553
87 *113:36 *11290:S 5.49489e-05
88 *113:59 *166:114 0.00119488
*RES
1 *11280:X *166:10 26.0143 
2 *166:10 *166:16 10.125 
3 *166:16 *166:20 14.0714 
4 *166:20 *166:28 18.5 
5 *166:28 *11286:S 9.3 
6 *166:28 *11281:S 36.2821 
7 *166:20 *11290:S 17.8 
8 *166:16 *11293:S 10.0321 
9 *166:10 *166:66 4.64286 
10 *166:66 *11296:S 9.72857 
11 *166:66 *166:87 24.1786 
12 *166:87 *11299:S 9.72857 
13 *166:87 *166:102 22.8393 
14 *166:102 *166:114 30.125 
15 *166:114 *11305:S 10.0321 
16 *166:114 *166:127 15.6607 
17 *166:127 *11308:S 9.72857 
18 *166:127 *11311:S 25.4607 
19 *166:102 *11302:S 14.5321 
*END

*D_NET *167 0.0577158
*CONN
*I *1225:DIODE I *D sky130_fd_sc_hd__diode_2
*I *667:DIODE I *D sky130_fd_sc_hd__diode_2
*I *744:DIODE I *D sky130_fd_sc_hd__diode_2
*I *722:DIODE I *D sky130_fd_sc_hd__diode_2
*I *700:DIODE I *D sky130_fd_sc_hd__diode_2
*I *678:DIODE I *D sky130_fd_sc_hd__diode_2
*I *656:DIODE I *D sky130_fd_sc_hd__diode_2
*I *645:DIODE I *D sky130_fd_sc_hd__diode_2
*I *11283:A0 I *D sky130_fd_sc_hd__mux2_1
*I *689:DIODE I *D sky130_fd_sc_hd__diode_2
*I *711:DIODE I *D sky130_fd_sc_hd__diode_2
*I *733:DIODE I *D sky130_fd_sc_hd__diode_2
*I *1199:DIODE I *D sky130_fd_sc_hd__diode_2
*I *866:DIODE I *D sky130_fd_sc_hd__diode_2
*I *644:DIODE I *D sky130_fd_sc_hd__diode_2
*I *755:DIODE I *D sky130_fd_sc_hd__diode_2
*I *977:DIODE I *D sky130_fd_sc_hd__diode_2
*I *1088:DIODE I *D sky130_fd_sc_hd__diode_2
*I *1214:DIODE I *D sky130_fd_sc_hd__diode_2
*I *1236:DIODE I *D sky130_fd_sc_hd__diode_2
*I *11281:X O *D sky130_fd_sc_hd__mux2_4
*CAP
1 *1225:DIODE 0
2 *667:DIODE 0
3 *744:DIODE 3.97536e-05
4 *722:DIODE 0
5 *700:DIODE 0
6 *678:DIODE 0
7 *656:DIODE 0
8 *645:DIODE 0
9 *11283:A0 0
10 *689:DIODE 0
11 *711:DIODE 0
12 *733:DIODE 0
13 *1199:DIODE 0
14 *866:DIODE 0
15 *644:DIODE 0
16 *755:DIODE 0
17 *977:DIODE 0
18 *1088:DIODE 0
19 *1214:DIODE 0
20 *1236:DIODE 0.000140175
21 *11281:X 3.03949e-05
22 *167:166 0.000280417
23 *167:149 0.000357359
24 *167:142 0.000229886
25 *167:135 0.00022638
26 *167:128 0.000326923
27 *167:121 0.000751644
28 *167:107 0.000654607
29 *167:100 0.000229886
30 *167:93 0.000236015
31 *167:86 0.00222796
32 *167:76 0.0222397
33 *167:74 0.0203406
34 *167:64 0.000320299
35 *167:57 0.000358
36 *167:50 0.000351345
37 *167:43 0.000518477
38 *167:14 0.000255649
39 *167:12 0.000230948
40 *167:10 0.000233641
41 *167:8 0.000326633
42 *167:6 0.000649673
43 *744:DIODE *168:43 0.000182694
44 *744:DIODE *559:12 0.000180777
45 *1236:DIODE *292:37 6.09773e-05
46 *167:6 *292:37 3.50166e-05
47 *167:8 *292:37 0.000116412
48 *167:10 *292:37 7.10746e-05
49 *167:12 *292:37 7.50473e-05
50 *167:14 *292:37 7.50473e-05
51 *167:43 *292:37 0.000640233
52 *167:43 *330:25 0.000117142
53 *167:50 *292:37 0.000188586
54 *167:57 *292:37 0.000406105
55 *167:64 *292:37 0.000185118
56 *167:74 *312:23 0.00012751
57 *167:74 *330:25 0.000468315
58 *167:76 *396:18 0
59 *167:76 *396:20 0
60 *167:76 *396:78 0
61 *167:86 *219:34 0.000404676
62 *167:86 *394:16 8.69554e-05
63 *167:86 *396:18 0
64 *167:86 *581:12 0.00010805
65 *167:86 *600:26 0.000287814
66 *167:93 *583:24 0.000183726
67 *167:100 *583:24 0.000185117
68 *167:107 *583:24 0.000183721
69 *167:121 *11298:B2 2.88045e-05
70 *167:121 *11614:A 1.72961e-05
71 *167:121 *169:20 0.000126671
72 *167:121 *585:22 0.000437756
73 *167:128 *583:24 0.000310612
74 *167:135 *583:24 0.000185117
75 *167:142 *583:24 0.000185117
76 *167:149 *583:24 0.000183721
77 *167:166 *202:16 2.07158e-05
78 *167:166 *247:43 0.000104249
79 *167:166 *338:38 5.76004e-05
80 *167:166 *583:24 9.63157e-05
81 *115:16 *167:121 3.5298e-05
*RES
1 *11281:X *167:6 10.0321 
2 *167:6 *167:8 3 
3 *167:8 *167:10 1.76786 
4 *167:10 *167:12 1.76786 
5 *167:12 *167:14 1.76786 
6 *167:14 *1236:DIODE 11.0679 
7 *167:14 *1214:DIODE 9.3 
8 *167:12 *1088:DIODE 9.3 
9 *167:10 *977:DIODE 9.3 
10 *167:8 *755:DIODE 9.3 
11 *167:6 *167:43 6.28571 
12 *167:43 *644:DIODE 9.3 
13 *167:43 *167:50 1.76786 
14 *167:50 *866:DIODE 9.3 
15 *167:50 *167:57 3.82143 
16 *167:57 *1199:DIODE 9.3 
17 *167:57 *167:64 1.76786 
18 *167:64 *167:74 13.5427 
19 *167:74 *167:76 64.0735 
20 *167:76 *167:86 20.4439 
21 *167:86 *733:DIODE 9.3 
22 *167:86 *167:93 1.76786 
23 *167:93 *711:DIODE 9.3 
24 *167:93 *167:100 1.76786 
25 *167:100 *689:DIODE 9.3 
26 *167:100 *167:107 1.76786 
27 *167:107 *167:121 25.5357 
28 *167:121 *11283:A0 9.3 
29 *167:121 *167:128 3 
30 *167:128 *645:DIODE 9.3 
31 *167:128 *167:135 1.76786 
32 *167:135 *656:DIODE 9.3 
33 *167:135 *167:142 1.76786 
34 *167:142 *678:DIODE 9.3 
35 *167:142 *167:149 1.76786 
36 *167:149 *700:DIODE 9.3 
37 *167:149 *167:166 13.2679 
38 *167:166 *722:DIODE 9.3 
39 *167:166 *744:DIODE 11.0679 
40 *167:107 *667:DIODE 9.3 
41 *167:64 *1225:DIODE 9.3 
*END

*D_NET *168 0.0617099
*CONN
*I *11309:S I *D sky130_fd_sc_hd__mux2_2
*I *11312:S I *D sky130_fd_sc_hd__mux2_2
*I *11306:S I *D sky130_fd_sc_hd__mux2_2
*I *11303:S I *D sky130_fd_sc_hd__mux2_1
*I *11297:S I *D sky130_fd_sc_hd__mux2_1
*I *11294:S I *D sky130_fd_sc_hd__mux2_1
*I *11291:S I *D sky130_fd_sc_hd__mux2_1
*I *11287:S I *D sky130_fd_sc_hd__mux2_1
*I *11283:S I *D sky130_fd_sc_hd__mux2_1
*I *11300:S I *D sky130_fd_sc_hd__mux2_1
*I *11282:X O *D sky130_fd_sc_hd__buf_4
*CAP
1 *11309:S 0.000287874
2 *11312:S 6.03978e-05
3 *11306:S 7.70474e-05
4 *11303:S 0
5 *11297:S 0
6 *11294:S 0
7 *11291:S 0
8 *11287:S 0
9 *11283:S 0
10 *11300:S 0
11 *11282:X 0
12 *168:114 0.00162912
13 *168:103 0.00270228
14 *168:101 0.00134438
15 *168:99 0.001951
16 *168:97 0.00239593
17 *168:86 0.00183797
18 *168:43 0.000734297
19 *168:33 0.00102088
20 *168:31 0.000562573
21 *168:29 0.00054783
22 *168:27 0.000958805
23 *168:12 0.000987504
24 *168:4 0.00169358
25 *11306:S *184:86 0.000135028
26 *11309:S *918:DIODE 1.21258e-05
27 *11309:S *11309:A0 6.05161e-06
28 *11309:S *256:23 2.95726e-05
29 *11309:S *569:30 0.000198494
30 *11312:S *11312:A0 5.52302e-05
31 *11312:S *11312:A1 5.33005e-05
32 *11312:S *372:71 4.13496e-05
33 *168:12 *897:DIODE 6.32641e-05
34 *168:12 *1230:DIODE 0.000204318
35 *168:12 *178:91 0.000190593
36 *168:12 *178:97 3.34295e-05
37 *168:12 *178:113 0.000269428
38 *168:12 *191:12 0.000649896
39 *168:27 *897:DIODE 0.0001234
40 *168:27 *178:62 1.64621e-05
41 *168:27 *178:91 0.000307337
42 *168:27 *251:43 0.00105275
43 *168:29 *11294:A1 1.69961e-05
44 *168:29 *176:108 0.000172387
45 *168:29 *176:115 9.56917e-05
46 *168:29 *176:122 9.46571e-05
47 *168:29 *176:133 4.48647e-05
48 *168:29 *178:62 0.000142157
49 *168:29 *179:14 0.000877561
50 *168:29 *251:43 0.000186926
51 *168:31 *11291:A1 0.00107486
52 *168:31 *11294:A0 9.71197e-05
53 *168:31 *11294:A1 2.44318e-05
54 *168:31 *174:104 8.43535e-06
55 *168:31 *176:108 2.89114e-05
56 *168:31 *177:6 0.000958682
57 *168:33 *933:DIODE 0.000218808
58 *168:33 *11291:A1 5.71472e-05
59 *168:33 *171:123 0.000195393
60 *168:33 *171:130 9.7659e-05
61 *168:33 *171:137 0.000103895
62 *168:33 *177:6 0.0012036
63 *168:43 *872:DIODE 0.000188586
64 *168:43 *11329:A 0.00193131
65 *168:43 *171:100 5.52302e-05
66 *168:43 *171:107 0.000184798
67 *168:43 *171:116 0.000313441
68 *168:43 *171:123 4.35597e-05
69 *168:43 *177:6 0.000610639
70 *168:43 *223:32 0.000387439
71 *168:43 *228:32 0
72 *168:43 *247:43 0.000833734
73 *168:43 *247:59 4.17433e-05
74 *168:43 *247:61 0.000171611
75 *168:43 *372:18 0.000163481
76 *168:43 *559:12 0.000455659
77 *168:43 *583:24 0.000164949
78 *168:86 *11303:A1 9.90367e-05
79 *168:86 *11351:A 0
80 *168:86 *11395:A 0
81 *168:86 *182:98 4.90192e-05
82 *168:86 *182:105 4.55532e-05
83 *168:86 *182:112 4.86417e-05
84 *168:86 *182:119 0.000128822
85 *168:86 *182:128 8.02893e-05
86 *168:86 *182:135 2.44318e-05
87 *168:86 *183:10 0
88 *168:86 *191:12 4.88637e-05
89 *168:86 *252:29 8.6229e-06
90 *168:86 *378:16 4.86429e-05
91 *168:99 *185:14 3.79504e-05
92 *168:99 *187:42 0.00746388
93 *168:99 *195:14 4.49922e-05
94 *168:103 *675:DIODE 9.15621e-06
95 *168:103 *11467:A 0.00111816
96 *168:103 *185:10 0.00494073
97 *168:103 *193:8 5.37543e-05
98 *168:114 *985:DIODE 0.0001098
99 *168:114 *986:DIODE 3.92854e-05
100 *168:114 *11318:A0 7.86072e-05
101 *168:114 *11467:A 0.00033869
102 *168:114 *193:8 3.43403e-05
103 *168:114 *266:83 0.000392997
104 *168:114 *569:16 0
105 *168:114 *569:30 0.000464114
106 *744:DIODE *168:43 0.000182694
107 *11321:S *168:114 0.00190532
108 *115:43 *168:86 9.25014e-06
109 *115:67 *168:99 0.00507599
110 *115:71 *168:103 0.00512849
111 *115:71 *168:114 0.000219886
*RES
1 *11282:X *168:4 9.3 
2 *168:4 *168:12 14.0714 
3 *168:12 *11300:S 13.8 
4 *168:12 *168:27 20.1964 
5 *168:27 *168:29 11.625 
6 *168:29 *168:31 12.0357 
7 *168:31 *168:33 11.625 
8 *168:33 *168:43 41.75 
9 *168:43 *11283:S 9.3 
10 *168:33 *11287:S 9.3 
11 *168:31 *11291:S 9.3 
12 *168:29 *11294:S 9.3 
13 *168:27 *11297:S 9.3 
14 *168:4 *168:86 37.75 
15 *168:86 *11303:S 13.8 
16 *168:86 *168:97 12.5179 
17 *168:97 *168:99 78.5714 
18 *168:99 *168:101 4.5 
19 *168:101 *168:103 65.0893 
20 *168:103 *11306:S 15.1571 
21 *168:103 *168:114 36.5536 
22 *168:114 *11312:S 15.1571 
23 *168:114 *11309:S 19.8357 
*END

*D_NET *169 0.0173557
*CONN
*I *11284:B2 I *D sky130_fd_sc_hd__o221a_2
*I *11283:X O *D sky130_fd_sc_hd__mux2_1
*CAP
1 *11284:B2 2.65936e-05
2 *11283:X 0.00181742
3 *169:28 0.000797958
4 *169:20 0.00258878
5 *11284:B2 *11284:A1 9.60875e-05
6 *169:20 *583:24 0.000347928
7 *169:20 *622:24 9.34707e-05
8 *169:28 *11284:A1 3.22121e-05
9 *169:28 *371:38 0.00271474
10 *169:28 *404:20 0.00451698
11 *169:28 *605:6 1.38323e-05
12 *11284:A2 *11284:B2 5.52238e-05
13 *11284:A2 *169:28 0
14 *11284:B1 *11284:B2 8.43535e-06
15 *11284:B1 *169:28 0.00183513
16 *11284:C1 *169:28 0
17 *115:16 *169:20 0.0022842
18 *167:121 *169:20 0.000126671
*RES
1 *11283:X *169:20 49.9964 
2 *169:20 *169:28 49.625 
3 *169:28 *11284:B2 10.2464 
*END

*D_NET *170 0.0207017
*CONN
*I *11307:A2 I *D sky130_fd_sc_hd__o221a_2
*I *11313:A2 I *D sky130_fd_sc_hd__o221a_2
*I *11310:A2 I *D sky130_fd_sc_hd__o221a_2
*I *11316:A2 I *D sky130_fd_sc_hd__o221a_2
*I *11304:A2 I *D sky130_fd_sc_hd__o221a_2
*I *11301:A2 I *D sky130_fd_sc_hd__o221a_2
*I *11298:A2 I *D sky130_fd_sc_hd__o221a_2
*I *11295:A2 I *D sky130_fd_sc_hd__o221a_2
*I *11292:A2 I *D sky130_fd_sc_hd__o221a_2
*I *11289:A2 I *D sky130_fd_sc_hd__o221a_2
*I *11285:X O *D sky130_fd_sc_hd__buf_2
*CAP
1 *11307:A2 9.72553e-06
2 *11313:A2 0.000439302
3 *11310:A2 0
4 *11316:A2 9.15792e-05
5 *11304:A2 2.50261e-05
6 *11301:A2 1.1892e-05
7 *11298:A2 9.59919e-06
8 *11295:A2 0
9 *11292:A2 4.24843e-05
10 *11289:A2 0.000868718
11 *11285:X 0.000246656
12 *170:127 0.000690224
13 *170:106 0.00117567
14 *170:102 0.00127175
15 *170:89 0.00131134
16 *170:76 0.00153867
17 *170:63 0.00118857
18 *170:48 0.000961247
19 *170:18 0.00110195
20 *170:16 0.000888997
21 *11289:A2 *11292:A1 1.02296e-05
22 *11289:A2 *11292:C1 7.31455e-05
23 *11289:A2 *172:34 1.02504e-05
24 *11289:A2 *173:12 0
25 *11289:A2 *217:32 0
26 *11289:A2 *584:56 0
27 *11289:A2 *607:16 0.000954427
28 *11292:A2 *11292:A1 3.02742e-05
29 *11292:A2 *11292:C1 4.22448e-07
30 *11298:A2 *11298:B2 9.54798e-06
31 *11301:A2 *11301:B2 9.54798e-06
32 *11301:A2 *173:97 2.06178e-05
33 *11304:A2 *11304:A1 2.06178e-05
34 *11313:A2 *11310:A1 5.52302e-05
35 *11313:A2 *11313:C1 5.67115e-05
36 *11313:A2 *11322:A1 5.67847e-05
37 *11313:A2 *183:14 1.04232e-05
38 *11313:A2 *183:28 0.00095421
39 *11313:A2 *615:12 0.000117557
40 *11316:A2 *11316:A1 3.47641e-06
41 *11316:A2 *173:129 3.33238e-05
42 *11316:A2 *191:32 9.54798e-06
43 *11316:A2 *617:10 5.7903e-06
44 *170:16 *580:42 2.06112e-05
45 *170:16 *584:56 1.90936e-05
46 *170:16 *608:12 2.68445e-05
47 *170:18 *11292:A1 2.65105e-05
48 *170:18 *338:28 2.87555e-06
49 *170:18 *584:64 5.33005e-05
50 *170:18 *608:12 8.25843e-06
51 *170:48 *716:DIODE 0
52 *170:48 *11295:B2 0.000139515
53 *170:48 *584:64 0.000517553
54 *170:63 *11614:A 7.69776e-06
55 *170:63 *173:63 0.00081168
56 *170:63 *609:12 5.49489e-05
57 *170:76 *173:76 0.000141343
58 *170:76 *580:42 0.000112662
59 *170:76 *610:16 0.000145365
60 *170:89 *11617:A 0
61 *170:89 *380:18 0
62 *170:102 *11307:A1 0.000478348
63 *170:102 *11617:A 0
64 *170:106 *11307:A1 0.000131421
65 *170:106 *11310:A1 0.000256242
66 *170:106 *11617:A 0
67 *170:127 *11310:A1 0.000473792
68 *170:127 *11310:B2 9.54798e-06
69 *170:127 *504:12 3.49613e-05
70 *11292:B1 *11289:A2 1.72457e-05
71 *11292:B1 *11292:A2 9.34926e-06
72 *11295:B1 *170:48 0.000117729
73 *11295:B1 *170:63 5.49544e-05
74 *11298:B1 *11298:A2 2.95746e-06
75 *11310:B1 *11313:A2 3.74464e-06
76 *11313:B1 *11313:A2 0.000354051
77 *11313:B1 *170:127 2.06178e-05
78 *11322:B1 *11313:A2 1.28809e-05
79 *11322:C1 *11313:A2 0.000135887
80 *11322:C1 *11316:A2 1.66955e-05
81 *117:102 *170:16 8.28647e-05
82 *117:102 *170:63 0.000464902
83 *117:102 *170:76 0.000327494
84 *117:102 *170:89 0.000347924
85 *117:102 *170:102 0.00029773
86 *117:102 *170:106 6.48131e-05
87 *117:131 *11307:A2 9.60337e-06
88 *118:61 *170:63 0.000229181
89 *118:81 *11307:A2 2.06178e-05
90 *118:104 *11316:A2 1.3807e-05
91 *122:89 *170:16 0.000129118
92 *165:22 *11289:A2 1.74352e-05
93 *165:111 *11298:A2 2.06178e-05
94 *165:111 *170:76 0.000141343
*RES
1 *11285:X *170:16 22.5679 
2 *170:16 *170:18 2.5625 
3 *170:18 *11289:A2 30.6839 
4 *170:18 *11292:A2 10.5411 
5 *170:16 *170:48 16 
6 *170:48 *11295:A2 9.3 
7 *170:48 *170:63 17.971 
8 *170:63 *11298:A2 17.4868 
9 *170:63 *170:76 1.5604 
10 *170:76 *11301:A2 17.4868 
11 *170:76 *170:89 1.63247 
12 *170:89 *11304:A2 17.4868 
13 *170:89 *170:102 1.41627 
14 *170:102 *170:106 1.786 
15 *170:106 *11316:A2 18.7279 
16 *170:106 *170:127 9.7931 
17 *170:127 *11310:A2 9.3 
18 *170:127 *11313:A2 23.3 
19 *170:102 *11307:A2 17.4868 
*END

*D_NET *171 0.0714129
*CONN
*I *833:DIODE I *D sky130_fd_sc_hd__diode_2
*I *933:DIODE I *D sky130_fd_sc_hd__diode_2
*I *900:DIODE I *D sky130_fd_sc_hd__diode_2
*I *878:DIODE I *D sky130_fd_sc_hd__diode_2
*I *855:DIODE I *D sky130_fd_sc_hd__diode_2
*I *11287:A0 I *D sky130_fd_sc_hd__mux2_1
*I *844:DIODE I *D sky130_fd_sc_hd__diode_2
*I *867:DIODE I *D sky130_fd_sc_hd__diode_2
*I *889:DIODE I *D sky130_fd_sc_hd__diode_2
*I *911:DIODE I *D sky130_fd_sc_hd__diode_2
*I *922:DIODE I *D sky130_fd_sc_hd__diode_2
*I *811:DIODE I *D sky130_fd_sc_hd__diode_2
*I *789:DIODE I *D sky130_fd_sc_hd__diode_2
*I *778:DIODE I *D sky130_fd_sc_hd__diode_2
*I *756:DIODE I *D sky130_fd_sc_hd__diode_2
*I *767:DIODE I *D sky130_fd_sc_hd__diode_2
*I *800:DIODE I *D sky130_fd_sc_hd__diode_2
*I *822:DIODE I *D sky130_fd_sc_hd__diode_2
*I *11286:X O *D sky130_fd_sc_hd__mux2_4
*CAP
1 *833:DIODE 0
2 *933:DIODE 0.000383355
3 *900:DIODE 0
4 *878:DIODE 0
5 *855:DIODE 0
6 *11287:A0 0
7 *844:DIODE 0
8 *867:DIODE 0
9 *889:DIODE 0
10 *911:DIODE 0
11 *922:DIODE 0
12 *811:DIODE 0
13 *789:DIODE 0
14 *778:DIODE 0
15 *756:DIODE 0
16 *767:DIODE 0
17 *800:DIODE 0
18 *822:DIODE 0.000115066
19 *11286:X 4.1832e-05
20 *171:137 0.000464267
21 *171:130 0.000172609
22 *171:123 0.00036338
23 *171:116 0.000388307
24 *171:107 0.000146527
25 *171:100 8.65487e-05
26 *171:93 0.000147977
27 *171:86 0.000133171
28 *171:79 0.00124928
29 *171:69 0.0277064
30 *171:67 0.0270335
31 *171:57 0.000647297
32 *171:50 0.000225432
33 *171:43 0.000237925
34 *171:36 0.000698992
35 *171:12 0.000302928
36 *171:10 0.000303922
37 *171:8 0.000215399
38 *171:6 0.000714912
39 *822:DIODE *292:37 0.000188586
40 *933:DIODE *11291:A1 0.000915438
41 *933:DIODE *174:83 0.000441271
42 *933:DIODE *174:90 0.000184246
43 *933:DIODE *174:97 0.000182592
44 *933:DIODE *174:104 0.000181374
45 *171:6 *292:37 4.64293e-05
46 *171:8 *292:37 0.00010629
47 *171:10 *292:37 0.000182868
48 *171:12 *292:37 0.000320024
49 *171:36 *292:37 2.99247e-05
50 *171:36 *292:39 0.000843855
51 *171:36 *330:25 0.000172674
52 *171:43 *292:39 0.000175892
53 *171:50 *292:39 0.000185124
54 *171:57 *292:39 0.000185118
55 *171:67 *11327:A 0.000186659
56 *171:67 *313:47 2.41253e-05
57 *171:67 *330:25 0.00164056
58 *171:69 *202:16 0
59 *171:69 *380:18 0
60 *171:69 *483:18 0
61 *171:79 *202:16 0
62 *171:79 *222:40 9.10592e-05
63 *171:79 *247:27 8.94123e-05
64 *171:79 *478:14 1.13786e-05
65 *171:86 *172:14 0.000184246
66 *171:86 *177:6 9.56233e-05
67 *171:93 *172:14 0.000382976
68 *171:93 *177:6 0.000209446
69 *171:100 *172:14 0.000165385
70 *171:100 *177:6 5.96516e-05
71 *171:107 *172:14 0.000171464
72 *171:116 *172:14 0.000128074
73 *3:35 *171:67 0.000639243
74 *168:33 *933:DIODE 0.000218808
75 *168:33 *171:123 0.000195393
76 *168:33 *171:130 9.7659e-05
77 *168:33 *171:137 0.000103895
78 *168:43 *171:100 5.52302e-05
79 *168:43 *171:107 0.000184798
80 *168:43 *171:116 0.000313441
81 *168:43 *171:123 4.35597e-05
*RES
1 *11286:X *171:6 10.0321 
2 *171:6 *171:8 1.35714 
3 *171:8 *171:10 1.76786 
4 *171:10 *171:12 3 
5 *171:12 *822:DIODE 11.0679 
6 *171:12 *800:DIODE 9.3 
7 *171:10 *767:DIODE 9.3 
8 *171:8 *756:DIODE 9.3 
9 *171:6 *171:36 8.75 
10 *171:36 *778:DIODE 9.3 
11 *171:36 *171:43 1.76786 
12 *171:43 *789:DIODE 9.3 
13 *171:43 *171:50 1.76786 
14 *171:50 *811:DIODE 9.3 
15 *171:50 *171:57 1.76786 
16 *171:57 *171:67 14.2022 
17 *171:67 *171:69 64.0735 
18 *171:69 *171:79 14.3922 
19 *171:79 *922:DIODE 9.3 
20 *171:79 *171:86 1.76786 
21 *171:86 *911:DIODE 9.3 
22 *171:86 *171:93 3.82143 
23 *171:93 *889:DIODE 9.3 
24 *171:93 *171:100 1.76786 
25 *171:100 *867:DIODE 9.3 
26 *171:100 *171:107 1.76786 
27 *171:107 *844:DIODE 9.3 
28 *171:107 *171:116 3.42857 
29 *171:116 *11287:A0 9.3 
30 *171:116 *171:123 4.64286 
31 *171:123 *855:DIODE 9.3 
32 *171:123 *171:130 1.76786 
33 *171:130 *878:DIODE 9.3 
34 *171:130 *171:137 1.76786 
35 *171:137 *900:DIODE 9.3 
36 *171:137 *933:DIODE 22.1571 
37 *171:57 *833:DIODE 9.3 
*END

*D_NET *172 0.0149296
*CONN
*I *11289:B2 I *D sky130_fd_sc_hd__o221a_2
*I *11287:X O *D sky130_fd_sc_hd__mux2_1
*CAP
1 *11289:B2 0
2 *11287:X 0.00175815
3 *172:34 0.00251941
4 *172:14 0.00427756
5 *172:14 *177:6 0.000300837
6 *172:14 *622:24 0.00109309
7 *172:34 *718:DIODE 9.25014e-06
8 *172:34 *173:12 4.1331e-06
9 *172:34 *217:32 0
10 *172:34 *219:34 1.99461e-05
11 *172:34 *220:30 0.000609591
12 *172:34 *338:28 0.000140483
13 *172:34 *371:44 0.000832913
14 *172:34 *584:56 0.00055613
15 *11289:A2 *172:34 1.02504e-05
16 *115:30 *172:34 5.51502e-05
17 *143:10 *172:34 0.000507519
18 *165:12 *172:34 0.000109428
19 *165:20 *172:34 0.000974466
20 *165:22 *172:34 0.000119114
21 *171:86 *172:14 0.000184246
22 *171:93 *172:14 0.000382976
23 *171:100 *172:14 0.000165385
24 *171:107 *172:14 0.000171464
25 *171:116 *172:14 0.000128074
*RES
1 *11287:X *172:14 43.2464 
2 *172:14 *172:34 41.2369 
3 *172:34 *11289:B2 9.3 
*END

*D_NET *173 0.0202781
*CONN
*I *11316:C1 I *D sky130_fd_sc_hd__o221a_2
*I *11313:C1 I *D sky130_fd_sc_hd__o221a_2
*I *11310:C1 I *D sky130_fd_sc_hd__o221a_2
*I *11307:C1 I *D sky130_fd_sc_hd__o221a_2
*I *11304:C1 I *D sky130_fd_sc_hd__o221a_2
*I *11301:C1 I *D sky130_fd_sc_hd__o221a_2
*I *11298:C1 I *D sky130_fd_sc_hd__o221a_2
*I *11295:C1 I *D sky130_fd_sc_hd__o221a_2
*I *11292:C1 I *D sky130_fd_sc_hd__o221a_2
*I *11289:C1 I *D sky130_fd_sc_hd__o221a_2
*I *11288:X O *D sky130_fd_sc_hd__buf_2
*CAP
1 *11316:C1 0
2 *11313:C1 0.000808145
3 *11310:C1 2.15003e-05
4 *11307:C1 0
5 *11304:C1 1.65328e-05
6 *11301:C1 6.04189e-05
7 *11298:C1 1.97279e-05
8 *11295:C1 8.01999e-05
9 *11292:C1 0.000174169
10 *11289:C1 0
11 *11288:X 0
12 *173:129 0.000928481
13 *173:125 0.000567108
14 *173:110 0.000885206
15 *173:97 0.000892262
16 *173:76 0.00068938
17 *173:63 0.000770341
18 *173:44 0.00131518
19 *173:12 0.000736616
20 *173:4 0.00121698
21 *11292:C1 *607:16 0.000785242
22 *11301:C1 *11301:B2 1.035e-05
23 *11313:C1 *11310:A1 5.52302e-05
24 *11313:C1 *11313:A1 0
25 *11313:C1 *11313:B2 4.1331e-06
26 *11313:C1 *11322:B2 3.47641e-06
27 *11313:C1 *11617:A 9.87983e-06
28 *11313:C1 *229:71 0.000354203
29 *11313:C1 *426:22 1.26512e-05
30 *11313:C1 *615:12 0.000141131
31 *173:63 *11295:B2 1.55638e-05
32 *173:63 *580:42 8.25843e-06
33 *173:63 *609:12 5.49489e-05
34 *173:76 *580:42 4.74387e-05
35 *173:76 *610:16 0.000623478
36 *173:97 *720:DIODE 0.000228558
37 *173:97 *11301:B2 2.40966e-05
38 *173:97 *11615:A 0
39 *173:97 *221:32 3.17148e-05
40 *173:97 *610:16 0.000219064
41 *173:110 *725:DIODE 9.90367e-05
42 *173:110 *11304:A1 5.52302e-05
43 *173:125 *11307:A1 6.09682e-05
44 *173:125 *11307:B2 5.15162e-05
45 *173:125 *11310:A1 0.000137983
46 *173:125 *224:48 0.000175892
47 *173:125 *614:16 5.33005e-05
48 *11289:A2 *11292:C1 7.31455e-05
49 *11289:A2 *173:12 0
50 *11292:A2 *11292:C1 4.22448e-07
51 *11292:B1 *11292:C1 5.80335e-06
52 *11295:B1 *173:63 3.12256e-05
53 *11298:B1 *11298:C1 5.54856e-05
54 *11298:B1 *173:76 1.93512e-05
55 *11301:A2 *173:97 2.06178e-05
56 *11304:B1 *11304:C1 5.43052e-06
57 *11307:B1 *173:125 1.27498e-05
58 *11310:B1 *11310:C1 1.00733e-05
59 *11310:B1 *11313:C1 4.96587e-05
60 *11313:A2 *11313:C1 5.67115e-05
61 *11313:B1 *11313:C1 7.03393e-05
62 *11316:A2 *173:129 3.33238e-05
63 *11316:B1 *173:129 5.4754e-05
64 *11322:B1 *11313:C1 6.90249e-05
65 *11322:C1 *11313:C1 0.000183157
66 *11322:C1 *173:125 0.000643332
67 *11322:C1 *173:129 0.000116647
68 *117:71 *173:12 0.000531454
69 *117:71 *173:44 0.000278011
70 *117:102 *11295:C1 9.41642e-05
71 *117:102 *11298:C1 5.54856e-05
72 *117:102 *173:44 4.33174e-05
73 *117:102 *173:63 6.3963e-05
74 *118:57 *173:12 0
75 *122:89 *173:44 0.000399375
76 *165:22 *11292:C1 0.000911858
77 *165:84 *173:63 0.000700639
78 *165:84 *173:76 4.18895e-05
79 *165:111 *173:76 0.000891439
80 *165:111 *173:97 7.93965e-05
81 *165:130 *173:97 0.000359357
82 *165:130 *173:110 4.70713e-05
83 *165:134 *173:110 0.000319703
84 *165:134 *173:125 1.73462e-05
85 *165:147 *11313:C1 4.18895e-05
86 *165:147 *173:125 8.59937e-05
87 *165:147 *173:129 0.000401764
88 *170:63 *173:63 0.00081168
89 *170:76 *173:76 0.000141343
90 *172:34 *173:12 4.1331e-06
*RES
1 *11288:X *173:4 9.3 
2 *173:4 *173:12 17.2143 
3 *173:12 *11289:C1 9.3 
4 *173:12 *11292:C1 18.9786 
5 *173:4 *173:44 10.5357 
6 *173:44 *11295:C1 10.9786 
7 *173:44 *173:63 14.375 
8 *173:63 *11298:C1 19.0321 
9 *173:63 *173:76 8.75 
10 *173:76 *11301:C1 19.0321 
11 *173:76 *173:97 19.3214 
12 *173:97 *11304:C1 9.72857 
13 *173:97 *173:110 8.48214 
14 *173:110 *11307:C1 9.3 
15 *173:110 *173:125 10.875 
16 *173:125 *173:129 4.25 
17 *173:129 *11310:C1 9.72857 
18 *173:129 *11313:C1 31.9642 
19 *173:125 *11316:C1 9.3 
*END

*D_NET *174 0.07184
*CONN
*I *1022:DIODE I *D sky130_fd_sc_hd__diode_2
*I *11291:A0 I *D sky130_fd_sc_hd__mux2_1
*I *1089:DIODE I *D sky130_fd_sc_hd__diode_2
*I *1077:DIODE I *D sky130_fd_sc_hd__diode_2
*I *1066:DIODE I *D sky130_fd_sc_hd__diode_2
*I *1111:DIODE I *D sky130_fd_sc_hd__diode_2
*I *1100:DIODE I *D sky130_fd_sc_hd__diode_2
*I *1055:DIODE I *D sky130_fd_sc_hd__diode_2
*I *1044:DIODE I *D sky130_fd_sc_hd__diode_2
*I *1033:DIODE I *D sky130_fd_sc_hd__diode_2
*I *1000:DIODE I *D sky130_fd_sc_hd__diode_2
*I *978:DIODE I *D sky130_fd_sc_hd__diode_2
*I *966:DIODE I *D sky130_fd_sc_hd__diode_2
*I *955:DIODE I *D sky130_fd_sc_hd__diode_2
*I *944:DIODE I *D sky130_fd_sc_hd__diode_2
*I *989:DIODE I *D sky130_fd_sc_hd__diode_2
*I *1011:DIODE I *D sky130_fd_sc_hd__diode_2
*I *11290:X O *D sky130_fd_sc_hd__mux2_4
*CAP
1 *1022:DIODE 0
2 *11291:A0 0
3 *1089:DIODE 0.000477474
4 *1077:DIODE 7.86506e-05
5 *1066:DIODE 0
6 *1111:DIODE 0
7 *1100:DIODE 9.47325e-05
8 *1055:DIODE 0
9 *1044:DIODE 0
10 *1033:DIODE 0
11 *1000:DIODE 0
12 *978:DIODE 0
13 *966:DIODE 0
14 *955:DIODE 0
15 *944:DIODE 0
16 *989:DIODE 0
17 *1011:DIODE 0.000122876
18 *11290:X 3.58312e-05
19 *174:126 7.86506e-05
20 *174:112 0.000246756
21 *174:108 0.000351588
22 *174:104 0.00112666
23 *174:97 0.000569774
24 *174:90 0.000236563
25 *174:83 0.000433442
26 *174:77 0.00207616
27 *174:69 0.0169577
28 *174:67 0.0163586
29 *174:57 0.0012809
30 *174:50 0.000234749
31 *174:43 0.000226065
32 *174:36 0.000224412
33 *174:29 0.000546792
34 *174:10 0.000452147
35 *174:8 0.000432161
36 *174:6 0.000573307
37 *1011:DIODE *11290:A1 7.50473e-05
38 *1077:DIODE *559:12 0.000142856
39 *1089:DIODE *11294:A1 0.000746546
40 *1100:DIODE *191:32 8.07313e-05
41 *174:6 *11290:A1 1.02132e-05
42 *174:8 *11290:A1 4.63768e-05
43 *174:10 *11290:A1 0.000154958
44 *174:29 *11290:A0 0.00017796
45 *174:29 *11290:A1 0.000161356
46 *174:36 *11290:A0 0.000105163
47 *174:43 *11290:A0 0.000105163
48 *174:50 *11290:A0 0.00010363
49 *174:57 *1016:DIODE 5.33005e-05
50 *174:57 *11290:A0 7.17136e-05
51 *174:67 *1016:DIODE 0.000196754
52 *174:67 *11293:A0 0.000181932
53 *174:67 *11296:A0 0.000101825
54 *174:67 *313:47 0.000539777
55 *174:67 *314:29 0.00238712
56 *174:69 *372:18 0.00880795
57 *174:69 *376:18 0
58 *174:69 *474:26 0.00161703
59 *174:69 *474:46 4.53109e-06
60 *174:69 *476:26 0.00223828
61 *174:69 *476:30 0.00885603
62 *174:77 *887:DIODE 1.26352e-05
63 *174:77 *11310:B2 3.25745e-05
64 *174:77 *369:18 2.07592e-05
65 *174:77 *472:14 2.07552e-05
66 *174:77 *474:26 4.01196e-05
67 *174:77 *476:26 6.80006e-05
68 *174:83 *887:DIODE 1.88048e-05
69 *174:83 *11310:B2 5.7616e-05
70 *174:104 *11291:A1 0.000116855
71 *174:104 *11294:A0 2.14757e-05
72 *174:104 *11294:A1 0.000186662
73 *174:108 *11313:B2 0
74 *174:108 *11505:A 5.5782e-05
75 *174:108 *461:14 0
76 *174:112 *11313:B2 0
77 *933:DIODE *174:83 0.000441271
78 *933:DIODE *174:90 0.000184246
79 *933:DIODE *174:97 0.000182592
80 *933:DIODE *174:104 0.000181374
81 *113:36 *174:29 7.92229e-06
82 *168:31 *174:104 8.43535e-06
*RES
1 *11290:X *174:6 10.0321 
2 *174:6 *174:8 1.35714 
3 *174:8 *174:10 4.23214 
4 *174:10 *1011:DIODE 11.0679 
5 *174:10 *989:DIODE 9.3 
6 *174:8 *944:DIODE 9.3 
7 *174:6 *174:29 6.28571 
8 *174:29 *955:DIODE 9.3 
9 *174:29 *174:36 1.76786 
10 *174:36 *966:DIODE 9.3 
11 *174:36 *174:43 1.76786 
12 *174:43 *978:DIODE 9.3 
13 *174:43 *174:50 1.76786 
14 *174:50 *1000:DIODE 9.3 
15 *174:50 *174:57 1.76786 
16 *174:57 *174:67 15.7156 
17 *174:67 *174:69 65.0323 
18 *174:69 *174:77 10.0057 
19 *174:77 *174:83 9.46429 
20 *174:83 *1033:DIODE 9.3 
21 *174:83 *174:90 1.76786 
22 *174:90 *1044:DIODE 9.3 
23 *174:90 *174:97 1.76786 
24 *174:97 *1055:DIODE 9.3 
25 *174:97 *174:104 6.28571 
26 *174:104 *174:108 8.26786 
27 *174:108 *174:112 6.75 
28 *174:112 *1100:DIODE 10.6571 
29 *174:112 *1111:DIODE 9.3 
30 *174:108 *174:126 4.5 
31 *174:126 *1066:DIODE 9.3 
32 *174:126 *1077:DIODE 11.0679 
33 *174:104 *1089:DIODE 16.4071 
34 *174:77 *11291:A0 13.8 
35 *174:57 *1022:DIODE 9.3 
*END

*D_NET *175 0.0104522
*CONN
*I *11292:B2 I *D sky130_fd_sc_hd__o221a_2
*I *11291:X O *D sky130_fd_sc_hd__mux2_1
*CAP
1 *11292:B2 0.000882361
2 *11291:X 0.000175687
3 *175:12 0.00295652
4 *175:10 0.00224984
5 *11292:B2 *11292:A1 8.08476e-06
6 *11292:B2 *218:32 0
7 *175:10 *11310:B2 3.47468e-05
8 *175:10 *226:34 0.000109382
9 *175:10 *504:12 0.00011595
10 *175:12 *193:12 0.000483104
11 *175:12 *223:28 0.00136533
12 *175:12 *225:30 6.37797e-06
13 *175:12 *228:26 5.75604e-05
14 *175:12 *602:14 0.00182942
15 *175:12 *611:12 0.000174401
16 *165:20 *11292:B2 3.47641e-06
*RES
1 *11291:X *175:10 22.675 
2 *175:10 *175:12 56.3929 
3 *175:12 *11292:B2 31.4786 
*END

*D_NET *176 0.0625734
*CONN
*I *1177:DIODE I *D sky130_fd_sc_hd__diode_2
*I *1210:DIODE I *D sky130_fd_sc_hd__diode_2
*I *1211:DIODE I *D sky130_fd_sc_hd__diode_2
*I *1209:DIODE I *D sky130_fd_sc_hd__diode_2
*I *1208:DIODE I *D sky130_fd_sc_hd__diode_2
*I *1212:DIODE I *D sky130_fd_sc_hd__diode_2
*I *1207:DIODE I *D sky130_fd_sc_hd__diode_2
*I *1206:DIODE I *D sky130_fd_sc_hd__diode_2
*I *1205:DIODE I *D sky130_fd_sc_hd__diode_2
*I *11294:A0 I *D sky130_fd_sc_hd__mux2_1
*I *1155:DIODE I *D sky130_fd_sc_hd__diode_2
*I *1133:DIODE I *D sky130_fd_sc_hd__diode_2
*I *1122:DIODE I *D sky130_fd_sc_hd__diode_2
*I *1144:DIODE I *D sky130_fd_sc_hd__diode_2
*I *1166:DIODE I *D sky130_fd_sc_hd__diode_2
*I *1188:DIODE I *D sky130_fd_sc_hd__diode_2
*I *1200:DIODE I *D sky130_fd_sc_hd__diode_2
*I *11293:X O *D sky130_fd_sc_hd__mux2_4
*CAP
1 *1177:DIODE 0
2 *1210:DIODE 0
3 *1211:DIODE 0.000289383
4 *1209:DIODE 0
5 *1208:DIODE 0.000233493
6 *1212:DIODE 0
7 *1207:DIODE 0
8 *1206:DIODE 0
9 *1205:DIODE 0
10 *11294:A0 5.67502e-05
11 *1155:DIODE 0
12 *1133:DIODE 0
13 *1122:DIODE 0
14 *1144:DIODE 0
15 *1166:DIODE 0
16 *1188:DIODE 0
17 *1200:DIODE 3.17535e-05
18 *11293:X 0
19 *176:164 0.00173455
20 *176:141 0.000517349
21 *176:135 0.000380386
22 *176:133 0.00175333
23 *176:122 0.000333563
24 *176:115 0.000242676
25 *176:108 0.000367919
26 *176:93 0.000382642
27 *176:85 0.0168548
28 *176:83 0.0180253
29 *176:75 0.00149255
30 *176:64 0.000267583
31 *176:57 5.00467e-05
32 *176:50 0.000279305
33 *176:10 5.30744e-05
34 *176:8 4.91616e-05
35 *176:6 8.15053e-05
36 *176:4 0.000307182
37 *1200:DIODE *284:31 0.000184246
38 *1200:DIODE *306:38 0.000184246
39 *1208:DIODE *191:32 0.000195455
40 *1211:DIODE *897:DIODE 7.83659e-05
41 *1211:DIODE *252:31 0.000303368
42 *11294:A0 *11294:A1 5.71472e-05
43 *11294:A0 *11313:B2 4.25523e-05
44 *11294:A0 *179:14 3.85569e-05
45 *176:6 *284:31 0.00040765
46 *176:8 *284:31 0.000188586
47 *176:8 *306:38 4.18895e-05
48 *176:10 *284:31 0.000187888
49 *176:10 *306:38 0.000174682
50 *176:50 *11293:A0 2.16015e-05
51 *176:50 *11293:A1 1.03105e-05
52 *176:50 *284:31 0.000191869
53 *176:50 *284:45 0.000280937
54 *176:57 *284:45 0.000187888
55 *176:64 *284:45 0.000188586
56 *176:75 *1016:DIODE 0
57 *176:75 *284:45 0.000186662
58 *176:83 *312:23 0.00122151
59 *176:83 *330:25 0.00463007
60 *176:85 *11313:B2 0.000110498
61 *176:85 *461:18 0.00178485
62 *176:85 *463:18 0.0056429
63 *176:93 *11313:B2 6.37883e-06
64 *176:93 *179:14 7.69776e-06
65 *176:93 *249:29 4.58615e-05
66 *176:133 *894:DIODE 3.0285e-05
67 *176:133 *251:43 3.06406e-05
68 *176:133 *461:14 0
69 *176:135 *894:DIODE 1.78353e-05
70 *176:135 *11434:A 0.000154762
71 *176:141 *11434:A 0.000193532
72 *176:141 *191:32 0.000120519
73 *176:164 *11434:A 7.3237e-05
74 *11293:S *176:50 0
75 *166:10 *176:75 3.17148e-05
76 *166:16 *176:50 0.000285637
77 *166:16 *176:57 9.66945e-05
78 *166:16 *176:64 9.77274e-05
79 *166:16 *176:75 0.000111393
80 *166:20 *176:6 0.000219887
81 *166:20 *176:8 7.17235e-05
82 *166:20 *176:50 9.61939e-05
83 *168:29 *176:108 0.000172387
84 *168:29 *176:115 9.56917e-05
85 *168:29 *176:122 9.46571e-05
86 *168:29 *176:133 4.48647e-05
87 *168:31 *11294:A0 9.71197e-05
88 *168:31 *176:108 2.89114e-05
89 *174:104 *11294:A0 2.14757e-05
*RES
1 *11293:X *176:4 9.3 
2 *176:4 *176:6 3.82143 
3 *176:6 *176:8 1.76786 
4 *176:8 *176:10 1.76786 
5 *176:10 *1200:DIODE 11.0679 
6 *176:10 *1188:DIODE 9.3 
7 *176:8 *1166:DIODE 9.3 
8 *176:6 *1144:DIODE 9.3 
9 *176:4 *176:50 16.6429 
10 *176:50 *1122:DIODE 9.3 
11 *176:50 *176:57 1.76786 
12 *176:57 *1133:DIODE 9.3 
13 *176:57 *176:64 1.76786 
14 *176:64 *1155:DIODE 9.3 
15 *176:64 *176:75 9.42857 
16 *176:75 *176:83 15.6008 
17 *176:83 *176:85 63.8605 
18 *176:85 *176:93 7.25189 
19 *176:93 *11294:A0 15.7821 
20 *176:93 *176:108 7.91071 
21 *176:108 *1205:DIODE 9.3 
22 *176:108 *176:115 1.76786 
23 *176:115 *1206:DIODE 9.3 
24 *176:115 *176:122 1.76786 
25 *176:122 *1207:DIODE 9.3 
26 *176:122 *176:133 8 
27 *176:133 *176:135 2.55357 
28 *176:135 *176:141 9.23214 
29 *176:141 *1212:DIODE 9.3 
30 *176:141 *1208:DIODE 12.7107 
31 *176:135 *1209:DIODE 13.8 
32 *176:133 *176:164 20.6429 
33 *176:164 *1211:DIODE 22.3357 
34 *176:164 *1210:DIODE 9.3 
35 *176:75 *1177:DIODE 13.8 
*END

*D_NET *177 0.0136448
*CONN
*I *11295:B2 I *D sky130_fd_sc_hd__o221a_2
*I *11294:X O *D sky130_fd_sc_hd__mux2_1
*CAP
1 *11295:B2 0.000889876
2 *11294:X 0
3 *177:6 0.00379316
4 *177:4 0.00290328
5 *11295:B2 *219:34 0.00051142
6 *11295:B2 *394:16 0.000135373
7 *177:6 *11287:A1 0.000950588
8 *177:6 *249:42 0.000339599
9 *177:6 *622:24 0.000500184
10 *11295:B1 *11295:B2 2.78014e-05
11 *168:31 *177:6 0.000958682
12 *168:33 *177:6 0.0012036
13 *168:43 *177:6 0.000610639
14 *170:48 *11295:B2 0.000139515
15 *171:86 *177:6 9.56233e-05
16 *171:93 *177:6 0.000209446
17 *171:100 *177:6 5.96516e-05
18 *172:14 *177:6 0.000300837
19 *173:63 *11295:B2 1.55638e-05
*RES
1 *11294:X *177:4 9.3 
2 *177:4 *177:6 60.5 
3 *177:6 *11295:B2 31.983 
*END

*D_NET *178 0.0650344
*CONN
*I *1221:DIODE I *D sky130_fd_sc_hd__diode_2
*I *1218:DIODE I *D sky130_fd_sc_hd__diode_2
*I *1220:DIODE I *D sky130_fd_sc_hd__diode_2
*I *1217:DIODE I *D sky130_fd_sc_hd__diode_2
*I *1219:DIODE I *D sky130_fd_sc_hd__diode_2
*I *1222:DIODE I *D sky130_fd_sc_hd__diode_2
*I *1226:DIODE I *D sky130_fd_sc_hd__diode_2
*I *1228:DIODE I *D sky130_fd_sc_hd__diode_2
*I *1230:DIODE I *D sky130_fd_sc_hd__diode_2
*I *1229:DIODE I *D sky130_fd_sc_hd__diode_2
*I *1232:DIODE I *D sky130_fd_sc_hd__diode_2
*I *1231:DIODE I *D sky130_fd_sc_hd__diode_2
*I *1227:DIODE I *D sky130_fd_sc_hd__diode_2
*I *1224:DIODE I *D sky130_fd_sc_hd__diode_2
*I *1223:DIODE I *D sky130_fd_sc_hd__diode_2
*I *11297:A0 I *D sky130_fd_sc_hd__mux2_1
*I *1216:DIODE I *D sky130_fd_sc_hd__diode_2
*I *1215:DIODE I *D sky130_fd_sc_hd__diode_2
*I *1213:DIODE I *D sky130_fd_sc_hd__diode_2
*I *11296:X O *D sky130_fd_sc_hd__mux2_4
*CAP
1 *1221:DIODE 0.000315722
2 *1218:DIODE 0
3 *1220:DIODE 0.000346076
4 *1217:DIODE 0
5 *1219:DIODE 0
6 *1222:DIODE 0.000116354
7 *1226:DIODE 0
8 *1228:DIODE 0
9 *1230:DIODE 0.000121704
10 *1229:DIODE 0
11 *1232:DIODE 2.53678e-05
12 *1231:DIODE 0
13 *1227:DIODE 0
14 *1224:DIODE 0
15 *1223:DIODE 0
16 *11297:A0 0
17 *1216:DIODE 0
18 *1215:DIODE 0
19 *1213:DIODE 0
20 *11296:X 9.46739e-05
21 *178:160 0.000346076
22 *178:158 0.000490732
23 *178:139 0.000334398
24 *178:137 0.000218044
25 *178:113 0.000260827
26 *178:97 0.000202669
27 *178:91 0.000624269
28 *178:87 0.000393497
29 *178:80 0.000276192
30 *178:76 0.00022099
31 *178:69 6.44384e-05
32 *178:62 0.000131032
33 *178:55 0.00261943
34 *178:45 0.0185992
35 *178:43 0.0164833
36 *178:35 0.00057237
37 *178:33 0.000641632
38 *178:24 0.000443158
39 *178:17 0.000323909
40 *178:6 0.000276225
41 *1221:DIODE *11296:A0 0
42 *1221:DIODE *285:30 0
43 *1222:DIODE *292:39 0.000187741
44 *1232:DIODE *614:18 0.000186662
45 *178:6 *1017:DIODE 0.000441674
46 *178:17 *1017:DIODE 0.000118416
47 *178:24 *1017:DIODE 3.69047e-06
48 *178:35 *306:30 2.61711e-05
49 *178:43 *292:39 0.000125261
50 *178:43 *313:47 0.000204584
51 *178:43 *330:25 0.00100927
52 *178:45 *369:18 0.00751716
53 *178:45 *467:18 0.00170798
54 *178:45 *472:18 0.0025001
55 *178:55 *187:42 0.000434584
56 *178:55 *189:14 0.000254433
57 *178:55 *195:14 0.00027436
58 *178:55 *229:42 0.000145564
59 *178:55 *247:23 0.000382583
60 *178:55 *251:43 0
61 *178:55 *389:18 0.000228516
62 *178:62 *11297:A1 0.000395188
63 *178:62 *251:43 0.000264743
64 *178:69 *11297:A1 0.000170438
65 *178:69 *251:43 0.000182875
66 *178:76 *11297:A1 0.00013074
67 *178:76 *251:43 0.000187464
68 *178:80 *11297:A1 0.000186765
69 *178:80 *251:43 1.10868e-05
70 *178:87 *11297:A1 0.000142575
71 *178:91 *181:12 0
72 *178:91 *387:18 0
73 *178:97 *897:DIODE 0
74 *178:97 *614:18 0.000142856
75 *178:113 *191:12 2.14757e-05
76 *178:139 *292:39 0.000361492
77 *178:158 *11299:A1 0
78 *178:158 *306:30 7.35585e-06
79 *115:37 *1232:DIODE 0.000173328
80 *115:37 *178:97 0.000144773
81 *166:87 *178:6 0.000359947
82 *166:87 *178:17 8.49019e-06
83 *166:87 *178:24 0.000195804
84 *166:87 *178:33 0.000319326
85 *166:102 *178:33 0.000172906
86 *168:12 *1230:DIODE 0.000204318
87 *168:12 *178:91 0.000190593
88 *168:12 *178:97 3.34295e-05
89 *168:12 *178:113 0.000269428
90 *168:27 *178:62 1.64621e-05
91 *168:27 *178:91 0.000307337
92 *168:29 *178:62 0.000142157
*RES
1 *11296:X *178:6 13.5321 
2 *178:6 *1213:DIODE 9.3 
3 *178:6 *178:17 2.625 
4 *178:17 *1215:DIODE 9.3 
5 *178:17 *178:24 2.17857 
6 *178:24 *1216:DIODE 9.3 
7 *178:24 *178:33 9.14286 
8 *178:33 *178:35 2.55357 
9 *178:35 *178:43 8.69322 
10 *178:43 *178:45 62.5821 
11 *178:45 *178:55 25.3425 
12 *178:55 *11297:A0 9.3 
13 *178:55 *178:62 4.23214 
14 *178:62 *1223:DIODE 9.3 
15 *178:62 *178:69 1.76786 
16 *178:69 *1224:DIODE 9.3 
17 *178:69 *178:76 1.76786 
18 *178:76 *178:80 2.91071 
19 *178:80 *1227:DIODE 9.3 
20 *178:80 *178:87 1.35714 
21 *178:87 *178:91 11 
22 *178:91 *178:97 8.41071 
23 *178:97 *1231:DIODE 9.3 
24 *178:97 *1232:DIODE 11.0679 
25 *178:91 *178:113 7.5 
26 *178:113 *1229:DIODE 9.3 
27 *178:113 *1230:DIODE 11.4786 
28 *178:87 *1228:DIODE 9.3 
29 *178:76 *1226:DIODE 9.3 
30 *178:35 *178:137 4.5 
31 *178:137 *178:139 3.41071 
32 *178:139 *1222:DIODE 11.0679 
33 *178:139 *1219:DIODE 9.3 
34 *178:137 *1217:DIODE 9.3 
35 *178:33 *178:158 2.55357 
36 *178:158 *178:160 4.5 
37 *178:160 *1220:DIODE 13.1214 
38 *178:160 *1218:DIODE 9.3 
39 *178:158 *1221:DIODE 18.1214 
*END

*D_NET *179 0.016865
*CONN
*I *11298:B2 I *D sky130_fd_sc_hd__o221a_2
*I *11297:X O *D sky130_fd_sc_hd__mux2_1
*CAP
1 *11298:B2 0.00083899
2 *11297:X 0.000294354
3 *179:16 0.00445148
4 *179:14 0.00390684
5 *11298:B2 *11298:A1 7.68852e-05
6 *11298:B2 *11614:A 0
7 *11298:B2 *385:16 0.000135127
8 *11298:B2 *485:14 0.000125724
9 *179:14 *11294:A1 0.000836684
10 *179:16 *225:30 0.00496836
11 *179:16 *504:14 0.000252827
12 *11294:A0 *179:14 3.85569e-05
13 *11298:A2 *11298:B2 9.54798e-06
14 *11298:B1 *11298:B2 1.55475e-05
15 *117:102 *11298:B2 0
16 *167:121 *11298:B2 2.88045e-05
17 *168:29 *179:14 0.000877561
18 *176:93 *179:14 7.69776e-06
*RES
1 *11297:X *179:14 29.3179 
2 *179:14 *179:16 51.875 
3 *179:16 *11298:B2 32.3893 
*END

*D_NET *180 0.057715
*CONN
*I *1242:DIODE I *D sky130_fd_sc_hd__diode_2
*I *1241:DIODE I *D sky130_fd_sc_hd__diode_2
*I *1240:DIODE I *D sky130_fd_sc_hd__diode_2
*I *648:DIODE I *D sky130_fd_sc_hd__diode_2
*I *649:DIODE I *D sky130_fd_sc_hd__diode_2
*I *647:DIODE I *D sky130_fd_sc_hd__diode_2
*I *646:DIODE I *D sky130_fd_sc_hd__diode_2
*I *1246:DIODE I *D sky130_fd_sc_hd__diode_2
*I *1244:DIODE I *D sky130_fd_sc_hd__diode_2
*I *11300:A0 I *D sky130_fd_sc_hd__mux2_1
*I *1243:DIODE I *D sky130_fd_sc_hd__diode_2
*I *1245:DIODE I *D sky130_fd_sc_hd__diode_2
*I *650:DIODE I *D sky130_fd_sc_hd__diode_2
*I *1239:DIODE I *D sky130_fd_sc_hd__diode_2
*I *1238:DIODE I *D sky130_fd_sc_hd__diode_2
*I *1237:DIODE I *D sky130_fd_sc_hd__diode_2
*I *1235:DIODE I *D sky130_fd_sc_hd__diode_2
*I *1234:DIODE I *D sky130_fd_sc_hd__diode_2
*I *1233:DIODE I *D sky130_fd_sc_hd__diode_2
*I *11299:X O *D sky130_fd_sc_hd__mux2_4
*CAP
1 *1242:DIODE 0.000121118
2 *1241:DIODE 0
3 *1240:DIODE 0
4 *648:DIODE 0
5 *649:DIODE 0.000109834
6 *647:DIODE 0
7 *646:DIODE 0
8 *1246:DIODE 0
9 *1244:DIODE 0
10 *11300:A0 0
11 *1243:DIODE 0
12 *1245:DIODE 0
13 *650:DIODE 0.000136045
14 *1239:DIODE 0
15 *1238:DIODE 0
16 *1237:DIODE 0
17 *1235:DIODE 0
18 *1234:DIODE 0
19 *1233:DIODE 0
20 *11299:X 3.54737e-05
21 *180:163 0.000239301
22 *180:135 0.00025475
23 *180:128 0.000302483
24 *180:121 0.000322465
25 *180:114 0.000458296
26 *180:107 0.000663734
27 *180:88 0.000510205
28 *180:81 0.000436383
29 *180:72 0.000505968
30 *180:62 0.0185548
31 *180:60 0.0194168
32 *180:52 0.00114601
33 *180:50 0.000403097
34 *180:41 9.44045e-05
35 *180:34 4.00774e-05
36 *180:27 4.00774e-05
37 *180:20 4.41453e-05
38 *180:13 7.80738e-05
39 *180:6 8.9441e-05
40 *649:DIODE *253:33 1.2081e-05
41 *650:DIODE *901:DIODE 4.42966e-05
42 *180:6 *11299:A0 0.000185118
43 *180:6 *306:22 9.66977e-05
44 *180:13 *11299:A0 0.000175892
45 *180:13 *306:22 0.000163455
46 *180:20 *11299:A0 0.000186669
47 *180:20 *306:22 0.000174232
48 *180:27 *11299:A0 0.000188586
49 *180:27 *306:22 0.000175251
50 *180:34 *11299:A0 0.000188586
51 *180:34 *306:22 0.000175251
52 *180:41 *11299:A0 0.000188586
53 *180:41 *306:22 0.000175251
54 *180:50 *1019:DIODE 2.28598e-05
55 *180:50 *11299:A0 5.71472e-05
56 *180:50 *285:43 2.14658e-05
57 *180:50 *306:22 0.000258011
58 *180:52 *1021:DIODE 0
59 *180:60 *292:39 0.000552078
60 *180:60 *313:47 0.000529344
61 *180:60 *330:25 0.00251695
62 *180:62 *383:18 0.00133445
63 *180:62 *383:28 0.000310859
64 *180:62 *387:18 8.6992e-05
65 *180:62 *387:28 0.000276285
66 *180:62 *389:18 0.00494903
67 *180:72 *894:DIODE 0
68 *180:81 *901:DIODE 7.21829e-05
69 *180:88 *901:DIODE 3.91492e-05
70 *180:107 *901:DIODE 0.000180108
71 *180:107 *181:12 4.6025e-06
72 *180:107 *253:33 1.10639e-05
73 *180:114 *901:DIODE 1.93007e-05
74 *180:114 *253:33 2.44168e-05
75 *180:121 *253:33 1.36882e-05
76 *180:128 *253:33 1.44198e-05
77 *180:135 *253:33 1.58782e-05
78 *180:163 *1021:DIODE 0
79 *180:163 *11299:A0 0
80 *180:163 *317:31 0
81 *11302:S *180:52 0
82 *113:59 *180:60 0.000219759
83 *166:102 *180:6 5.20187e-05
84 *166:114 *180:52 0
*RES
1 *11299:X *180:6 11.0679 
2 *180:6 *1233:DIODE 9.3 
3 *180:6 *180:13 1.76786 
4 *180:13 *1234:DIODE 9.3 
5 *180:13 *180:20 1.76786 
6 *180:20 *1235:DIODE 9.3 
7 *180:20 *180:27 1.76786 
8 *180:27 *1237:DIODE 9.3 
9 *180:27 *180:34 1.76786 
10 *180:34 *1238:DIODE 9.3 
11 *180:34 *180:41 1.76786 
12 *180:41 *1239:DIODE 9.3 
13 *180:41 *180:50 7.08929 
14 *180:50 *180:52 3.16071 
15 *180:52 *180:60 11.0714 
16 *180:60 *180:62 64.9258 
17 *180:62 *180:72 11.6798 
18 *180:72 *650:DIODE 11.0679 
19 *180:72 *180:81 3.41071 
20 *180:81 *1245:DIODE 9.3 
21 *180:81 *180:88 1.76786 
22 *180:88 *1243:DIODE 9.3 
23 *180:88 *180:107 14.4286 
24 *180:107 *11300:A0 9.3 
25 *180:107 *180:114 3.41071 
26 *180:114 *1244:DIODE 9.3 
27 *180:114 *180:121 1.76786 
28 *180:121 *1246:DIODE 9.3 
29 *180:121 *180:128 1.76786 
30 *180:128 *646:DIODE 9.3 
31 *180:128 *180:135 1.76786 
32 *180:135 *647:DIODE 9.3 
33 *180:135 *649:DIODE 10.6571 
34 *180:72 *648:DIODE 9.3 
35 *180:52 *1240:DIODE 13.8 
36 *180:50 *180:163 6.44643 
37 *180:163 *1241:DIODE 9.3 
38 *180:163 *1242:DIODE 10.6571 
*END

*D_NET *181 0.014973
*CONN
*I *11301:B2 I *D sky130_fd_sc_hd__o221a_2
*I *11300:X O *D sky130_fd_sc_hd__mux2_1
*CAP
1 *11301:B2 0.000166825
2 *11300:X 0.000877285
3 *181:22 0.00275159
4 *181:12 0.00346205
5 *11301:B2 *11417:A 2.74584e-05
6 *11301:B2 *202:16 2.61337e-05
7 *11301:B2 *221:32 5.56869e-05
8 *11301:B2 *584:64 5.33978e-05
9 *181:12 *894:DIODE 0.000276211
10 *181:12 *11432:A 0
11 *181:12 *191:32 0.00141821
12 *181:12 *426:22 0.00208555
13 *181:22 *226:51 0.00065191
14 *181:22 *229:46 9.9129e-05
15 *181:22 *371:44 0.00294839
16 *181:22 *612:20 9.11048e-06
17 *181:22 *614:16 1.54142e-05
18 *11301:A2 *11301:B2 9.54798e-06
19 *11301:C1 *11301:B2 1.035e-05
20 *173:97 *11301:B2 2.40966e-05
21 *178:91 *181:12 0
22 *180:107 *181:12 4.6025e-06
*RES
1 *11300:X *181:12 46.9607 
2 *181:12 *181:22 49.875 
3 *181:22 *11301:B2 17.2643 
*END

*D_NET *182 0.0530016
*CONN
*I *669:DIODE I *D sky130_fd_sc_hd__diode_2
*I *666:DIODE I *D sky130_fd_sc_hd__diode_2
*I *664:DIODE I *D sky130_fd_sc_hd__diode_2
*I *662:DIODE I *D sky130_fd_sc_hd__diode_2
*I *11303:A0 I *D sky130_fd_sc_hd__mux2_1
*I *661:DIODE I *D sky130_fd_sc_hd__diode_2
*I *663:DIODE I *D sky130_fd_sc_hd__diode_2
*I *665:DIODE I *D sky130_fd_sc_hd__diode_2
*I *668:DIODE I *D sky130_fd_sc_hd__diode_2
*I *670:DIODE I *D sky130_fd_sc_hd__diode_2
*I *660:DIODE I *D sky130_fd_sc_hd__diode_2
*I *659:DIODE I *D sky130_fd_sc_hd__diode_2
*I *658:DIODE I *D sky130_fd_sc_hd__diode_2
*I *657:DIODE I *D sky130_fd_sc_hd__diode_2
*I *655:DIODE I *D sky130_fd_sc_hd__diode_2
*I *654:DIODE I *D sky130_fd_sc_hd__diode_2
*I *653:DIODE I *D sky130_fd_sc_hd__diode_2
*I *652:DIODE I *D sky130_fd_sc_hd__diode_2
*I *651:DIODE I *D sky130_fd_sc_hd__diode_2
*I *11302:X O *D sky130_fd_sc_hd__mux2_4
*CAP
1 *669:DIODE 5.9131e-05
2 *666:DIODE 0
3 *664:DIODE 0
4 *662:DIODE 0
5 *11303:A0 0
6 *661:DIODE 0
7 *663:DIODE 0
8 *665:DIODE 0
9 *668:DIODE 0
10 *670:DIODE 0
11 *660:DIODE 0
12 *659:DIODE 0
13 *658:DIODE 0
14 *657:DIODE 0
15 *655:DIODE 0
16 *654:DIODE 0
17 *653:DIODE 0
18 *652:DIODE 0
19 *651:DIODE 0
20 *11302:X 2.07731e-05
21 *182:149 0.000118262
22 *182:142 0.000204069
23 *182:135 0.000255028
24 *182:128 0.000415613
25 *182:119 0.000607116
26 *182:112 0.000428535
27 *182:105 0.000255807
28 *182:98 0.000261055
29 *182:91 0.000329532
30 *182:81 0.0205525
31 *182:79 0.0208802
32 *182:62 0.00055975
33 *182:55 6.32859e-05
34 *182:48 5.64793e-05
35 *182:41 5.84244e-05
36 *182:34 5.04995e-05
37 *182:27 4.00774e-05
38 *182:20 4.00774e-05
39 *182:13 4.00774e-05
40 *182:6 4.08118e-05
41 *669:DIODE *11303:A1 0.000175251
42 *182:6 *11302:A0 0.000188586
43 *182:6 *306:22 0.000188586
44 *182:13 *11302:A0 0.000188586
45 *182:13 *306:22 0.000175251
46 *182:20 *11302:A0 0.000188586
47 *182:20 *306:22 0.000175251
48 *182:27 *11302:A0 0.000188586
49 *182:27 *306:22 0.000175251
50 *182:34 *11302:A0 0.000188586
51 *182:34 *306:22 0.000175251
52 *182:41 *11302:A0 0.000184522
53 *182:41 *306:22 0.000171188
54 *182:48 *1023:DIODE 3.18747e-05
55 *182:48 *11302:A0 9.99853e-05
56 *182:48 *306:22 0.000173559
57 *182:55 *1023:DIODE 7.40737e-05
58 *182:55 *306:22 0.000175105
59 *182:62 *1023:DIODE 7.15846e-05
60 *182:62 *306:22 0.000173328
61 *182:79 *1023:DIODE 1.58163e-05
62 *182:79 *1032:DIODE 0.000160191
63 *182:79 *184:36 2.04825e-05
64 *182:79 *306:22 4.27935e-05
65 *182:79 *313:47 0.00146151
66 *182:79 *314:29 0.000381095
67 *182:81 *378:16 0
68 *182:81 *378:59 0
69 *182:91 *249:29 0.000368302
70 *182:91 *251:29 0.000686567
71 *182:119 *251:29 0.000104716
72 *182:135 *11303:A1 0.000272147
73 *182:142 *11303:A1 0.000435867
74 *182:149 *11303:A1 0.000175251
75 *168:86 *182:98 4.90192e-05
76 *168:86 *182:105 4.55532e-05
77 *168:86 *182:112 4.86417e-05
78 *168:86 *182:119 0.000128822
79 *168:86 *182:128 8.02893e-05
80 *168:86 *182:135 2.44318e-05
*RES
1 *11302:X *182:6 11.0679 
2 *182:6 *651:DIODE 9.3 
3 *182:6 *182:13 1.76786 
4 *182:13 *652:DIODE 9.3 
5 *182:13 *182:20 1.76786 
6 *182:20 *653:DIODE 9.3 
7 *182:20 *182:27 1.76786 
8 *182:27 *654:DIODE 9.3 
9 *182:27 *182:34 1.76786 
10 *182:34 *655:DIODE 9.3 
11 *182:34 *182:41 1.76786 
12 *182:41 *657:DIODE 9.3 
13 *182:41 *182:48 1.76786 
14 *182:48 *658:DIODE 9.3 
15 *182:48 *182:55 1.76786 
16 *182:55 *659:DIODE 9.3 
17 *182:55 *182:62 1.76786 
18 *182:62 *660:DIODE 9.3 
19 *182:62 *182:79 14.5217 
20 *182:79 *182:81 64.6062 
21 *182:81 *182:91 12.6888 
22 *182:91 *670:DIODE 9.3 
23 *182:91 *182:98 1.76786 
24 *182:98 *668:DIODE 9.3 
25 *182:98 *182:105 1.76786 
26 *182:105 *665:DIODE 9.3 
27 *182:105 *182:112 1.76786 
28 *182:112 *663:DIODE 9.3 
29 *182:112 *182:119 4.23214 
30 *182:119 *661:DIODE 9.3 
31 *182:119 *182:128 4.44643 
32 *182:128 *11303:A0 9.3 
33 *182:128 *182:135 3 
34 *182:135 *662:DIODE 9.3 
35 *182:135 *182:142 4.23214 
36 *182:142 *664:DIODE 9.3 
37 *182:142 *182:149 1.76786 
38 *182:149 *666:DIODE 9.3 
39 *182:149 *669:DIODE 11.0679 
*END

*D_NET *183 0.016376
*CONN
*I *11304:B2 I *D sky130_fd_sc_hd__o221a_2
*I *11303:X O *D sky130_fd_sc_hd__mux2_1
*CAP
1 *11304:B2 0
2 *11303:X 0.000673082
3 *183:28 0.00258488
4 *183:14 0.00467742
5 *183:10 0.00276562
6 *183:14 *741:DIODE 0.000187464
7 *183:14 *615:12 0.00111619
8 *183:14 *615:14 0.000836921
9 *183:28 *11304:A1 5.37741e-06
10 *183:28 *11322:B2 3.42301e-05
11 *183:28 *11617:A 3.69697e-05
12 *183:28 *612:20 0.00247192
13 *183:28 *615:12 1.21289e-05
14 *11313:A2 *183:14 1.04232e-05
15 *11313:A2 *183:28 0.00095421
16 *118:75 *183:28 9.11048e-06
17 *168:86 *183:10 0
*RES
1 *11303:X *183:10 29.3536 
2 *183:10 *183:14 41.2143 
3 *183:14 *183:28 49.6964 
4 *183:28 *11304:B2 13.8 
*END

*D_NET *184 0.0897331
*CONN
*I *673:DIODE I *D sky130_fd_sc_hd__diode_2
*I *676:DIODE I *D sky130_fd_sc_hd__diode_2
*I *674:DIODE I *D sky130_fd_sc_hd__diode_2
*I *11306:A0 I *D sky130_fd_sc_hd__mux2_2
*I *675:DIODE I *D sky130_fd_sc_hd__diode_2
*I *671:DIODE I *D sky130_fd_sc_hd__diode_2
*I *672:DIODE I *D sky130_fd_sc_hd__diode_2
*I *11305:X O *D sky130_fd_sc_hd__mux2_4
*CAP
1 *673:DIODE 0
2 *676:DIODE 7.90923e-05
3 *674:DIODE 0
4 *11306:A0 0
5 *675:DIODE 0.000242816
6 *671:DIODE 0
7 *672:DIODE 0.000123196
8 *11305:X 3.99336e-05
9 *184:86 0.000247345
10 *184:77 0.000222054
11 *184:62 0.00124282
12 *184:56 0.00160517
13 *184:42 0.00461151
14 *184:40 0.00395255
15 *184:38 0.00586251
16 *184:36 0.00784265
17 *184:22 0.00209217
18 *184:15 0.000541905
19 *184:6 0.000593003
20 *672:DIODE *287:45 7.29573e-05
21 *675:DIODE *765:DIODE 5.49489e-05
22 *675:DIODE *185:10 0.000268514
23 *675:DIODE *193:8 0.000291625
24 *675:DIODE *363:38 5.96516e-05
25 *676:DIODE *11306:A1 0.00016775
26 *184:15 *287:45 8.09081e-05
27 *184:36 *11317:A0 9.54798e-06
28 *184:36 *188:10 1.5702e-05
29 *184:36 *306:22 0.00263867
30 *184:36 *313:47 0.000358079
31 *184:36 *324:30 2.06112e-05
32 *184:38 *11320:A0 6.22419e-05
33 *184:38 *194:8 0.000261965
34 *184:38 *194:10 0.00148348
35 *184:38 *324:30 0.00029213
36 *184:38 *325:36 0.000796767
37 *184:42 *186:12 0.0195753
38 *184:42 *188:16 0.018981
39 *184:42 *192:16 0.00352518
40 *184:56 *11309:A0 0.000684707
41 *184:56 *192:16 0.000394599
42 *184:56 *194:32 0.00113982
43 *184:56 *195:10 0.000330448
44 *184:56 *355:20 0.000111874
45 *184:56 *537:16 0.00175418
46 *184:56 *548:32 6.05161e-06
47 *184:56 *560:16 0.000277562
48 *184:56 *571:26 1.21258e-05
49 *184:62 *185:8 5.77422e-05
50 *184:62 *187:38 0.000401562
51 *184:62 *189:10 1.18357e-05
52 *184:62 *195:10 1.98218e-05
53 *184:62 *238:11 9.54014e-05
54 *184:62 *238:22 5.38593e-06
55 *184:62 *355:20 3.27461e-05
56 *184:62 *570:26 0.001347
57 *184:62 *571:16 0.00170399
58 *184:77 *185:8 4.08637e-05
59 *184:86 *11306:A1 0.00021816
60 *11306:S *184:86 0.000135028
61 *11320:S *184:38 0.00197564
62 *166:127 *184:15 0.00044449
63 *166:127 *184:22 0.000186662
64 *168:103 *675:DIODE 9.15621e-06
65 *182:79 *184:36 2.04825e-05
*RES
1 *11305:X *184:6 10.0321 
2 *184:6 *672:DIODE 11.0679 
3 *184:6 *184:15 6.28571 
4 *184:15 *671:DIODE 9.3 
5 *184:15 *184:22 1.76786 
6 *184:22 *184:36 46.7679 
7 *184:36 *184:38 80.2143 
8 *184:38 *184:40 4.5 
9 *184:40 *184:42 242.982 
10 *184:42 *184:56 49.3571 
11 *184:56 *184:62 34.1964 
12 *184:62 *675:DIODE 23.8357 
13 *184:62 *184:77 0.946429 
14 *184:77 *11306:A0 9.3 
15 *184:77 *184:86 3.42857 
16 *184:86 *674:DIODE 9.3 
17 *184:86 *676:DIODE 11.0679 
18 *184:22 *673:DIODE 9.3 
*END

*D_NET *185 0.0403694
*CONN
*I *11307:B2 I *D sky130_fd_sc_hd__o221a_2
*I *11306:X O *D sky130_fd_sc_hd__mux2_2
*CAP
1 *11307:B2 0.00116412
2 *11306:X 8.06661e-05
3 *185:14 0.00616259
4 *185:12 0.00499847
5 *185:10 0.00141966
6 *185:8 0.00150033
7 *11307:B2 *11287:A1 3.8083e-05
8 *11307:B2 *11307:A1 5.02464e-06
9 *11307:B2 *11319:B2 0
10 *11307:B2 *11330:A 0.000125811
11 *11307:B2 *224:48 0
12 *11307:B2 *474:26 0
13 *11307:B2 *476:26 0.000359895
14 *185:10 *780:DIODE 0.000153054
15 *185:10 *805:DIODE 0.00012294
16 *185:10 *806:DIODE 0.000153054
17 *185:10 *11467:A 0.00117693
18 *185:10 *193:8 0.0020811
19 *185:10 *239:15 0.00012401
20 *185:10 *242:120 0.00012401
21 *185:10 *242:136 0.000151333
22 *185:14 *189:14 0.0121253
23 *185:14 *195:14 0.000321356
24 *185:14 *224:40 0.00040085
25 *185:14 *229:42 0.000765772
26 *185:14 *247:23 0.000104074
27 *185:14 *574:14 0.000760469
28 *675:DIODE *185:10 0.000268514
29 *11307:B1 *11307:B2 1.00733e-05
30 *117:131 *11307:B2 0.00034912
31 *118:81 *11307:B2 0.000143169
32 *165:147 *11307:B2 5.07736e-05
33 *168:99 *185:14 3.79504e-05
34 *168:103 *185:10 0.00494073
35 *173:125 *11307:B2 5.15162e-05
36 *184:62 *185:8 5.77422e-05
37 *184:77 *185:8 4.08637e-05
*RES
1 *11306:X *185:8 14.7911 
2 *185:8 *185:10 62.6607 
3 *185:10 *185:12 4.5 
4 *185:12 *185:14 146.339 
5 *185:14 *11307:B2 41.3268 
*END

*D_NET *186 0.0597098
*CONN
*I *11309:A0 I *D sky130_fd_sc_hd__mux2_2
*I *11308:X O *D sky130_fd_sc_hd__mux2_4
*CAP
1 *11309:A0 0.000621655
2 *11308:X 2.15003e-05
3 *186:12 0.00600783
4 *186:10 0.00538617
5 *186:8 0.00611781
6 *186:6 0.00613931
7 *11309:A0 *11447:A 0
8 *11309:A0 *187:22 0.000125633
9 *11309:A0 *194:32 6.05161e-06
10 *11309:A0 *256:23 0.000430832
11 *11309:A0 *355:20 0.000761092
12 *11309:A0 *560:16 3.09983e-05
13 *186:6 *11308:A0 1.00733e-05
14 *186:8 *11308:A0 0.000105163
15 *186:8 *11311:A0 0.000436524
16 *186:8 *11311:A1 0.00016565
17 *186:8 *314:29 0.000562338
18 *186:8 *316:35 0.000197451
19 *186:12 *192:16 0.00306044
20 *186:12 *256:19 0
21 *186:12 *355:20 8.40006e-06
22 *186:12 *356:10 0.00253855
23 *186:12 *398:54 0.00624453
24 *186:12 *560:16 0.00017206
25 *11309:S *11309:A0 6.05161e-06
26 *11311:S *186:8 0.000293597
27 *184:42 *186:12 0.0195753
28 *184:56 *11309:A0 0.000684707
*RES
1 *11308:X *186:6 9.72857 
2 *186:6 *186:8 95 
3 *186:8 *186:10 4.5 
4 *186:10 *186:12 247.08 
5 *186:12 *11309:A0 31.5411 
*END

*D_NET *187 0.0506371
*CONN
*I *11310:B2 I *D sky130_fd_sc_hd__o221a_2
*I *11309:X O *D sky130_fd_sc_hd__mux2_2
*CAP
1 *11310:B2 0.000969551
2 *11309:X 0.00116379
3 *187:42 0.00376948
4 *187:40 0.00279993
5 *187:38 0.00150309
6 *187:36 0.00220165
7 *187:22 0.00186235
8 *11310:B2 *887:DIODE 0
9 *11310:B2 *11449:A 0
10 *11310:B2 *11617:A 0
11 *11310:B2 *226:34 0
12 *11310:B2 *504:12 0.00108267
13 *187:22 *11445:A 0
14 *187:22 *11524:BEN[7] 1.24368e-05
15 *187:22 *194:32 0.000125355
16 *187:22 *258:22 0.00133975
17 *187:22 *548:32 2.32086e-05
18 *187:22 *571:26 6.05161e-06
19 *187:22 *571:34 0.00133677
20 *187:36 *258:22 0.00116745
21 *187:36 *548:20 0.00116887
22 *187:38 *189:10 0.0053975
23 *187:38 *258:22 3.30575e-05
24 *187:38 *355:34 0.000335185
25 *187:38 *571:16 0.00247427
26 *187:42 *195:14 0.000128192
27 *187:42 *247:23 0.0131763
28 *11309:A0 *187:22 0.000125633
29 *11322:C1 *11310:B2 0
30 *168:99 *187:42 0.00746388
31 *170:127 *11310:B2 9.54798e-06
32 *174:77 *11310:B2 3.25745e-05
33 *174:83 *11310:B2 5.7616e-05
34 *175:10 *11310:B2 3.47468e-05
35 *178:55 *187:42 0.000434584
36 *184:62 *187:38 0.000401562
*RES
1 *11309:X *187:22 49.0679 
2 *187:22 *187:36 26.7385 
3 *187:36 *187:38 69.1875 
4 *187:38 *187:40 4.5 
5 *187:40 *187:42 126.625 
6 *187:42 *11310:B2 38.7643 
*END

*D_NET *188 0.062539
*CONN
*I *11312:A0 I *D sky130_fd_sc_hd__mux2_2
*I *11311:X O *D sky130_fd_sc_hd__mux2_4
*CAP
1 *11312:A0 0.000874326
2 *11311:X 0.000683139
3 *188:16 0.00772852
4 *188:14 0.0068542
5 *188:12 0.00263435
6 *188:10 0.00331749
7 *11312:A0 *11445:A 0
8 *11312:A0 *258:22 0.00123386
9 *11312:A0 *372:71 0.000920927
10 *11312:A0 *570:26 0.00123056
11 *188:10 *11317:A0 0
12 *188:12 *192:14 0.00015028
13 *188:12 *301:21 0.00150152
14 *188:12 *304:51 0.00800677
15 *188:16 *192:16 0.00352518
16 *188:16 *194:16 0
17 *188:16 *194:18 0
18 *188:16 *355:10 0.0020105
19 *188:16 *355:20 0.000799507
20 *188:16 *422:36 0.00201598
21 *11312:S *11312:A0 5.52302e-05
22 *184:36 *188:10 1.5702e-05
23 *184:42 *188:16 0.018981
*RES
1 *11311:X *188:10 29.6571 
2 *188:10 *188:12 78.5714 
3 *188:12 *188:14 4.5 
4 *188:14 *188:16 235.696 
5 *188:16 *11312:A0 49.3357 
*END

*D_NET *189 0.0515796
*CONN
*I *11313:B2 I *D sky130_fd_sc_hd__o221a_2
*I *11312:X O *D sky130_fd_sc_hd__mux2_2
*CAP
1 *11313:B2 0.00116064
2 *11312:X 0.000450558
3 *189:14 0.00265558
4 *189:12 0.00149493
5 *189:10 0.00183346
6 *189:8 0.00228402
7 *11313:B2 *891:DIODE 0.000223585
8 *11313:B2 *11313:A1 4.1331e-06
9 *11313:B2 *195:18 0
10 *11313:B2 *225:36 0
11 *11313:B2 *250:29 0.000225233
12 *11313:B2 *250:31 0.00012401
13 *11313:B2 *426:22 0
14 *189:8 *372:71 0.000750939
15 *189:10 *258:22 0.0078565
16 *189:10 *570:26 0.0024347
17 *189:14 *195:14 0.0121286
18 *11294:A0 *11313:B2 4.25523e-05
19 *11313:C1 *11313:B2 4.1331e-06
20 *174:108 *11313:B2 0
21 *174:112 *11313:B2 0
22 *176:85 *11313:B2 0.000110498
23 *176:93 *11313:B2 6.37883e-06
24 *178:55 *189:14 0.000254433
25 *184:62 *189:10 1.18357e-05
26 *185:14 *189:14 0.0121253
27 *187:38 *189:10 0.0053975
*RES
1 *11312:X *189:8 21.3179 
2 *189:8 *189:10 99.3929 
3 *189:10 *189:12 4.5 
4 *189:12 *189:14 114.304 
5 *189:14 *11313:B2 39.675 
*END

*D_NET *190 0.0612148
*CONN
*I *682:DIODE I *D sky130_fd_sc_hd__diode_2
*I *688:DIODE I *D sky130_fd_sc_hd__diode_2
*I *691:DIODE I *D sky130_fd_sc_hd__diode_2
*I *693:DIODE I *D sky130_fd_sc_hd__diode_2
*I *695:DIODE I *D sky130_fd_sc_hd__diode_2
*I *696:DIODE I *D sky130_fd_sc_hd__diode_2
*I *694:DIODE I *D sky130_fd_sc_hd__diode_2
*I *692:DIODE I *D sky130_fd_sc_hd__diode_2
*I *690:DIODE I *D sky130_fd_sc_hd__diode_2
*I *687:DIODE I *D sky130_fd_sc_hd__diode_2
*I *11315:A0 I *D sky130_fd_sc_hd__mux2_1
*I *680:DIODE I *D sky130_fd_sc_hd__diode_2
*I *677:DIODE I *D sky130_fd_sc_hd__diode_2
*I *679:DIODE I *D sky130_fd_sc_hd__diode_2
*I *681:DIODE I *D sky130_fd_sc_hd__diode_2
*I *683:DIODE I *D sky130_fd_sc_hd__diode_2
*I *684:DIODE I *D sky130_fd_sc_hd__diode_2
*I *685:DIODE I *D sky130_fd_sc_hd__diode_2
*I *686:DIODE I *D sky130_fd_sc_hd__diode_2
*I *11314:X O *D sky130_fd_sc_hd__mux2_4
*CAP
1 *682:DIODE 0
2 *688:DIODE 0.000145827
3 *691:DIODE 0
4 *693:DIODE 0
5 *695:DIODE 0
6 *696:DIODE 0.000122876
7 *694:DIODE 7.31226e-05
8 *692:DIODE 0
9 *690:DIODE 0
10 *687:DIODE 0
11 *11315:A0 0
12 *680:DIODE 0
13 *677:DIODE 0
14 *679:DIODE 0
15 *681:DIODE 0
16 *683:DIODE 0
17 *684:DIODE 0
18 *685:DIODE 0
19 *686:DIODE 0.00011784
20 *11314:X 0.000164215
21 *190:152 0.000242823
22 *190:133 0.000250425
23 *190:131 0.000224545
24 *190:117 0.000146245
25 *190:110 0.000146245
26 *190:103 0.000217205
27 *190:96 0.000584916
28 *190:90 0.000486672
29 *190:82 0.0196768
30 *190:80 0.0209332
31 *190:70 0.00141434
32 *190:63 0.000220049
33 *190:56 0.000591221
34 *190:22 0.000227792
35 *190:20 0.000217616
36 *190:18 0.000215329
37 *190:16 0.000215749
38 *190:14 0.000165946
39 *190:12 0.00070528
40 *686:DIODE *292:39 0.000186765
41 *688:DIODE *254:25 5.56594e-05
42 *694:DIODE *254:25 0.000188586
43 *696:DIODE *254:25 7.50473e-05
44 *190:14 *292:39 9.83388e-05
45 *190:16 *292:39 0.00018831
46 *190:18 *292:39 0.000188586
47 *190:20 *292:39 0.000188586
48 *190:22 *292:39 0.000187042
49 *190:56 *292:39 0.000738253
50 *190:56 *330:25 0.000107883
51 *190:63 *292:39 0.000188311
52 *190:70 *292:39 0.000186662
53 *190:80 *192:14 0.00395267
54 *190:80 *301:21 0.000331509
55 *190:80 *302:50 0.00487185
56 *190:80 *329:27 0.000305808
57 *190:90 *249:29 2.14879e-05
58 *190:90 *251:29 5.11642e-05
59 *190:96 *254:25 0.00069487
60 *190:103 *254:25 0.000313019
61 *190:110 *254:25 0.000188586
62 *190:117 *254:25 0.000188586
63 *190:133 *254:25 6.62783e-05
64 *190:152 *254:25 5.04705e-05
65 *113:59 *190:12 9.41642e-05
*RES
1 *11314:X *190:12 20.5857 
2 *190:12 *190:14 0.946429 
3 *190:14 *190:16 1.76786 
4 *190:16 *190:18 1.76786 
5 *190:18 *190:20 1.76786 
6 *190:20 *190:22 1.76786 
7 *190:22 *686:DIODE 11.0679 
8 *190:22 *685:DIODE 9.3 
9 *190:20 *684:DIODE 9.3 
10 *190:18 *683:DIODE 9.3 
11 *190:16 *681:DIODE 9.3 
12 *190:14 *679:DIODE 9.3 
13 *190:12 *190:56 7.10714 
14 *190:56 *677:DIODE 9.3 
15 *190:56 *190:63 1.76786 
16 *190:63 *680:DIODE 9.3 
17 *190:63 *190:70 1.76786 
18 *190:70 *190:80 26.5325 
19 *190:80 *190:82 62.7951 
20 *190:82 *190:90 7.17982 
21 *190:90 *190:96 12.5357 
22 *190:96 *11315:A0 9.3 
23 *190:96 *190:103 3 
24 *190:103 *687:DIODE 9.3 
25 *190:103 *190:110 1.76786 
26 *190:110 *690:DIODE 9.3 
27 *190:110 *190:117 1.76786 
28 *190:117 *692:DIODE 9.3 
29 *190:117 *694:DIODE 11.0679 
30 *190:90 *190:131 4.5 
31 *190:131 *190:133 1.76786 
32 *190:133 *696:DIODE 11.0679 
33 *190:133 *695:DIODE 9.3 
34 *190:131 *693:DIODE 9.3 
35 *190:131 *190:152 1.35714 
36 *190:152 *691:DIODE 9.3 
37 *190:152 *688:DIODE 11.0679 
38 *190:70 *682:DIODE 9.3 
*END

*D_NET *191 0.016709
*CONN
*I *11316:B2 I *D sky130_fd_sc_hd__o221a_2
*I *11315:X O *D sky130_fd_sc_hd__mux2_1
*CAP
1 *11316:B2 0
2 *11315:X 0.000447562
3 *191:32 0.00205928
4 *191:12 0.00471586
5 *191:10 0.00310414
6 *191:32 *894:DIODE 0.000274294
7 *191:32 *11316:A1 4.46488e-05
8 *191:32 *11427:A 5.85917e-05
9 *191:32 *11428:A 9.31114e-05
10 *191:32 *226:34 4.077e-05
11 *191:32 *404:24 0.000872283
12 *1100:DIODE *191:32 8.07313e-05
13 *1208:DIODE *191:32 0.000195455
14 *11316:A2 *191:32 9.54798e-06
15 *11322:B1 *191:32 8.23597e-06
16 *115:52 *191:12 0.00244204
17 *115:54 *191:10 0
18 *118:104 *191:32 3.47641e-06
19 *168:12 *191:12 0.000649896
20 *168:86 *191:12 4.88637e-05
21 *176:141 *191:32 0.000120519
22 *178:113 *191:12 2.14757e-05
23 *181:12 *191:32 0.00141821
*RES
1 *11315:X *191:10 25.4071 
2 *191:10 *191:12 52.0804 
3 *191:12 *191:32 47.6339 
4 *191:32 *11316:B2 13.8 
*END

*D_NET *192 0.0792122
*CONN
*I *11318:A0 I *D sky130_fd_sc_hd__mux2_2
*I *11317:X O *D sky130_fd_sc_hd__mux2_4
*CAP
1 *11318:A0 0.000698594
2 *11317:X 0.00324314
3 *192:16 0.019351
4 *192:14 0.0218956
5 *11318:A0 *985:DIODE 6.56976e-05
6 *11318:A0 *569:16 0.000282469
7 *192:14 *301:21 0.00440072
8 *192:14 *302:50 0.00179316
9 *192:14 *304:51 0.000277941
10 *192:14 *329:27 0.00386163
11 *192:16 *11463:A 0
12 *192:16 *11524:BEN[0] 0.000115473
13 *192:16 *194:32 0.000256457
14 *192:16 *195:10 0.000121549
15 *192:16 *256:19 0.000349323
16 *192:16 *355:34 0.000121549
17 *192:16 *356:10 0.00129892
18 *192:16 *398:54 0.00141215
19 *192:16 *418:26 0.000249473
20 *192:16 *467:82 0.00194094
21 *192:16 *472:70 0
22 *192:16 *526:24 0.000187616
23 *192:16 *537:16 0.000628643
24 *192:16 *549:187 0.00011927
25 *192:16 *560:16 0.000718216
26 *192:16 *573:16 0.00056842
27 *192:16 *574:16 0.000567314
28 *168:114 *11318:A0 7.86072e-05
29 *184:42 *192:16 0.00352518
30 *184:56 *192:16 0.000394599
31 *186:12 *192:16 0.00306044
32 *188:12 *192:14 0.00015028
33 *188:16 *192:16 0.00352518
34 *190:80 *192:14 0.00395267
*RES
1 *11317:X *192:14 42.8951 
2 *192:14 *192:16 49.1589 
3 *192:16 *11318:A0 26.6131 
*END

*D_NET *193 0.0437546
*CONN
*I *11319:B2 I *D sky130_fd_sc_hd__o221a_2
*I *11318:X O *D sky130_fd_sc_hd__mux2_2
*CAP
1 *11319:B2 0.000849935
2 *11318:X 0
3 *193:12 0.00577608
4 *193:10 0.00492614
5 *193:8 0.00173749
6 *193:6 0.00173749
7 *11319:B2 *11319:A1 0.000194299
8 *11319:B2 *223:32 0
9 *11319:B2 *228:32 0.000603412
10 *11319:B2 *448:28 7.8178e-06
11 *11319:B2 *476:26 3.29279e-05
12 *193:8 *780:DIODE 0.000143804
13 *193:8 *805:DIODE 0.00012294
14 *193:8 *806:DIODE 0.000143804
15 *193:8 *11463:A 0.000920249
16 *193:8 *239:15 0.000125724
17 *193:8 *242:120 0.000125724
18 *193:8 *242:136 0.000143804
19 *193:8 *569:16 0.00567993
20 *193:12 *225:30 0.000747623
21 *193:12 *250:29 0.00241251
22 *193:12 *504:14 0.0140063
23 *675:DIODE *193:8 0.000291625
24 *11307:B2 *11319:B2 0
25 *11319:B1 *11319:B2 0.000113752
26 *11322:C1 *11319:B2 2.95641e-05
27 *118:81 *11319:B2 0.000172155
28 *122:93 *11319:B2 5.71472e-05
29 *168:103 *193:8 5.37543e-05
30 *168:114 *193:8 3.43403e-05
31 *175:12 *193:12 0.000483104
32 *185:10 *193:8 0.0020811
*RES
1 *11318:X *193:6 13.8 
2 *193:6 *193:8 72.0714 
3 *193:8 *193:10 4.5 
4 *193:10 *193:12 147.161 
5 *193:12 *11319:B2 37.3179 
*END

*D_NET *194 0.0515915
*CONN
*I *11321:A0 I *D sky130_fd_sc_hd__mux2_2
*I *11320:X O *D sky130_fd_sc_hd__mux2_4
*CAP
1 *11321:A0 0.000459309
2 *11320:X 0.000301134
3 *194:32 0.00114335
4 *194:18 0.00708798
5 *194:16 0.00823529
6 *194:10 0.00449523
7 *194:8 0.00296501
8 *11321:A0 *369:79 0.00022296
9 *194:8 *11320:A0 0.000186662
10 *194:10 *325:36 0.000874976
11 *194:16 *304:47 0.00016935
12 *194:16 *456:37 0
13 *194:16 *465:28 0
14 *194:18 *258:14 0.0157495
15 *194:18 *355:10 0.00199477
16 *194:18 *422:36 0.000648727
17 *194:18 *433:40 0
18 *194:18 *570:26 0.000785388
19 *194:18 *571:34 9.20929e-06
20 *194:32 *258:22 0.000895838
21 *194:32 *355:20 0.00111762
22 *194:32 *570:26 1.76719e-05
23 *194:32 *571:34 0.0009584
24 *11309:A0 *194:32 6.05161e-06
25 *184:38 *194:8 0.000261965
26 *184:38 *194:10 0.00148348
27 *184:56 *194:32 0.00113982
28 *187:22 *194:32 0.000125355
29 *188:16 *194:16 0
30 *188:16 *194:18 0
31 *192:16 *194:32 0.000256457
*RES
1 *11320:X *194:8 16.6304 
2 *194:8 *194:10 50.4375 
3 *194:10 *194:16 39.5982 
4 *194:16 *194:18 205.964 
5 *194:18 *194:32 43.2411 
6 *194:32 *11321:A0 16.4071 
*END

*D_NET *195 0.0512423
*CONN
*I *11322:B2 I *D sky130_fd_sc_hd__o221a_2
*I *697:DIODE I *D sky130_fd_sc_hd__diode_2
*I *11321:X O *D sky130_fd_sc_hd__mux2_2
*CAP
1 *11322:B2 0.000362026
2 *697:DIODE 0.000110271
3 *11321:X 0.00036215
4 *195:18 0.00144056
5 *195:14 0.00259855
6 *195:12 0.00163029
7 *195:10 0.00157457
8 *195:8 0.00193672
9 *697:DIODE *11322:A1 0
10 *697:DIODE *225:36 3.48901e-05
11 *697:DIODE *229:46 0
12 *11322:B2 *11617:A 0
13 *11322:B2 *612:20 0.000180072
14 *195:8 *369:79 0.000587484
15 *195:10 *355:20 0.000348784
16 *195:10 *355:34 0.00189864
17 *195:10 *356:18 0.00421143
18 *195:10 *537:16 0.000443558
19 *195:10 *571:16 0.00672347
20 *195:14 *247:23 0.0123536
21 *195:18 *225:36 0.000310995
22 *195:18 *229:46 0
23 *195:18 *250:29 0
24 *195:18 *363:16 1.21955e-05
25 *195:18 *365:18 0.000433668
26 *11313:B2 *195:18 0
27 *11313:C1 *11322:B2 3.47641e-06
28 *11322:B1 *11322:B2 1.90936e-05
29 *115:37 *11322:B2 0.000117393
30 *117:131 *11322:B2 0.000144787
31 *168:99 *195:14 4.49922e-05
32 *178:55 *195:14 0.00027436
33 *183:28 *11322:B2 3.42301e-05
34 *184:56 *195:10 0.000330448
35 *184:62 *195:10 1.98218e-05
36 *185:14 *195:14 0.000321356
37 *187:42 *195:14 0.000128192
38 *189:14 *195:14 0.0121286
39 *192:16 *195:10 0.000121549
*RES
1 *11321:X *195:8 19.675 
2 *195:8 *195:10 89.9821 
3 *195:10 *195:12 4.5 
4 *195:12 *195:14 120.054 
5 *195:14 *195:18 24.0536 
6 *195:18 *697:DIODE 15.4429 
7 *195:18 *11322:B2 28.5679 
*END

*D_NET *196 0.0692666
*CONN
*I *11327:A I *D sky130_fd_sc_hd__clkbuf_16
*I *11326:A I *D sky130_fd_sc_hd__clkbuf_16
*I *11325:X O *D sky130_fd_sc_hd__clkbuf_16
*CAP
1 *11327:A 0.00167041
2 *11326:A 0
3 *11325:X 0
4 *196:26 0.00350396
5 *196:14 0.00719251
6 *196:6 0.00535895
7 *196:14 *301:21 0.00746628
8 *196:14 *302:50 0.00746628
9 *196:14 *329:27 0.00550792
10 *196:26 *200:66 0.00150804
11 *196:26 *245:26 0.000180039
12 *196:26 *323:35 0.000143652
13 *196:26 *363:66 0.0143059
14 *196:26 *485:66 9.09604e-05
15 *196:26 *564:10 0.000182101
16 *3:25 *196:26 0.0143159
17 *3:35 *11327:A 0.000187037
18 *171:67 *11327:A 0.000186659
*RES
1 *11325:X *196:6 13.8 
2 *196:6 *196:14 34.9019 
3 *196:14 *196:26 43.6467 
4 *196:26 *11326:A 9.3 
5 *196:6 *11327:A 36.0979 
*END

*D_NET *197 0.115419
*CONN
*I *11515:CLKin I *D CF_SRAM_1024x32
*I *11524:CLKin I *D CF_SRAM_1024x32
*I *11324:CLK I *D sky130_fd_sc_hd__dfrtp_1
*I *11326:X O *D sky130_fd_sc_hd__clkbuf_16
*CAP
1 *11515:CLKin 0.00170822
2 *11524:CLKin 0.000191902
3 *11324:CLK 0
4 *11326:X 4.07288e-05
5 *197:62 7.46181e-06
6 *197:39 0.0147272
7 *197:37 0.0145353
8 *197:35 0.00229452
9 *197:28 0.00206323
10 *197:18 0.00532344
11 *197:16 0.00465872
12 *197:8 0.002033
13 *11515:CLKin *11515:BEN[17] 0.000584931
14 *11515:CLKin *11515:DI[17] 0
15 *11515:CLKin *552:50 6.47602e-05
16 *11524:CLKin *11524:BEN[17] 0
17 *11524:CLKin *11524:DI[17] 0
18 *11524:CLKin *254:13 0.000212293
19 *11524:CLKin *552:125 0.000212293
20 *197:16 *11515:AD[1] 0.000179776
21 *197:16 *11515:AD[2] 0.00024845
22 *197:16 *394:58 1.22236e-05
23 *197:18 *209:25 6.8646e-06
24 *197:18 *230:23 7.69776e-06
25 *197:18 *231:11 0.000266905
26 *197:18 *231:13 0.00942983
27 *197:18 *369:41 0.000541868
28 *197:18 *383:64 0.00322472
29 *197:18 *387:66 0.00143945
30 *197:18 *391:88 0.000143349
31 *197:18 *590:14 0
32 *197:28 *393:12 0.00217487
33 *197:28 *591:28 1.02504e-05
34 *197:28 *611:10 0
35 *197:28 *627:12 8.22145e-05
36 *197:39 *422:54 0.0326116
37 *11254:A2 *197:28 0.000420666
38 *3:23 *197:28 0.000233711
39 *134:18 *197:16 0.00010192
40 *134:18 *197:35 0.000190048
41 *140:89 *197:28 1.77187e-05
42 *144:10 *197:18 2.16719e-05
43 *145:74 *197:28 0.000116971
44 *146:18 *11515:CLKin 0.000148552
45 *146:18 *197:35 0.000752725
46 *149:24 *11515:CLKin 0.00029148
47 *149:24 *197:16 0.000103573
48 *149:24 *197:35 0.00167481
49 *154:20 *197:28 4.47757e-05
50 *155:16 *197:18 0.00177227
51 *156:10 *197:18 0.000129981
52 *156:24 *197:18 0.000274289
53 *156:24 *197:28 0.000278131
54 *158:12 *197:18 0.00980803
*RES
1 *11326:X *197:8 14.3357 
2 *197:8 *197:16 26.8929 
3 *197:16 *197:18 184.696 
4 *197:18 *197:28 47.9464 
5 *197:28 *11324:CLK 9.3 
6 *197:8 *197:35 21.8304 
7 *197:35 *197:37 3.41 
8 *197:37 *197:39 51.5026 
9 *197:39 *11524:CLKin 12.9189 
10 *197:35 *11515:CLKin 29.0804 
11 *11515:CLKin *197:62 0.142857 
*END

*D_NET *198 0.0896832
*CONN
*I *11542:CLKin I *D CF_SRAM_1024x32
*I *11533:CLKin I *D CF_SRAM_1024x32
*I *11327:X O *D sky130_fd_sc_hd__clkbuf_16
*CAP
1 *11542:CLKin 0.00655024
2 *11533:CLKin 0.00696715
3 *11327:X 8.56908e-05
4 *198:18 0.0283643
5 *198:14 0.0149326
6 *11533:CLKin *11533:BEN[17] 0
7 *11533:CLKin *11533:DI[17] 0
8 *11533:CLKin *279:15 0
9 *11533:CLKin *422:102 0
10 *11533:CLKin *630:92 0.0161283
11 *11542:CLKin *11542:DI[17] 5.39629e-06
12 *11542:CLKin *309:19 0.000317959
13 *11542:CLKin *316:19 0.000117982
14 *11542:CLKin *318:13 0.000117982
15 *11542:CLKin *630:92 0.0148609
16 *11542:CLKin *630:96 0.00123461
*RES
1 *11327:X *198:14 20.9798 
2 *198:14 *198:18 40.5306 
3 *198:18 *11533:CLKin 44.2884 
4 *198:18 *11542:CLKin 39.2087 
*END

*D_NET *199 0.0356588
*CONN
*I *11202:C I *D sky130_fd_sc_hd__and3_2
*I *11207:B I *D sky130_fd_sc_hd__and3b_1
*I *11324:D I *D sky130_fd_sc_hd__dfrtp_1
*I *11201:Y O *D sky130_fd_sc_hd__inv_2
*CAP
1 *11202:C 0
2 *11207:B 6.94084e-05
3 *11324:D 0.000772985
4 *11201:Y 0.000120883
5 *199:82 0.00116076
6 *199:70 0.0019108
7 *199:53 0.00075488
8 *199:26 0.00185243
9 *199:12 0.00227275
10 *199:6 0.00137876
11 *11207:B *633:18 9.66977e-05
12 *11324:D *11502:A 9.24234e-05
13 *11324:D *201:46 0.000713771
14 *11324:D *575:26 8.64475e-05
15 *11324:D *591:28 0.000566264
16 *11324:D *598:12 4.30699e-05
17 *11324:D *623:8 0.000736227
18 *199:6 *611:12 1.21258e-05
19 *199:12 *602:12 7.83587e-05
20 *199:26 *201:46 0.00157301
21 *199:26 *338:12 0.000137983
22 *199:26 *575:30 0.00299856
23 *199:26 *582:10 0
24 *199:26 *600:18 0.000956458
25 *199:53 *11210:A 4.42631e-05
26 *199:53 *515:16 0.00372013
27 *199:53 *567:31 1.41642e-05
28 *199:53 *581:12 0.00371719
29 *199:70 *567:43 0.000328553
30 *199:70 *589:22 5.52238e-05
31 *199:70 *589:26 0.00202009
32 *199:70 *602:12 7.80714e-06
33 *199:70 *603:10 0.00106492
34 *199:82 *239:69 0.000574505
35 *199:82 *242:21 0.00146448
36 *199:82 *246:84 0.000222735
37 *199:82 *246:90 0.000171368
38 *199:82 *563:38 4.7024e-05
39 *199:82 *563:57 0.00222699
40 *199:82 *567:43 0.0002623
41 *199:82 *589:26 7.72634e-05
42 *11201:A *199:6 4.58194e-05
43 *11201:A *199:12 0
44 *11201:A *199:70 0.000119971
45 *3:25 *199:70 0.000270726
46 *3:25 *199:82 0.000208871
47 *110:14 *199:26 0.000395743
48 *110:18 *199:12 0
49 *110:18 *199:26 0
50 *111:8 *199:82 2.89016e-05
51 *143:41 *199:82 0.000184675
*RES
1 *11201:Y *199:6 10.6571 
2 *199:6 *199:12 11.3839 
3 *199:12 *199:26 48.7143 
4 *199:26 *11324:D 30.1868 
5 *199:12 *199:53 46.0625 
6 *199:53 *11207:B 14.7464 
7 *199:6 *199:70 32.7768 
8 *199:70 *199:82 48.5268 
9 *199:82 *11202:C 9.3 
*END

*D_NET *200 0.187837
*CONN
*I *11533:R_WB I *D CF_SRAM_1024x32
*I *11542:R_WB I *D CF_SRAM_1024x32
*I *11524:R_WB I *D CF_SRAM_1024x32
*I *11515:R_WB I *D CF_SRAM_1024x32
*I *11199:Y O *D sky130_fd_sc_hd__inv_16
*CAP
1 *11533:R_WB 0.00246536
2 *11542:R_WB 0.00014055
3 *11524:R_WB 8.33298e-05
4 *11515:R_WB 0.00116952
5 *11199:Y 0.00894143
6 *200:70 0.0177542
7 *200:68 0.0176136
8 *200:66 0.0130543
9 *200:50 0.0100918
10 *200:48 0.0100084
11 *200:46 0.0111485
12 *200:22 0.0106704
13 *11515:R_WB *11515:AD[0] 0.000456503
14 *11515:R_WB *11515:EN 5.83961e-05
15 *11515:R_WB *552:24 6.53397e-05
16 *11524:R_WB *11524:EN 8.46044e-06
17 *11524:R_WB *247:11 8.23597e-06
18 *11524:R_WB *254:13 1.94945e-05
19 *11524:R_WB *491:92 3.4879e-05
20 *11533:R_WB *11533:AD[0] 0
21 *11533:R_WB *11533:AD[1] 0
22 *11533:R_WB *11533:EN 0
23 *11533:R_WB *286:22 0.000307947
24 *11533:R_WB *288:25 0.000299748
25 *11542:R_WB *11542:AD[0] 0
26 *11542:R_WB *11542:EN 0
27 *11542:R_WB *316:19 0.000303119
28 *11542:R_WB *318:13 0.000303119
29 *200:22 *11515:AD[2] 5.16732e-06
30 *200:22 *201:167 0.000823674
31 *200:22 *212:23 0.000686398
32 *200:22 *212:31 6.05161e-06
33 *200:22 *228:22 0.00119975
34 *200:22 *229:34 0.000147971
35 *200:22 *243:17 0.000215849
36 *200:22 *483:22 0.000346818
37 *200:22 *485:66 0.000343937
38 *200:22 *491:44 6.05587e-05
39 *200:46 *224:36 0.000101776
40 *200:46 *244:19 0.000101776
41 *200:46 *483:22 0.00127298
42 *200:46 *485:66 0.0012957
43 *200:50 *244:15 0
44 *200:50 *246:65 0.00582087
45 *200:50 *483:22 0.000433125
46 *200:50 *483:64 0.00598827
47 *200:50 *485:66 0.0136815
48 *200:66 *1095:DIODE 0.000124723
49 *200:66 *1149:DIODE 0.000103428
50 *200:66 *1163:DIODE 5.5782e-05
51 *200:66 *224:32 0.000333925
52 *200:66 *224:36 0.00780348
53 *200:66 *244:19 0.000285738
54 *200:66 *245:26 0.000231433
55 *200:66 *283:22 2.94124e-05
56 *200:66 *286:22 0.0143025
57 *200:66 *288:25 0.0143277
58 *200:66 *290:25 1.01241e-05
59 *200:66 *293:25 0.000145867
60 *200:66 *298:28 0
61 *200:66 *299:18 0.00196309
62 *200:66 *300:22 0
63 *200:66 *301:37 0.00207796
64 *200:66 *308:27 0.00149478
65 *200:66 *323:33 0.000113887
66 *200:66 *323:35 0.00127467
67 *200:66 *323:37 0.000126439
68 *200:66 *323:43 0.000150297
69 *200:66 *327:60 1.62461e-05
70 *200:66 *363:66 0.000762496
71 *200:66 *564:10 0
72 *11273:S *200:66 0.000917114
73 *120:10 *200:66 0
74 *132:10 *11515:R_WB 6.53397e-05
75 *134:16 *11515:R_WB 2.59355e-05
76 *150:14 *200:22 0.000147971
77 *153:20 *200:22 0.00190018
78 *196:26 *200:66 0.00150804
*RES
1 *11199:Y *200:22 47.355 
2 *200:22 *11515:R_WB 27.1912 
3 *200:22 *200:46 6.95829 
4 *200:46 *200:48 3.41 
5 *200:48 *200:50 49.8451 
6 *200:50 *11524:R_WB 9.60196 
7 *200:46 *200:66 388.696 
8 *200:66 *200:68 3.41 
9 *200:68 *200:70 49.8451 
10 *200:70 *11542:R_WB 12.6466 
11 *200:66 *11533:R_WB 38.1161 
*END

*D_NET *201 0.0716318
*CONN
*I *11515:EN I *D CF_SRAM_1024x32
*I *11243:B1 I *D sky130_fd_sc_hd__o221a_2
*I *11234:B1 I *D sky130_fd_sc_hd__o221a_1
*I *11237:B1 I *D sky130_fd_sc_hd__o221a_2
*I *11240:B1 I *D sky130_fd_sc_hd__o221a_2
*I *11228:B1 I *D sky130_fd_sc_hd__o221a_1
*I *11225:B1 I *D sky130_fd_sc_hd__o221a_1
*I *11219:B1 I *D sky130_fd_sc_hd__o221a_1
*I *11222:B1 I *D sky130_fd_sc_hd__o221a_1
*I *11231:B1 I *D sky130_fd_sc_hd__o221a_1
*I *11213:X O *D sky130_fd_sc_hd__clkbuf_8
*CAP
1 *11515:EN 0.00105497
2 *11243:B1 4.09699e-06
3 *11234:B1 9.76941e-05
4 *11237:B1 0.000349341
5 *11240:B1 4.35323e-05
6 *11228:B1 2.23854e-05
7 *11225:B1 2.03441e-05
8 *11219:B1 0.000261827
9 *11222:B1 0
10 *11231:B1 6.77945e-05
11 *11213:X 0.00168874
12 *201:167 0.00605239
13 *201:165 0.00499742
14 *201:132 0.000631503
15 *201:126 0.000283744
16 *201:88 0.000508259
17 *201:79 0.000511754
18 *201:71 0.000465233
19 *201:69 0.000491595
20 *201:54 0.000483067
21 *201:50 0.000984492
22 *201:46 0.00194832
23 *201:22 0.00266383
24 *201:18 0.00316918
25 *11219:B1 *735:DIODE 9.24825e-05
26 *11219:B1 *11607:A 0.000143131
27 *11231:B1 *11348:A 3.69697e-05
28 *11234:B1 *625:12 6.57032e-05
29 *11237:B1 *11237:A1 2.09072e-05
30 *11237:B1 *625:12 9.37026e-06
31 *11240:B1 *621:16 1.3312e-05
32 *11515:EN *474:78 0
33 *201:18 *11489:A 0.00010096
34 *201:18 *338:12 0.000443325
35 *201:18 *580:22 2.04825e-05
36 *201:18 *580:24 5.52238e-05
37 *201:18 *600:18 0.000618912
38 *201:46 *382:47 9.65816e-05
39 *201:46 *575:26 1.95625e-05
40 *201:46 *575:30 1.98839e-05
41 *201:46 *586:34 0
42 *201:46 *598:12 6.52495e-05
43 *201:46 *600:18 0.00159835
44 *201:46 *633:10 4.66107e-05
45 *201:50 *600:16 0.00208053
46 *201:50 *621:16 0.000308595
47 *201:50 *626:8 0.000159745
48 *201:54 *11348:A 2.84494e-05
49 *201:69 *621:16 5.64413e-06
50 *201:69 *626:8 5.33005e-05
51 *201:71 *742:DIODE 0.000172309
52 *201:71 *621:16 5.74499e-06
53 *201:79 *742:DIODE 0.000223456
54 *201:88 *735:DIODE 2.95641e-05
55 *201:126 *231:21 1.81709e-05
56 *201:132 *11237:A1 3.23658e-05
57 *201:167 *11515:DI[0] 6.11664e-05
58 *201:167 *11515:DI[14] 0.000117977
59 *201:167 *228:22 0.014833
60 *201:167 *234:19 0.000398347
61 *201:167 *376:28 6.13772e-05
62 *201:167 *378:79 0.000278323
63 *201:167 *383:62 0
64 *201:167 *391:68 8.56346e-05
65 *201:167 *394:54 0.000318774
66 *201:167 *396:102 0.00133254
67 *201:167 *478:28 0.000135365
68 *201:167 *558:129 0
69 *201:167 *586:34 0.000765169
70 *201:167 *592:30 0.000542174
71 *11214:A *201:18 0.000184745
72 *11219:B2 *11219:B1 1.02504e-05
73 *11219:C1 *11219:B1 0.000109728
74 *11222:B2 *201:79 1.00332e-05
75 *11225:C1 *11219:B1 9.71123e-06
76 *11228:C1 *201:79 0.000378762
77 *11231:A2 *11231:B1 0
78 *11231:A2 *201:54 0
79 *11231:A2 *201:126 0.000125724
80 *11231:C1 *11231:B1 0.000121573
81 *11231:C1 *201:54 9.64387e-05
82 *11231:C1 *201:126 0
83 *11231:C1 *201:132 2.8266e-06
84 *11234:C1 *201:132 0.000116971
85 *11237:A2 *11237:B1 2.79753e-05
86 *11237:B2 *11237:B1 0.00038907
87 *11240:B2 *11240:B1 1.43643e-05
88 *11240:B2 *201:69 0.000190858
89 *11240:B2 *201:132 0
90 *11240:C1 *201:71 9.90367e-05
91 *11243:B2 *201:126 9.25014e-06
92 *11243:B2 *201:132 2.84216e-05
93 *11324:D *201:46 0.000713771
94 *11515:R_WB *11515:EN 5.83961e-05
95 *119:10 *201:18 0
96 *119:16 *201:22 0.00396358
97 *119:16 *201:46 0.000349112
98 *119:26 *201:50 0.00120955
99 *119:40 *11243:B1 1.28809e-05
100 *119:48 *11225:B1 5.7661e-06
101 *119:48 *201:88 0.000313934
102 *123:18 *11243:B1 1.28809e-05
103 *123:51 *201:79 5.37741e-06
104 *123:75 *11219:B1 9.90431e-05
105 *123:75 *201:88 0.00060121
106 *148:16 *201:22 0.000430308
107 *150:12 *201:167 0.000628651
108 *150:14 *201:167 0.00569535
109 *152:14 *201:167 0.000893292
110 *199:26 *201:46 0.00157301
111 *200:22 *201:167 0.000823674
*RES
1 *11213:X *201:18 47.1571 
2 *201:18 *201:22 42.4107 
3 *201:22 *201:46 47.61 
4 *201:46 *201:50 28.8571 
5 *201:50 *201:54 2.69643 
6 *201:54 *11231:B1 15.4429 
7 *201:54 *201:69 8.33929 
8 *201:69 *201:71 3.41071 
9 *201:71 *201:79 15.5714 
10 *201:79 *11222:B1 9.3 
11 *201:79 *201:88 7.125 
12 *201:88 *11219:B1 25.1571 
13 *201:88 *11225:B1 9.72857 
14 *201:71 *11228:B1 9.72857 
15 *201:69 *11240:B1 10.1795 
16 *201:50 *201:126 2.25 
17 *201:126 *201:132 7.58929 
18 *201:132 *11237:B1 15.6438 
19 *201:132 *11234:B1 11.0857 
20 *201:126 *11243:B1 13.9295 
21 *201:22 *201:165 4.5 
22 *201:165 *201:167 198.357 
23 *201:167 *11515:EN 18.6562 
*END

*D_NET *202 0.0923483
*CONN
*I *11524:EN I *D CF_SRAM_1024x32
*I *11224:S I *D sky130_fd_sc_hd__mux2_2
*I *11227:S I *D sky130_fd_sc_hd__mux2_2
*I *11216:S I *D sky130_fd_sc_hd__mux2_2
*I *11221:S I *D sky130_fd_sc_hd__mux2_2
*I *11236:S I *D sky130_fd_sc_hd__mux2_2
*I *11233:S I *D sky130_fd_sc_hd__mux2_2
*I *11239:S I *D sky130_fd_sc_hd__mux2_2
*I *11242:S I *D sky130_fd_sc_hd__mux2_2
*I *11230:S I *D sky130_fd_sc_hd__mux2_2
*I *11209:X O *D sky130_fd_sc_hd__buf_8
*CAP
1 *11524:EN 0.00025916
2 *11224:S 0
3 *11227:S 6.35825e-05
4 *11216:S 0.000117916
5 *11221:S 0.000301451
6 *11236:S 0
7 *11233:S 0.00020335
8 *11239:S 0
9 *11242:S 6.55899e-05
10 *11230:S 9.3812e-05
11 *11209:X 0.00354932
12 *202:139 0.00137733
13 *202:137 0.00760568
14 *202:93 0.000519331
15 *202:84 0.000217822
16 *202:69 0.000739266
17 *202:60 0.000516999
18 *202:49 0.000443544
19 *202:47 0.00102075
20 *202:39 0.000824247
21 *202:24 0.00758975
22 *202:18 0.0138374
23 *202:16 0.00354932
24 *11216:S *751:DIODE 0.000301438
25 *11216:S *237:27 4.08637e-05
26 *11221:S *11221:A1 1.58163e-05
27 *11221:S *242:41 0.000283335
28 *11227:S *11227:A1 1.58163e-05
29 *11230:S *263:27 0.000177821
30 *11233:S *947:DIODE 3.69047e-06
31 *11233:S *264:33 1.92789e-05
32 *11233:S *264:35 4.11889e-05
33 *11242:S *267:55 4.85049e-06
34 *11524:EN *491:92 0
35 *202:16 *221:32 0.000921227
36 *202:16 *247:43 2.13529e-05
37 *202:16 *338:38 0
38 *202:16 *380:18 0.00336986
39 *202:16 *483:14 0
40 *202:16 *584:64 0
41 *202:24 *240:22 2.04825e-05
42 *202:24 *365:26 0.00268791
43 *202:39 *240:22 0.000191877
44 *202:39 *242:35 0.000175892
45 *202:47 *242:35 0.000216755
46 *202:60 *213:33 0
47 *202:69 *213:33 0
48 *202:84 *751:DIODE 3.4137e-05
49 *202:93 *751:DIODE 0.000175892
50 *202:137 *237:15 0.016627
51 *202:137 *365:26 5.92283e-05
52 *202:137 *391:30 0.00300031
53 *202:137 *478:18 0.00563505
54 *202:137 *483:18 0.00563941
55 *202:139 *237:13 0.000607848
56 *202:139 *247:15 0
57 *202:139 *258:14 0.00370539
58 *202:139 *398:18 0.0015356
59 *202:139 *478:66 0
60 *11216:A0 *11216:S 5.33005e-05
61 *11221:A0 *11221:S 9.0145e-05
62 *11227:A0 *202:49 6.81704e-05
63 *11236:A0 *202:84 2.84109e-05
64 *11301:B2 *202:16 2.61337e-05
65 *11524:R_WB *11524:EN 8.46044e-06
66 *111:10 *202:24 1.90936e-05
67 *111:10 *202:39 0.000200057
68 *125:12 *11221:S 5.33005e-05
69 *126:10 *202:60 0.000170333
70 *126:10 *202:69 0.000797702
71 *126:10 *202:84 0.000159251
72 *128:10 *11221:S 2.21728e-05
73 *130:10 *11221:S 0.000335316
74 *130:10 *202:47 0.000761746
75 *132:22 *11233:S 0.000303542
76 *132:22 *202:69 3.27461e-05
77 *132:22 *202:84 0.00016625
78 *133:12 *11233:S 0.000221815
79 *143:80 *11216:S 0.000110604
80 *143:80 *202:84 0.000187003
81 *143:80 *202:93 8.71878e-05
82 *167:166 *202:16 2.07158e-05
83 *171:69 *202:16 0
84 *171:79 *202:16 0
*RES
1 *11209:X *202:16 48.2757 
2 *202:16 *202:18 3.41 
3 *202:18 *202:24 27.1915 
4 *202:24 *11230:S 15.5679 
5 *202:24 *202:39 8.82143 
6 *202:39 *202:47 21.0179 
7 *202:47 *202:49 4.23214 
8 *202:49 *11242:S 10.2464 
9 *202:49 *202:60 6.75 
10 *202:60 *11239:S 13.8 
11 *202:60 *202:69 10.4464 
12 *202:69 *11233:S 18.4429 
13 *202:69 *202:84 8.51786 
14 *202:84 *11236:S 9.3 
15 *202:84 *202:93 2.5 
16 *202:93 *11221:S 25.675 
17 *202:93 *11216:S 12.7107 
18 *202:47 *11227:S 10.2464 
19 *202:39 *11224:S 9.3 
20 *202:18 *202:137 49.1507 
21 *202:137 *202:139 47.0268 
22 *202:139 *11524:EN 8.79911 
*END

*D_NET *203 0.0748198
*CONN
*I *11533:EN I *D CF_SRAM_1024x32
*I *11220:S I *D sky130_fd_sc_hd__mux2_2
*I *11232:S I *D sky130_fd_sc_hd__mux2_2
*I *11215:S I *D sky130_fd_sc_hd__mux2_2
*I *11223:S I *D sky130_fd_sc_hd__mux2_2
*I *11226:S I *D sky130_fd_sc_hd__mux2_2
*I *11241:S I *D sky130_fd_sc_hd__mux2_2
*I *11238:S I *D sky130_fd_sc_hd__mux2_2
*I *11229:S I *D sky130_fd_sc_hd__mux2_2
*I *11235:S I *D sky130_fd_sc_hd__mux2_2
*I *11206:X O *D sky130_fd_sc_hd__buf_6
*CAP
1 *11533:EN 0.00124167
2 *11220:S 0.000103212
3 *11232:S 2.3932e-05
4 *11215:S 0.000107545
5 *11223:S 0
6 *11226:S 0
7 *11241:S 3.70117e-05
8 *11238:S 0.000197654
9 *11229:S 0.000141965
10 *11235:S 9.02232e-05
11 *11206:X 0.000729095
12 *203:151 0.0074706
13 *203:92 0.000570749
14 *203:88 0.000471054
15 *203:82 0.000134971
16 *203:69 0.00029758
17 *203:65 0.000763495
18 *203:59 0.000910584
19 *203:44 0.000756486
20 *203:38 0.000613044
21 *203:36 0.000902778
22 *203:20 0.00144599
23 *203:12 0.00700203
24 *203:10 0.00344664
25 *203:8 0.00417573
26 *11215:S *301:65 0.000157369
27 *11215:S *326:35 0.000294061
28 *11220:S *11220:A1 5.36669e-05
29 *11220:S *312:29 7.20217e-06
30 *11229:S *295:28 0.00021693
31 *11229:S *327:62 5.07619e-05
32 *11232:S *1046:DIODE 2.59355e-05
33 *11232:S *223:22 2.59355e-05
34 *11235:S *11235:A0 5.33005e-05
35 *11235:S *11235:A1 8.53654e-05
36 *11235:S *297:36 3.97677e-05
37 *11238:S *558:129 0.000371533
38 *11238:S *630:66 0.000368111
39 *11241:S *558:129 0.000144512
40 *11241:S *630:66 0.000153054
41 *203:20 *1070:DIODE 6.05161e-06
42 *203:20 *272:21 0.00269877
43 *203:20 *277:40 1.24368e-05
44 *203:20 *294:20 0.000200411
45 *203:20 *295:20 0.000731094
46 *203:20 *302:56 0.00159785
47 *203:36 *225:24 2.10824e-05
48 *203:36 *269:28 0.000256931
49 *203:36 *280:20 0.00122363
50 *203:36 *294:20 0.00122534
51 *203:36 *328:27 0.000256931
52 *203:36 *330:39 0.000114398
53 *203:38 *269:28 0.000830971
54 *203:38 *280:20 0.000773856
55 *203:44 *11235:A0 0.000257619
56 *203:44 *224:32 0.000120791
57 *203:44 *269:28 0.000185555
58 *203:44 *329:43 9.77264e-06
59 *203:59 *229:32 0.00051433
60 *203:65 *1067:DIODE 6.05161e-06
61 *203:65 *229:32 0.000398772
62 *203:65 *301:65 2.12005e-05
63 *203:65 *301:67 8.95832e-05
64 *203:65 *301:69 8.33274e-05
65 *203:65 *301:71 8.33274e-05
66 *203:65 *326:35 0.000472064
67 *203:69 *295:28 0.000329661
68 *203:88 *11226:A0 0.000135028
69 *203:88 *294:32 2.83627e-05
70 *203:88 *323:73 0.000204032
71 *203:92 *1041:DIODE 4.10926e-05
72 *203:92 *1146:DIODE 0.00017754
73 *203:92 *11226:A0 9.58126e-05
74 *203:92 *323:73 0.000339346
75 *203:151 *270:18 0.00084128
76 *203:151 *272:21 0.00567732
77 *203:151 *277:26 0.00156681
78 *203:151 *294:20 0.000400792
79 *203:151 *295:20 0.0118527
80 *203:151 *297:20 0.00112462
81 *11533:R_WB *11533:EN 0
82 *113:27 *203:8 0.000318107
83 *126:8 *203:88 0.000180951
84 *128:8 *203:88 0.000132092
85 *141:8 *203:8 0.000550017
86 *141:8 *203:10 1.28856e-05
87 *141:10 *203:10 0.00432189
88 *141:53 *203:36 8.55871e-05
89 *142:10 *203:38 3.65015e-05
90 *142:10 *203:44 4.59215e-05
91 *149:24 *11229:S 6.96564e-05
92 *149:24 *203:69 9.43495e-05
93 *153:20 *203:20 0.000168046
94 *153:20 *203:59 0.000115787
*RES
1 *11206:X *203:8 23.6125 
2 *203:8 *203:10 76.3125 
3 *203:10 *203:12 4.5 
4 *203:12 *203:20 44.4821 
5 *203:20 *203:36 39.7857 
6 *203:36 *203:38 10.75 
7 *203:38 *203:44 10.4643 
8 *203:44 *11235:S 11.0857 
9 *203:44 *203:59 11.7321 
10 *203:59 *203:65 15.25 
11 *203:65 *203:69 8.875 
12 *203:69 *11229:S 17.6036 
13 *203:69 *203:82 4.5 
14 *203:82 *203:88 4.375 
15 *203:88 *203:92 10.7857 
16 *203:92 *11238:S 19.8357 
17 *203:92 *11241:S 15.7464 
18 *203:88 *11226:S 9.3 
19 *203:82 *11223:S 9.3 
20 *203:65 *11215:S 12.7286 
21 *203:59 *11232:S 14.3357 
22 *203:38 *11220:S 15.5679 
23 *203:12 *203:151 212.929 
24 *203:151 *11533:EN 22.192 
*END

*D_NET *204 0.0506164
*CONN
*I *11422:A I *D sky130_fd_sc_hd__dlygate4sd3_1
*I *11203:X O *D sky130_fd_sc_hd__clkbuf_8
*CAP
1 *11422:A 0
2 *11203:X 0.000367724
3 *204:14 0.00224352
4 *204:12 0.00224352
5 *204:10 0.00437888
6 *204:8 0.00474661
7 *204:8 *11203:A 2.84109e-05
8 *204:8 *220:20 0.000187497
9 *204:10 *222:28 0.000519753
10 *204:10 *224:32 0.000133016
11 *204:10 *224:36 0.000309109
12 *204:10 *299:18 0.00794195
13 *204:10 *309:29 0
14 *204:10 *309:55 0.000203129
15 *204:10 *326:27 0
16 *204:10 *363:66 0.000849626
17 *204:14 *293:29 0.000191945
18 *204:14 *307:15 0.0147581
19 *204:14 *331:59 0.00823916
20 *204:14 *331:63 0.00327445
21 *113:10 *204:10 0
*RES
1 *11203:X *204:8 20.0857 
2 *204:8 *204:10 123.679 
3 *204:10 *204:12 4.5 
4 *204:12 *204:14 139.768 
5 *204:14 *11422:A 9.3 
*END

*D_NET *205 0.0390594
*CONN
*I *699:DIODE I *D sky130_fd_sc_hd__diode_2
*I *11219:A1 I *D sky130_fd_sc_hd__o221a_1
*I *698:DIODE I *D sky130_fd_sc_hd__diode_2
*I *11515:DO[0] O *D CF_SRAM_1024x32
*CAP
1 *699:DIODE 0.000400411
2 *11219:A1 0
3 *698:DIODE 0.000116156
4 *11515:DO[0] 0.000181223
5 *205:29 0.00334097
6 *205:21 0.00998369
7 *205:7 0.00734051
8 *698:DIODE *11607:A 3.92032e-05
9 *699:DIODE *11515:ScanInCC 0
10 *699:DIODE *11515:DI[0] 0.000444183
11 *699:DIODE *385:79 4.02038e-05
12 *699:DIODE *387:64 0.000175673
13 *205:7 *11515:ScanInCC 0
14 *205:7 *11515:DI[0] 0.000155729
15 *205:21 *11515:vpwrpc 0.000752151
16 *205:21 *216:21 0.0127729
17 *205:21 *369:41 4.33002e-05
18 *205:21 *383:64 4.33002e-05
19 *205:29 *11515:vpwrpc 2.6631e-05
20 *205:29 *11515:vpwrac 0.00023986
21 *205:29 *227:27 0
22 *205:29 *231:19 0.000460617
23 *205:29 *235:19 0.000265482
24 *11219:B2 *205:29 0.000323119
25 *3:23 *205:29 0
26 *121:18 *205:29 0.000587716
27 *125:18 *205:29 0.000540232
28 *131:14 *205:29 0.000358994
29 *137:16 *205:29 0.000427162
*RES
1 *11515:DO[0] *205:7 3.54533 
2 *205:7 *205:21 46.5231 
3 *205:21 *205:29 25.87 
4 *205:29 *698:DIODE 11.4786 
5 *205:29 *11219:A1 9.3 
6 *205:7 *699:DIODE 18.05 
*END

*D_NET *206 0.0215387
*CONN
*I *11254:A1 I *D sky130_fd_sc_hd__o221a_2
*I *11515:DO[10] O *D CF_SRAM_1024x32
*CAP
1 *11254:A1 0.000607808
2 *11515:DO[10] 0.00062163
3 *206:11 0.00214652
4 *206:9 0.00216034
5 *206:9 *11515:DI[10] 0.000249065
6 *206:11 *233:19 0.000112157
7 *206:11 *236:11 0.000719378
8 *206:11 *378:81 0.00269016
9 *206:11 *382:51 0.00263143
10 *206:11 *387:50 0.00138876
11 *206:11 *591:57 0.00259558
12 *11254:B1 *11254:A1 0.000649814
13 *11254:B2 *11254:A1 0.0026235
14 *139:16 *206:9 6.57032e-05
15 *140:36 *11254:A1 0.00227681
*RES
1 *11515:DO[10] *206:9 14.8125 
2 *206:9 *206:11 69.9464 
3 *206:11 *11254:A1 41.8536 
*END

*D_NET *207 0.00658188
*CONN
*I *11257:A1 I *D sky130_fd_sc_hd__o221a_2
*I *11515:DO[11] O *D CF_SRAM_1024x32
*CAP
1 *11257:A1 0
2 *11515:DO[11] 0.00221763
3 *207:15 0.00221763
4 *207:15 *11515:DI[11] 0.000399709
5 *207:15 *229:34 1.721e-05
6 *207:15 *229:40 9.03127e-05
7 *207:15 *243:17 0.00117971
8 *207:15 *596:8 0.000175892
9 *11257:A2 *207:15 0.000259549
10 *11257:B1 *207:15 2.42516e-05
*RES
1 *11515:DO[11] *207:15 44.5625 
2 *207:15 *11257:A1 9.3 
*END

*D_NET *208 0.00862909
*CONN
*I *11260:A1 I *D sky130_fd_sc_hd__o221a_2
*I *11515:DO[12] O *D CF_SRAM_1024x32
*CAP
1 *11260:A1 0.000442933
2 *11515:DO[12] 0.0011196
3 *208:11 0.00156254
4 *208:11 *11515:DI[12] 0.00073952
5 *208:11 *11515:DI[13] 4.26825e-05
6 *208:11 *210:11 0.00111036
7 *208:11 *232:23 0.00261154
8 *208:11 *558:47 0.000179738
9 *208:11 *558:57 0.000327173
10 *208:11 *558:69 0.000245035
11 *11260:A2 *11260:A1 4.87854e-05
12 *11260:B1 *11260:A1 2.32959e-05
13 *11260:C1 *11260:A1 0.000175892
*RES
1 *11515:DO[12] *208:11 46.0446 
2 *208:11 *11260:A1 20.8 
*END

*D_NET *209 0.0131807
*CONN
*I *11263:A1 I *D sky130_fd_sc_hd__o221a_2
*I *11515:DO[13] O *D CF_SRAM_1024x32
*CAP
1 *11263:A1 0.000615374
2 *11515:DO[13] 0.000716296
3 *209:25 0.00129729
4 *209:17 0.00139821
5 *11263:A1 *579:10 9.83358e-05
6 *11263:A1 *611:10 0.000370723
7 *11263:A1 *625:12 0.000223854
8 *209:17 *11515:DI[13] 7.05511e-05
9 *209:17 *235:9 0.00143457
10 *209:25 *232:33 2.14658e-05
11 *209:25 *236:17 0.00111178
12 *209:25 *354:10 0.000389916
13 *209:25 *590:14 4.38604e-05
14 *11269:C1 *11263:A1 2.47093e-05
15 *137:10 *209:17 0.00143286
16 *140:53 *11263:A1 0
17 *140:76 *11263:A1 0.000122934
18 *144:10 *209:25 0.00132828
19 *144:16 *209:25 0.00200112
20 *147:28 *209:17 6.05161e-06
21 *154:10 *209:25 0.000465614
22 *158:22 *11263:A1 0
23 *197:18 *209:25 6.8646e-06
*RES
1 *11515:DO[13] *209:17 37.4018 
2 *209:17 *209:25 45.25 
3 *209:25 *11263:A1 27.0321 
*END

*D_NET *210 0.0140414
*CONN
*I *11266:A1 I *D sky130_fd_sc_hd__o221a_2
*I *11515:DO[14] O *D CF_SRAM_1024x32
*CAP
1 *11266:A1 0.000447973
2 *11515:DO[14] 0.000387774
3 *210:11 0.00146668
4 *210:7 0.00140648
5 *11266:A1 *382:47 0.000547218
6 *11266:A1 *625:22 0.00121394
7 *11266:A1 *628:8 4.88637e-05
8 *210:7 *11515:DI[14] 0.000746189
9 *210:11 *232:23 8.2769e-05
10 *210:11 *374:24 0.000116612
11 *210:11 *382:51 0
12 *210:11 *558:10 0.00142065
13 *210:11 *558:23 0.000102189
14 *210:11 *558:35 0.000618372
15 *210:11 *558:47 0.000531131
16 *210:11 *590:14 0.000108771
17 *123:16 *11266:A1 0.00232427
18 *147:28 *210:11 3.40335e-05
19 *148:38 *210:11 0.00132708
20 *208:11 *210:11 0.00111036
*RES
1 *11515:DO[14] *210:7 11.9554 
2 *210:7 *210:11 43.1786 
3 *210:11 *11266:A1 31.6036 
*END

*D_NET *211 0.00651677
*CONN
*I *11269:A1 I *D sky130_fd_sc_hd__o221a_2
*I *11515:DO[15] O *D CF_SRAM_1024x32
*CAP
1 *11269:A1 0
2 *11515:DO[15] 0.001746
3 *211:13 0.001746
4 *211:13 *11515:BEN[14] 0
5 *211:13 *11515:DI[15] 0
6 *211:13 *227:21 0.000296701
7 *211:13 *235:15 0.00103794
8 *211:13 *588:20 0
9 *211:13 *624:26 0.00014784
10 *211:13 *625:22 0.000187569
11 *135:10 *211:13 0.000125726
12 *137:10 *211:13 2.16719e-05
13 *145:60 *211:13 0.00120733
*RES
1 *11515:DO[15] *211:13 48.3304 
2 *211:13 *11269:A1 9.3 
*END

*D_NET *212 0.037713
*CONN
*I *701:DIODE I *D sky130_fd_sc_hd__diode_2
*I *11272:A1 I *D sky130_fd_sc_hd__o221a_2
*I *702:DIODE I *D sky130_fd_sc_hd__diode_2
*I *11515:DO[16] O *D CF_SRAM_1024x32
*CAP
1 *701:DIODE 7.97441e-05
2 *11272:A1 5.40379e-05
3 *702:DIODE 0
4 *11515:DO[16] 0.000603018
5 *212:35 0.000403462
6 *212:31 0.00124137
7 *212:23 0.0078989
8 *212:21 0.00719202
9 *212:12 0.000860359
10 *212:4 7.46181e-06
11 *701:DIODE *11204:A_N 0.000221634
12 *701:DIODE *11204:B 2.55315e-05
13 *701:DIODE *602:12 2.79421e-05
14 *212:12 *11515:ScanInDR 0.000962663
15 *212:12 *11515:DI[16] 0.000534436
16 *212:12 *396:102 0.000221212
17 *212:23 *229:34 0.000310367
18 *212:23 *243:17 0.00436733
19 *212:23 *555:8 0.00490397
20 *212:31 *549:10 0.00267026
21 *212:31 *596:12 9.10431e-06
22 *212:35 *11204:A_N 0.000763005
23 *212:35 *11204:B 0.00010883
24 *11272:A2 *11272:A1 4.1896e-06
25 *11272:A2 *212:35 1.21258e-05
26 *11272:B2 *212:35 0.000216755
27 *112:10 *212:31 0.000169194
28 *125:14 *212:31 0.00302426
29 *153:20 *212:23 0.000127383
30 *200:22 *212:23 0.000686398
31 *200:22 *212:31 6.05161e-06
*RES
1 *11515:DO[16] *212:4 0.142857 
2 *11515:DO[16] *212:12 14.4107 
3 *212:12 *702:DIODE 9.3 
4 *212:12 *212:21 7.08929 
5 *212:21 *212:23 125.804 
6 *212:23 *212:31 49.5536 
7 *212:31 *212:35 12.0179 
8 *212:35 *11272:A1 10.0321 
9 *212:35 *701:DIODE 11.4786 
*END

*D_NET *213 0.0402911
*CONN
*I *11275:A1 I *D sky130_fd_sc_hd__o221a_2
*I *703:DIODE I *D sky130_fd_sc_hd__diode_2
*I *704:DIODE I *D sky130_fd_sc_hd__diode_2
*I *11515:DO[17] O *D CF_SRAM_1024x32
*CAP
1 *11275:A1 0.000401499
2 *703:DIODE 0
3 *704:DIODE 0
4 *11515:DO[17] 0.000694941
5 *213:37 0.000572353
6 *213:33 0.00342521
7 *213:31 0.00329521
8 *213:29 0.00194166
9 *213:27 0.00287477
10 *213:18 0.00166051
11 *213:4 8.39453e-06
12 *213:18 *11515:BEN[16] 0.000260152
13 *213:18 *11515:WLBI 0.000962663
14 *213:18 *11515:DI[17] 0.000185801
15 *213:18 *378:89 0.000235837
16 *213:18 *422:65 4.0342e-06
17 *213:18 *461:36 0.000229768
18 *213:18 *474:78 4.58194e-05
19 *213:27 *11515:BEN[16] 9.66977e-05
20 *213:33 *11236:A1 4.24541e-05
21 *11275:A2 *11275:A1 3.20768e-05
22 *11275:B1 *11275:A1 0.000220096
23 *11275:B1 *213:37 5.33005e-05
24 *126:10 *213:33 0
25 *127:10 *213:33 0.00441558
26 *128:10 *213:29 0.00551062
27 *128:10 *213:33 0.000113522
28 *129:8 *213:33 0.000442633
29 *132:22 *213:33 6.35083e-05
30 *134:18 *213:33 0.000182845
31 *140:130 *213:37 0.000180066
32 *143:106 *213:33 0.000966261
33 *143:132 *213:33 0.000241191
34 *146:18 *213:29 0.00278251
35 *146:18 *213:33 0.000659728
36 *160:10 *213:33 0.0074894
37 *202:60 *213:33 0
38 *202:69 *213:33 0
*RES
1 *11515:DO[17] *213:4 0.160714 
2 *11515:DO[17] *213:18 24.3214 
3 *213:18 *704:DIODE 9.3 
4 *213:18 *213:27 14.4821 
5 *213:27 *213:29 71.1161 
6 *213:29 *213:31 0.535714 
7 *213:31 *213:33 112.188 
8 *213:33 *213:37 6.67857 
9 *213:37 *703:DIODE 9.3 
10 *213:37 *11275:A1 14.2643 
*END

*D_NET *214 0.0502905
*CONN
*I *705:DIODE I *D sky130_fd_sc_hd__diode_2
*I *11278:A1 I *D sky130_fd_sc_hd__o221a_2
*I *706:DIODE I *D sky130_fd_sc_hd__diode_2
*I *11515:DO[18] O *D CF_SRAM_1024x32
*CAP
1 *705:DIODE 0
2 *11278:A1 0.000463032
3 *706:DIODE 0
4 *11515:DO[18] 0.000901155
5 *214:26 0.00129904
6 *214:22 0.00532858
7 *214:20 0.00651149
8 *214:11 0.00292009
9 *11278:A1 *604:12 1.58163e-05
10 *214:11 *11515:DI[18] 0.000252963
11 *214:20 *11515:DI[18] 8.28223e-06
12 *214:22 *217:22 0.0167222
13 *214:22 *225:26 0.0001139
14 *214:22 *241:53 0.00577834
15 *214:22 *246:69 0
16 *214:22 *259:19 0.00123949
17 *214:22 *597:12 0
18 *11278:A2 *11278:A1 4.1896e-06
19 *113:10 *214:22 0.00511942
20 *140:16 *11278:A1 5.52302e-05
21 *140:24 *11278:A1 0.000328713
22 *140:34 *11278:A1 0.00029138
23 *143:16 *214:22 0.00153583
24 *145:35 *11278:A1 0.00036695
25 *145:41 *11278:A1 0.000247452
26 *145:41 *214:26 0.000122494
27 *148:24 *214:26 0.000664461
*RES
1 *11515:DO[18] *214:11 13.0714 
2 *214:11 *706:DIODE 9.3 
3 *214:11 *214:20 26.3929 
4 *214:20 *214:22 217.179 
5 *214:22 *214:26 16.125 
6 *214:26 *11278:A1 29.2295 
7 *214:26 *705:DIODE 9.3 
*END

*D_NET *215 0.0498386
*CONN
*I *11284:A1 I *D sky130_fd_sc_hd__o221a_2
*I *707:DIODE I *D sky130_fd_sc_hd__diode_2
*I *708:DIODE I *D sky130_fd_sc_hd__diode_2
*I *11515:DO[19] O *D CF_SRAM_1024x32
*CAP
1 *11284:A1 0.000142606
2 *707:DIODE 0
3 *708:DIODE 0
4 *11515:DO[19] 0.000990592
5 *215:32 0.000851863
6 *215:28 0.00137664
7 *215:22 0.00840839
8 *215:20 0.010022
9 *215:11 0.00327157
10 *11284:A1 *567:16 0.000300815
11 *215:11 *11515:DI[19] 0
12 *215:22 *218:22 0.0177501
13 *215:28 *563:36 0.00144761
14 *215:28 *589:22 0.000624833
15 *215:28 *602:14 0.00424228
16 *215:32 *567:16 0
17 *11212:B *215:32 3.83425e-05
18 *11284:A2 *11284:A1 5.01867e-05
19 *11284:B1 *11284:A1 1.28809e-05
20 *11284:B2 *11284:A1 9.60875e-05
21 *11284:C1 *11284:A1 0.000179628
22 *140:16 *215:32 0
23 *169:28 *11284:A1 3.22121e-05
*RES
1 *11515:DO[19] *215:11 13.0893 
2 *215:11 *708:DIODE 9.3 
3 *215:11 *215:20 30.0893 
4 *215:20 *215:22 224.161 
5 *215:22 *215:28 48.9643 
6 *215:28 *215:32 15.25 
7 *215:32 *707:DIODE 9.3 
8 *215:32 *11284:A1 14.5143 
*END

*D_NET *216 0.0424773
*CONN
*I *710:DIODE I *D sky130_fd_sc_hd__diode_2
*I *709:DIODE I *D sky130_fd_sc_hd__diode_2
*I *11222:A1 I *D sky130_fd_sc_hd__o221a_1
*I *11515:DO[1] O *D CF_SRAM_1024x32
*CAP
1 *710:DIODE 0.000542925
2 *709:DIODE 0
3 *11222:A1 0.000118024
4 *11515:DO[1] 0.000212469
5 *216:29 0.00183373
6 *216:21 0.00574943
7 *216:7 0.00478912
8 *710:DIODE *11515:DI[1] 0.000268422
9 *216:7 *11515:DI[1] 0.000155729
10 *216:21 *230:23 0.0117495
11 *216:21 *369:41 4.33002e-05
12 *216:21 *383:64 4.33002e-05
13 *216:29 *230:23 0.00300212
14 *216:29 *230:27 0.000206327
15 *11228:B2 *216:29 0.000539368
16 *11237:A2 *216:29 0.000145255
17 *3:23 *216:29 2.33863e-05
18 *119:42 *11222:A1 5.52302e-05
19 *119:44 *11222:A1 0.000226828
20 *205:21 *216:21 0.0127729
*RES
1 *11515:DO[1] *216:7 4.00893 
2 *216:7 *216:21 46.0593 
3 *216:21 *216:29 19.8489 
4 *216:29 *11222:A1 11.8893 
5 *216:29 *709:DIODE 9.3 
6 *216:7 *710:DIODE 18.05 
*END

*D_NET *217 0.071478
*CONN
*I *11289:A1 I *D sky130_fd_sc_hd__o221a_2
*I *712:DIODE I *D sky130_fd_sc_hd__diode_2
*I *713:DIODE I *D sky130_fd_sc_hd__diode_2
*I *11515:DO[20] O *D CF_SRAM_1024x32
*CAP
1 *11289:A1 0.000147606
2 *712:DIODE 0
3 *713:DIODE 0
4 *11515:DO[20] 0.000809715
5 *217:32 0.00124347
6 *217:26 0.00274741
7 *217:24 0.00165155
8 *217:22 0.00421374
9 *217:20 0.00624741
10 *217:11 0.00284339
11 *11289:A1 *584:56 5.33005e-05
12 *11289:A1 *607:16 0.00010096
13 *217:11 *11515:DI[20] 0.000459504
14 *217:11 *630:10 4.66781e-05
15 *217:20 *11515:DI[20] 1.07719e-05
16 *217:22 *225:26 6.00369e-05
17 *217:22 *226:26 0.0181501
18 *217:26 *218:26 0.00861761
19 *217:26 *219:26 2.44318e-05
20 *217:26 *220:26 1.74352e-05
21 *217:26 *596:14 0.00598691
22 *217:26 *603:12 4.61858e-05
23 *217:26 *611:12 0
24 *217:32 *584:56 3.17148e-05
25 *11208:A *217:32 0.000232833
26 *11289:A2 *217:32 0
27 *113:10 *217:22 0.000814128
28 *115:16 *217:32 0
29 *165:34 *11289:A1 0.000198879
30 *172:34 *217:32 0
31 *214:22 *217:22 0.0167222
*RES
1 *11515:DO[20] *217:11 13.1071 
2 *217:11 *713:DIODE 9.3 
3 *217:11 *217:20 26.8036 
4 *217:20 *217:22 230.536 
5 *217:22 *217:24 4.5 
6 *217:24 *217:26 83.9107 
7 *217:26 *217:32 26.4286 
8 *217:32 *712:DIODE 9.3 
9 *217:32 *11289:A1 12.7464 
*END

*D_NET *218 0.0762562
*CONN
*I *11292:A1 I *D sky130_fd_sc_hd__o221a_2
*I *714:DIODE I *D sky130_fd_sc_hd__diode_2
*I *715:DIODE I *D sky130_fd_sc_hd__diode_2
*I *11515:DO[21] O *D CF_SRAM_1024x32
*CAP
1 *11292:A1 0.000106633
2 *714:DIODE 0
3 *715:DIODE 0
4 *11515:DO[21] 0.000900467
5 *218:32 0.00118607
6 *218:26 0.00248768
7 *218:24 0.00140824
8 *218:22 0.00404661
9 *218:20 0.00628451
10 *218:11 0.00313837
11 *11292:A1 *338:28 0.00044468
12 *11292:A1 *608:12 5.42698e-05
13 *218:11 *11515:DI[21] 0.000264749
14 *218:20 *11515:DI[21] 4.76891e-06
15 *218:22 *219:22 0.0193116
16 *218:22 *221:22 8.46259e-06
17 *218:26 *219:26 0.00988119
18 *218:26 *611:12 0
19 *218:32 *396:18 0
20 *11289:A2 *11292:A1 1.02296e-05
21 *11292:A2 *11292:A1 3.02742e-05
22 *11292:B1 *11292:A1 5.4754e-05
23 *11292:B2 *11292:A1 8.08476e-06
24 *11292:B2 *218:32 0
25 *165:22 *11292:A1 0.000230475
26 *170:18 *11292:A1 2.65105e-05
27 *215:22 *218:22 0.0177501
28 *217:26 *218:26 0.00861761
*RES
1 *11515:DO[21] *218:11 13.3929 
2 *218:11 *715:DIODE 9.3 
3 *218:11 *218:20 29.6786 
4 *218:20 *218:22 239.946 
5 *218:22 *218:24 4.5 
6 *218:24 *218:26 92.9464 
7 *218:26 *218:32 25.5179 
8 *218:32 *714:DIODE 9.3 
9 *218:32 *11292:A1 23.2643 
*END

*D_NET *219 0.0815454
*CONN
*I *716:DIODE I *D sky130_fd_sc_hd__diode_2
*I *11295:A1 I *D sky130_fd_sc_hd__o221a_2
*I *717:DIODE I *D sky130_fd_sc_hd__diode_2
*I *11515:DO[22] O *D CF_SRAM_1024x32
*CAP
1 *716:DIODE 0.000268901
2 *11295:A1 0
3 *717:DIODE 0
4 *11515:DO[22] 0.00100593
5 *219:34 0.00127726
6 *219:26 0.00253208
7 *219:24 0.00152372
8 *219:22 0.00401171
9 *219:20 0.00622062
10 *219:11 0.00321484
11 *716:DIODE *609:12 1.41642e-05
12 *219:11 *11515:DI[22] 0
13 *219:22 *220:22 0.0200696
14 *219:22 *221:22 1.30594e-05
15 *219:26 *220:26 0.0110595
16 *219:26 *611:12 0
17 *11295:B1 *219:34 0.000151667
18 *11295:B2 *219:34 0.00051142
19 *118:57 *716:DIODE 9.54798e-06
20 *165:12 *716:DIODE 1.95763e-05
21 *165:12 *219:34 0
22 *167:86 *219:34 0.000404676
23 *170:48 *716:DIODE 0
24 *172:34 *219:34 1.99461e-05
25 *217:26 *219:26 2.44318e-05
26 *218:22 *219:22 0.0193116
27 *218:26 *219:26 0.00988119
*RES
1 *11515:DO[22] *219:11 13.375 
2 *219:11 *717:DIODE 9.3 
3 *219:11 *219:20 29.2679 
4 *219:20 *219:22 249.357 
5 *219:22 *219:24 4.5 
6 *219:24 *219:26 104.036 
7 *219:26 *219:34 24.7143 
8 *219:34 *11295:A1 13.8 
9 *219:34 *716:DIODE 17.0143 
*END

*D_NET *220 0.0877796
*CONN
*I *11298:A1 I *D sky130_fd_sc_hd__o221a_2
*I *718:DIODE I *D sky130_fd_sc_hd__diode_2
*I *719:DIODE I *D sky130_fd_sc_hd__diode_2
*I *11515:DO[23] O *D CF_SRAM_1024x32
*CAP
1 *11298:A1 0.000449711
2 *718:DIODE 0.000147658
3 *719:DIODE 0
4 *11515:DO[23] 0.000802453
5 *220:30 0.00116927
6 *220:26 0.00220585
7 *220:24 0.00163395
8 *220:22 0.0044931
9 *220:20 0.00658339
10 *220:11 0.00289275
11 *718:DIODE *11614:A 0.000235611
12 *718:DIODE *585:20 0
13 *11298:A1 *371:44 0.000397496
14 *220:11 *11515:DI[23] 0.000806473
15 *220:20 *11203:A 5.49544e-05
16 *220:20 *11515:DI[23] 1.90303e-05
17 *220:22 *221:22 0.0205076
18 *220:26 *603:12 0.0120562
19 *220:26 *611:12 0
20 *220:30 *11614:A 0.00092062
21 *220:30 *485:14 0
22 *11298:B2 *11298:A1 7.68852e-05
23 *115:30 *718:DIODE 1.37292e-05
24 *143:10 *220:30 0.000359943
25 *172:34 *718:DIODE 9.25014e-06
26 *172:34 *220:30 0.000609591
27 *204:8 *220:20 0.000187497
28 *217:26 *220:26 1.74352e-05
29 *219:22 *220:22 0.0200696
30 *219:26 *220:26 0.0110595
*RES
1 *11515:DO[23] *220:11 13.3571 
2 *220:11 *719:DIODE 9.3 
3 *220:11 *220:20 28.8571 
4 *220:20 *220:22 258.768 
5 *220:22 *220:24 4.5 
6 *220:24 *220:26 113.482 
7 *220:26 *220:30 21.3214 
8 *220:30 *718:DIODE 16.9607 
9 *220:30 *11298:A1 29.7821 
*END

*D_NET *221 0.0913524
*CONN
*I *720:DIODE I *D sky130_fd_sc_hd__diode_2
*I *11301:A1 I *D sky130_fd_sc_hd__o221a_2
*I *721:DIODE I *D sky130_fd_sc_hd__diode_2
*I *11515:DO[24] O *D CF_SRAM_1024x32
*CAP
1 *720:DIODE 3.35839e-05
2 *11301:A1 0
3 *721:DIODE 0
4 *11515:DO[24] 0.000904623
5 *221:32 0.000739739
6 *221:26 0.00241702
7 *221:24 0.00171087
8 *221:22 0.0052006
9 *221:20 0.0070055
10 *221:11 0.00270952
11 *221:11 *11515:DI[24] 5.85784e-05
12 *221:22 *223:24 0.021677
13 *221:22 *225:26 1.30594e-05
14 *221:26 *223:28 0.0133711
15 *221:26 *228:26 0.0133728
16 *221:32 *11615:A 0
17 *221:32 *380:18 8.50795e-06
18 *221:32 *483:14 0
19 *11301:B2 *221:32 5.56869e-05
20 *145:41 *221:26 0.000133145
21 *165:130 *720:DIODE 0.000230475
22 *173:97 *720:DIODE 0.000228558
23 *173:97 *221:32 3.17148e-05
24 *202:16 *221:32 0.000921227
25 *218:22 *221:22 8.46259e-06
26 *219:22 *221:22 1.30594e-05
27 *220:22 *221:22 0.0205076
*RES
1 *11515:DO[24] *221:11 13.0357 
2 *221:11 *721:DIODE 9.3 
3 *221:11 *221:20 28.4464 
4 *221:20 *221:22 273.946 
5 *221:22 *221:24 4.5 
6 *221:24 *221:26 126.214 
7 *221:26 *221:32 23.6964 
8 *221:32 *11301:A1 9.3 
9 *221:32 *720:DIODE 11.4786 
*END

*D_NET *222 0.080393
*CONN
*I *723:DIODE I *D sky130_fd_sc_hd__diode_2
*I *11304:A1 I *D sky130_fd_sc_hd__o221a_2
*I *724:DIODE I *D sky130_fd_sc_hd__diode_2
*I *11515:DO[25] O *D CF_SRAM_1024x32
*CAP
1 *723:DIODE 0
2 *11304:A1 0.000362333
3 *724:DIODE 0
4 *11515:DO[25] 0.000923999
5 *222:40 0.00156843
6 *222:36 0.00420762
7 *222:34 0.00470693
8 *222:28 0.00755606
9 *222:26 0.00766693
10 *222:17 0.00274027
11 *11304:A1 *612:12 0
12 *11304:A1 *613:12 9.25014e-06
13 *222:17 *11515:DI[24] 0.000422722
14 *222:17 *11515:DI[25] 0.00015617
15 *222:17 *394:60 0.000566428
16 *222:17 *463:36 0.000564781
17 *222:28 *11515:DI[10] 6.87203e-05
18 *222:28 *224:36 0.0216622
19 *222:28 *241:53 0
20 *222:28 *246:69 0.00373509
21 *222:28 *262:19 0.00387509
22 *222:28 *363:66 0.00194196
23 *222:34 *224:40 0.00254981
24 *222:36 *224:40 0.00985605
25 *222:40 *11615:A 0
26 *222:40 *247:27 0.000460067
27 *222:40 *247:43 3.99767e-05
28 *222:40 *478:14 0
29 *222:40 *612:12 0
30 *11304:A2 *11304:A1 2.06178e-05
31 *3:25 *222:28 0.000113898
32 *113:10 *222:28 0
33 *143:16 *222:28 0
34 *164:10 *222:28 0.00365903
35 *165:130 *11304:A1 0.000115609
36 *165:134 *11304:A1 0.000171535
37 *171:79 *222:40 9.10592e-05
38 *173:110 *11304:A1 5.52302e-05
39 *183:28 *11304:A1 5.37741e-06
40 *204:10 *222:28 0.000519753
*RES
1 *11515:DO[25] *222:17 29.6071 
2 *222:17 *724:DIODE 9.3 
3 *222:17 *222:26 23.1071 
4 *222:26 *222:28 268.786 
5 *222:28 *222:34 49.2054 
6 *222:34 *222:36 92.7411 
7 *222:36 *222:40 26.1786 
8 *222:40 *11304:A1 28.8179 
9 *222:40 *723:DIODE 13.8 
*END

*D_NET *223 0.100129
*CONN
*I *725:DIODE I *D sky130_fd_sc_hd__diode_2
*I *11307:A1 I *D sky130_fd_sc_hd__o221a_2
*I *726:DIODE I *D sky130_fd_sc_hd__diode_2
*I *11515:DO[26] O *D CF_SRAM_1024x32
*CAP
1 *725:DIODE 4.88353e-05
2 *11307:A1 0.000600096
3 *726:DIODE 0
4 *11515:DO[26] 0.000918903
5 *223:32 0.00172445
6 *223:28 0.00310442
7 *223:26 0.0020289
8 *223:24 0.00546745
9 *223:22 0.00715876
10 *223:13 0.00261021
11 *11307:A1 *11330:A 1.01417e-05
12 *11307:A1 *11332:A 7.69776e-06
13 *11307:A1 *11617:A 0
14 *11307:A1 *614:16 7.4048e-05
15 *223:13 *11515:DI[26] 0.000536327
16 *223:22 *1046:DIODE 3.50858e-05
17 *223:22 *11232:A0 3.68347e-05
18 *223:22 *294:32 0.000139485
19 *223:22 *301:37 5.38593e-06
20 *223:24 *225:26 0.023407
21 *223:24 *327:25 0.00111115
22 *223:28 *228:26 0.000700287
23 *223:28 *602:14 0.0121562
24 *223:32 *11332:A 0.000239878
25 *223:32 *228:32 0
26 *223:32 *448:28 0
27 *11232:S *223:22 2.59355e-05
28 *11307:B2 *11307:A1 5.02464e-06
29 *11319:B2 *223:32 0
30 *132:8 *223:22 9.58181e-05
31 *145:41 *223:28 0.000129701
32 *165:147 *11307:A1 0.000180072
33 *168:43 *223:32 0.000387439
34 *170:102 *11307:A1 0.000478348
35 *170:106 *11307:A1 0.000131421
36 *173:110 *725:DIODE 9.90367e-05
37 *173:125 *11307:A1 6.09682e-05
38 *175:12 *223:28 0.00136533
39 *221:22 *223:24 0.021677
40 *221:26 *223:28 0.0133711
*RES
1 *11515:DO[26] *223:13 14.3393 
2 *223:13 *726:DIODE 9.3 
3 *223:13 *223:22 28.0357 
4 *223:22 *223:24 295.5 
5 *223:24 *223:26 4.5 
6 *223:26 *223:28 138.536 
7 *223:28 *223:32 19.1964 
8 *223:32 *11307:A1 24.8736 
9 *223:32 *725:DIODE 14.7464 
*END

*D_NET *224 0.10288
*CONN
*I *11310:A1 I *D sky130_fd_sc_hd__o221a_2
*I *727:DIODE I *D sky130_fd_sc_hd__diode_2
*I *728:DIODE I *D sky130_fd_sc_hd__diode_2
*I *11515:DO[27] O *D CF_SRAM_1024x32
*CAP
1 *11310:A1 0.000378251
2 *727:DIODE 0
3 *728:DIODE 0
4 *11515:DO[27] 0.00110693
5 *224:48 0.00200818
6 *224:40 0.00401946
7 *224:38 0.00238954
8 *224:36 0.00531211
9 *224:34 0.00533865
10 *224:32 0.00151575
11 *224:13 0.00259614
12 *11310:A1 *11617:A 0
13 *224:13 *1176:DIODE 5.33005e-05
14 *224:13 *11515:DI[27] 0.00017139
15 *224:32 *11220:A1 9.33978e-07
16 *224:32 *299:18 0.00119945
17 *224:32 *301:37 0.000767008
18 *224:32 *329:35 0.000455947
19 *224:32 *329:37 0.000163455
20 *224:32 *329:39 0.000165606
21 *224:32 *329:41 0.000378515
22 *224:32 *329:43 5.33005e-05
23 *224:32 *363:66 0.000160692
24 *224:36 *239:69 5.30413e-05
25 *224:36 *239:71 0.000216013
26 *224:36 *244:19 0.00224957
27 *224:36 *244:21 0.000178018
28 *224:36 *244:23 2.70899e-05
29 *224:36 *263:19 0.00400581
30 *224:36 *363:66 0.00145703
31 *224:36 *563:38 0.00202187
32 *224:36 *563:57 0.00285333
33 *224:40 *229:42 0.0161243
34 *224:48 *11287:A1 0
35 *224:48 *11330:A 0
36 *224:48 *474:26 0
37 *224:48 *614:16 0
38 *11307:B2 *224:48 0
39 *11313:A2 *11310:A1 5.52302e-05
40 *11313:C1 *11310:A1 5.52302e-05
41 *11322:B1 *11310:A1 0.000620606
42 *11322:C1 *11310:A1 3.47641e-06
43 *3:25 *224:36 0.000113898
44 *118:104 *11310:A1 2.05484e-05
45 *142:10 *224:32 9.39059e-05
46 *164:10 *224:36 2.59093e-05
47 *165:147 *11310:A1 6.71755e-05
48 *165:147 *224:48 8.80543e-05
49 *170:106 *11310:A1 0.000256242
50 *170:127 *11310:A1 0.000473792
51 *173:125 *11310:A1 0.000137983
52 *173:125 *224:48 0.000175892
53 *185:14 *224:40 0.00040085
54 *200:46 *224:36 0.000101776
55 *200:66 *224:32 0.000333925
56 *200:66 *224:36 0.00780348
57 *203:44 *224:32 0.000120791
58 *204:10 *224:32 0.000133016
59 *204:10 *224:36 0.000309109
60 *222:28 *224:36 0.0216622
61 *222:34 *224:40 0.00254981
62 *222:36 *224:40 0.00985605
*RES
1 *11515:DO[27] *224:13 16.2679 
2 *224:13 *728:DIODE 9.3 
3 *224:13 *224:32 49.8125 
4 *224:32 *224:34 0.535714 
5 *224:34 *224:36 279.562 
6 *224:36 *224:38 4.5 
7 *224:38 *224:40 152.089 
8 *224:40 *224:48 32.1429 
9 *224:48 *727:DIODE 9.3 
10 *224:48 *11310:A1 29.3016 
*END

*D_NET *225 0.107831
*CONN
*I *11313:A1 I *D sky130_fd_sc_hd__o221a_2
*I *729:DIODE I *D sky130_fd_sc_hd__diode_2
*I *730:DIODE I *D sky130_fd_sc_hd__diode_2
*I *11515:DO[28] O *D CF_SRAM_1024x32
*CAP
1 *11313:A1 0.000359468
2 *729:DIODE 0
3 *730:DIODE 0
4 *11515:DO[28] 0.00110563
5 *225:36 0.00106202
6 *225:30 0.00399804
7 *225:28 0.00329549
8 *225:26 0.00579125
9 *225:24 0.00731859
10 *225:11 0.00263296
11 *11313:A1 *426:22 0
12 *11313:A1 *615:12 0.000366107
13 *225:11 *1194:DIODE 2.5868e-05
14 *225:11 *11515:DI[28] 0.000417874
15 *225:11 *332:65 2.47753e-05
16 *225:24 *998:DIODE 4.38136e-05
17 *225:24 *332:65 1.90303e-05
18 *225:26 *226:26 0.0245083
19 *225:26 *309:29 0.000347102
20 *225:26 *327:25 0.000616273
21 *225:30 *228:26 0.014924
22 *225:30 *393:16 0.00956314
23 *225:30 *504:14 0.000999493
24 *225:36 *891:DIODE 0
25 *225:36 *250:29 0
26 *225:36 *363:16 2.06178e-05
27 *225:36 *426:22 0.000371645
28 *225:36 *463:14 9.20202e-05
29 *697:DIODE *225:36 3.48901e-05
30 *11313:B1 *225:36 0
31 *11313:B2 *11313:A1 4.1331e-06
32 *11313:B2 *225:36 0
33 *11313:C1 *11313:A1 0
34 *145:41 *225:30 0.000240055
35 *175:12 *225:30 6.37797e-06
36 *179:16 *225:30 0.00496836
37 *193:12 *225:30 0.000747623
38 *195:18 *225:36 0.000310995
39 *203:36 *225:24 2.10824e-05
40 *214:22 *225:26 0.0001139
41 *217:22 *225:26 6.00369e-05
42 *221:22 *225:26 1.30594e-05
43 *223:24 *225:26 0.023407
*RES
1 *11515:DO[28] *225:11 17.0536 
2 *225:11 *730:DIODE 9.3 
3 *225:11 *225:24 25.3036 
4 *225:24 *225:26 315.536 
5 *225:26 *225:28 4.5 
6 *225:28 *225:30 164.411 
7 *225:30 *225:36 24 
8 *225:36 *729:DIODE 9.3 
9 *225:36 *11313:A1 23.5679 
*END

*D_NET *226 0.106403
*CONN
*I *734:DIODE I *D sky130_fd_sc_hd__diode_2
*I *731:DIODE I *D sky130_fd_sc_hd__diode_2
*I *11316:A1 I *D sky130_fd_sc_hd__o221a_2
*I *732:DIODE I *D sky130_fd_sc_hd__diode_2
*I *11515:DO[29] O *D CF_SRAM_1024x32
*CAP
1 *734:DIODE 3.63635e-05
2 *731:DIODE 0
3 *11316:A1 0.000120361
4 *732:DIODE 0.000485992
5 *11515:DO[29] 0.00102398
6 *226:51 0.000489464
7 *226:34 0.00149656
8 *226:30 0.00347367
9 *226:28 0.00255057
10 *226:26 0.00602595
11 *226:24 0.0072951
12 *226:7 0.00277912
13 *732:DIODE *297:36 0.000332894
14 *734:DIODE *612:24 0.000182694
15 *734:DIODE *614:16 0.000169359
16 *11316:A1 *504:12 0
17 *226:7 *11515:DI[29] 0
18 *226:7 *229:22 0.000509408
19 *226:24 *1091:DIODE 0.000175892
20 *226:24 *229:22 4.58194e-05
21 *226:24 *304:59 0
22 *226:24 *308:42 4.08637e-05
23 *226:24 *308:44 0.000163455
24 *226:24 *323:33 5.61559e-05
25 *226:26 *309:29 0.000332699
26 *226:26 *326:27 0.00253229
27 *226:30 *229:42 0.00111322
28 *226:30 *247:23 0.00209648
29 *226:30 *603:12 0.0137459
30 *226:34 *11511:A 9.26565e-05
31 *226:34 *367:18 0.000152584
32 *226:34 *369:18 0.000306869
33 *226:34 *472:14 4.56225e-05
34 *226:34 *504:12 0
35 *226:51 *11511:A 9.25014e-06
36 *226:51 *504:12 6.54117e-05
37 *226:51 *612:24 0.00031432
38 *226:51 *614:16 0.000995536
39 *11310:B2 *226:34 0
40 *11316:A2 *11316:A1 3.47641e-06
41 *113:10 *226:26 0.00150319
42 *143:12 *226:30 0.012135
43 *175:10 *226:34 0.000109382
44 *181:22 *226:51 0.00065191
45 *191:32 *11316:A1 4.46488e-05
46 *191:32 *226:34 4.077e-05
47 *217:22 *226:26 0.0181501
48 *225:26 *226:26 0.0245083
*RES
1 *11515:DO[29] *226:7 16.1071 
2 *226:7 *732:DIODE 24.8536 
3 *226:7 *226:24 23.5179 
4 *226:24 *226:26 317.054 
5 *226:26 *226:28 4.5 
6 *226:28 *226:30 153.321 
7 *226:30 *226:34 22.9911 
8 *226:34 *11316:A1 15.8982 
9 *226:34 *226:51 16.7232 
10 *226:51 *731:DIODE 9.3 
11 *226:51 *734:DIODE 11.0679 
*END

*D_NET *227 0.0370132
*CONN
*I *736:DIODE I *D sky130_fd_sc_hd__diode_2
*I *11225:A1 I *D sky130_fd_sc_hd__o221a_1
*I *735:DIODE I *D sky130_fd_sc_hd__diode_2
*I *11515:DO[2] O *D CF_SRAM_1024x32
*CAP
1 *736:DIODE 0.00046704
2 *11225:A1 0
3 *735:DIODE 0.000240625
4 *11515:DO[2] 0.000189151
5 *227:27 0.00375362
6 *227:21 0.0125546
7 *227:7 0.00969775
8 *736:DIODE *11515:DI[2] 0.000331866
9 *736:DIODE *391:68 0.000122101
10 *227:7 *11515:DI[2] 0.000155729
11 *227:21 *235:9 0.000970431
12 *227:21 *365:48 0.000901404
13 *227:21 *369:41 4.33002e-05
14 *227:21 *383:64 4.33002e-05
15 *227:27 *234:23 0.000419924
16 *227:27 *393:12 0.000212909
17 *11219:A2 *735:DIODE 5.80706e-06
18 *11219:A2 *227:27 0.000173683
19 *11219:B1 *735:DIODE 9.24825e-05
20 *11219:B2 *227:27 0
21 *11225:B2 *227:27 0.000146204
22 *3:23 *227:27 0.00548083
23 *119:48 *735:DIODE 9.90367e-05
24 *133:18 *227:27 0.000295203
25 *135:16 *227:27 0.000290017
26 *201:88 *735:DIODE 2.95641e-05
27 *205:29 *227:27 0
28 *211:13 *227:21 0.000296701
*RES
1 *11515:DO[2] *227:7 3.5625 
2 *227:7 *227:21 41.7667 
3 *227:21 *227:27 22.1321 
4 *227:27 *735:DIODE 18.3536 
5 *227:27 *11225:A1 13.8 
6 *227:7 *736:DIODE 18.05 
*END

*D_NET *228 0.109721
*CONN
*I *738:DIODE I *D sky130_fd_sc_hd__diode_2
*I *11319:A1 I *D sky130_fd_sc_hd__o221a_2
*I *737:DIODE I *D sky130_fd_sc_hd__diode_2
*I *11515:DO[30] O *D CF_SRAM_1024x32
*CAP
1 *738:DIODE 0.000224681
2 *11319:A1 0.000342841
3 *737:DIODE 0
4 *11515:DO[30] 0.000592809
5 *228:32 0.000952729
6 *228:26 0.00325342
7 *228:24 0.00264353
8 *228:22 0.018131
9 *228:20 0.0183316
10 *228:12 0.00101808
11 *228:4 0
12 *738:DIODE *1070:DIODE 0.000135028
13 *738:DIODE *11515:DI[30] 5.66157e-05
14 *738:DIODE *558:129 0.000116481
15 *738:DIODE *631:68 3.25078e-05
16 *228:12 *11515:DI[30] 0.00055043
17 *228:20 *1068:DIODE 6.57032e-05
18 *228:20 *11515:DI[30] 4.53834e-05
19 *228:20 *558:129 0.000200413
20 *228:20 *631:68 8.02536e-05
21 *228:22 *11515:DI[23] 6.87181e-05
22 *228:22 *11515:DI[18] 4.38243e-05
23 *228:22 *11515:DI[16] 0.000260595
24 *228:22 *396:102 0.000226993
25 *228:22 *476:62 0.00367277
26 *228:22 *476:64 0.0050834
27 *228:22 *485:86 0.00207665
28 *228:22 *552:30 4.00349e-05
29 *228:22 *552:50 0.000596053
30 *228:22 *631:68 0.000328536
31 *228:26 *393:12 0.00190321
32 *228:26 *393:16 0.000187823
33 *228:26 *602:14 0.000326329
34 *228:32 *372:18 6.80212e-05
35 *228:32 *448:28 0.000851978
36 *11251:S *228:12 0.00020489
37 *11319:B1 *11319:A1 0
38 *11319:B2 *11319:A1 0.000194299
39 *11319:B2 *228:32 0.000603412
40 *11322:C1 *11319:A1 2.32517e-05
41 *122:93 *11319:A1 4.88637e-05
42 *127:14 *228:26 0.000818314
43 *141:24 *738:DIODE 5.49544e-05
44 *145:41 *228:26 0.000177621
45 *168:43 *228:32 0
46 *175:12 *228:26 5.75604e-05
47 *200:22 *228:22 0.00119975
48 *201:167 *228:22 0.014833
49 *221:26 *228:26 0.0133728
50 *223:28 *228:26 0.000700287
51 *223:32 *228:32 0
52 *225:30 *228:26 0.014924
*RES
1 *11515:DO[30] *228:4 0.175 
2 *11515:DO[30] *228:12 15.7143 
3 *228:12 *228:20 13.7321 
4 *228:20 *228:22 330.714 
5 *228:22 *228:24 4.5 
6 *228:24 *228:26 162.768 
7 *228:26 *228:32 25.2143 
8 *228:32 *737:DIODE 9.3 
9 *228:32 *11319:A1 14.1571 
10 *228:12 *738:DIODE 17.6214 
*END

*D_NET *229 0.118218
*CONN
*I *740:DIODE I *D sky130_fd_sc_hd__diode_2
*I *741:DIODE I *D sky130_fd_sc_hd__diode_2
*I *739:DIODE I *D sky130_fd_sc_hd__diode_2
*I *11322:A1 I *D sky130_fd_sc_hd__o221a_2
*I *11515:DO[31] O *D CF_SRAM_1024x32
*CAP
1 *740:DIODE 0.00053526
2 *741:DIODE 0.000118473
3 *739:DIODE 0
4 *11322:A1 7.83768e-05
5 *11515:DO[31] 0.000364858
6 *229:71 0.00119086
7 *229:46 0.00232255
8 *229:42 0.00467145
9 *229:40 0.00492286
10 *229:34 0.00665119
11 *229:32 0.00652782
12 *229:22 0.00251492
13 *229:12 0.00211522
14 *229:4 0
15 *740:DIODE *11515:DI[31] 0.000177545
16 *740:DIODE *376:48 0.000106403
17 *11322:A1 *615:12 2.78056e-05
18 *229:12 *11515:DI[31] 4.5547e-05
19 *229:22 *1079:DIODE 5.49544e-05
20 *229:22 *1087:DIODE 8.2607e-05
21 *229:22 *296:36 0.000777918
22 *229:22 *297:36 0.000740577
23 *229:22 *376:48 0.00155291
24 *229:22 *391:88 0.000258066
25 *229:22 *629:30 1.07719e-05
26 *229:32 *11226:A0 0.000100823
27 *229:32 *296:36 3.09983e-05
28 *229:32 *296:40 0.00052006
29 *229:32 *297:36 0.000665884
30 *229:32 *326:35 0.000211198
31 *229:32 *326:58 0.000158207
32 *229:34 *11262:A1 0.000171692
33 *229:34 *243:17 0.00654992
34 *229:34 *326:58 0.000249421
35 *229:34 *552:14 0.000981705
36 *229:34 *552:24 0.000954785
37 *229:34 *555:8 0.0112995
38 *229:40 *596:12 0.00273493
39 *229:42 *247:23 0.00288088
40 *229:42 *603:12 0.000116994
41 *229:46 *887:DIODE 0
42 *229:46 *11449:A 3.87701e-05
43 *229:46 *249:29 0
44 *229:46 *467:14 0
45 *229:46 *612:20 4.01319e-05
46 *229:71 *363:16 0
47 *697:DIODE *11322:A1 0
48 *697:DIODE *229:46 0
49 *11262:A0 *229:34 6.95556e-05
50 *11313:A2 *11322:A1 5.67847e-05
51 *11313:C1 *229:71 0.000354203
52 *112:10 *229:34 0.00565186
53 *112:10 *229:40 2.59045e-05
54 *112:20 *229:34 0.00254162
55 *117:131 *11322:A1 6.59342e-05
56 *117:131 *229:46 0.000302451
57 *121:18 *229:42 0.000774361
58 *134:8 *229:32 0.000245069
59 *134:8 *229:34 0.00776621
60 *143:12 *229:42 0.012301
61 *145:58 *229:40 0.000629075
62 *149:22 *229:22 0.000134168
63 *153:20 *229:32 0.000109425
64 *153:20 *229:34 0.00151227
65 *157:16 *740:DIODE 9.88679e-05
66 *157:16 *229:22 0.00155462
67 *178:55 *229:42 0.000145564
68 *181:22 *229:46 9.9129e-05
69 *183:14 *741:DIODE 0.000187464
70 *185:14 *229:42 0.000765772
71 *195:18 *229:46 0
72 *200:22 *229:34 0.000147971
73 *203:59 *229:32 0.00051433
74 *203:65 *229:32 0.000398772
75 *207:15 *229:34 1.721e-05
76 *207:15 *229:40 9.03127e-05
77 *212:23 *229:34 0.000310367
78 *224:40 *229:42 0.0161243
79 *226:7 *229:22 0.000509408
80 *226:24 *229:22 4.58194e-05
81 *226:30 *229:42 0.00111322
*RES
1 *11515:DO[31] *229:4 0.145833 
2 *11515:DO[31] *229:12 9.96429 
3 *229:12 *229:22 49.4554 
4 *229:22 *229:32 29.5893 
5 *229:32 *229:34 244.196 
6 *229:34 *229:40 40.8304 
7 *229:40 *229:42 179.196 
8 *229:42 *229:46 24.8125 
9 *229:46 *11322:A1 15.4964 
10 *229:46 *229:71 13.5896 
11 *229:71 *739:DIODE 9.3 
12 *229:71 *741:DIODE 11.0679 
13 *229:12 *740:DIODE 21.9786 
*END

*D_NET *230 0.0344912
*CONN
*I *743:DIODE I *D sky130_fd_sc_hd__diode_2
*I *11228:A1 I *D sky130_fd_sc_hd__o221a_1
*I *742:DIODE I *D sky130_fd_sc_hd__diode_2
*I *11515:DO[3] O *D CF_SRAM_1024x32
*CAP
1 *743:DIODE 0.00053115
2 *11228:A1 0
3 *742:DIODE 0.000316922
4 *11515:DO[3] 0.000189166
5 *230:27 0.000684977
6 *230:23 0.007209
7 *230:7 0.00756126
8 *742:DIODE *515:10 0
9 *743:DIODE *11413:A 0
10 *743:DIODE *11515:DI[3] 0.000584089
11 *230:7 *11515:DI[3] 0.000291951
12 *230:23 *369:41 1.90936e-05
13 *11228:A2 *230:27 7.71321e-05
14 *11228:B2 *742:DIODE 4.1331e-06
15 *11228:B2 *230:27 2.59795e-05
16 *11237:A2 *230:27 0.000192674
17 *11240:C1 *742:DIODE 1.02504e-05
18 *11240:C1 *230:27 0.000227021
19 *3:23 *230:23 0.00104898
20 *123:43 *230:27 0.000156
21 *197:18 *230:23 7.69776e-06
22 *201:71 *742:DIODE 0.000172309
23 *201:79 *742:DIODE 0.000223456
24 *216:21 *230:23 0.0117495
25 *216:29 *230:23 0.00300212
26 *216:29 *230:27 0.000206327
*RES
1 *11515:DO[3] *230:7 3.86607 
2 *230:7 *230:23 47.0796 
3 *230:23 *230:27 13.7046 
4 *230:27 *742:DIODE 18.3536 
5 *230:27 *11228:A1 13.8 
6 *230:7 *743:DIODE 18.05 
*END

*D_NET *231 0.0386248
*CONN
*I *746:DIODE I *D sky130_fd_sc_hd__diode_2
*I *11231:A1 I *D sky130_fd_sc_hd__o221a_1
*I *745:DIODE I *D sky130_fd_sc_hd__diode_2
*I *11515:DO[4] O *D CF_SRAM_1024x32
*CAP
1 *746:DIODE 0.000594182
2 *11231:A1 1.42885e-05
3 *745:DIODE 0.000373948
4 *11515:DO[4] 0.000348458
5 *231:21 0.00108886
6 *231:19 0.00126049
7 *231:13 0.00241386
8 *231:11 0.00279663
9 *745:DIODE *11391:A 2.8266e-06
10 *745:DIODE *621:16 0
11 *746:DIODE *11515:BEN[4] 1.22751e-05
12 *746:DIODE *380:28 0
13 *231:11 *11515:DI[4] 3.43463e-05
14 *231:11 *369:41 0.000130758
15 *231:11 *380:28 1.0878e-05
16 *231:13 *369:41 0.000750544
17 *231:19 *235:19 0.00376285
18 *231:21 *11243:A1 0.000326453
19 *231:21 *11391:A 4.25809e-05
20 *231:21 *621:16 0
21 *11231:A2 *745:DIODE 9.25014e-06
22 *11231:A2 *231:21 0.000328394
23 *11231:B2 *745:DIODE 0.000102197
24 *11231:B2 *11231:A1 5.52238e-05
25 *11231:C1 *745:DIODE 2.27416e-05
26 *11234:A2 *231:21 7.80714e-06
27 *11234:B2 *231:21 0.000593971
28 *11240:B2 *231:21 0
29 *11243:B2 *231:21 0.000915055
30 *11324:RESET_B *745:DIODE 2.99701e-05
31 *11324:RESET_B *11231:A1 5.33005e-05
32 *11390:A *745:DIODE 4.87854e-05
33 *121:18 *231:19 0.000144561
34 *125:18 *231:19 8.40933e-05
35 *137:16 *231:19 0.003889
36 *147:16 *746:DIODE 0.00013683
37 *156:10 *231:13 0.00806391
38 *158:10 *746:DIODE 0
39 *197:18 *231:11 0.000266905
40 *197:18 *231:13 0.00942983
41 *201:126 *231:21 1.81709e-05
42 *205:29 *231:19 0.000460617
*RES
1 *11515:DO[4] *231:11 11.9732 
2 *231:11 *231:13 117 
3 *231:13 *231:19 47.3214 
4 *231:19 *231:21 20.7679 
5 *231:21 *745:DIODE 19.0679 
6 *231:21 *11231:A1 14.3357 
7 *231:11 *746:DIODE 22.1393 
*END

*D_NET *232 0.034663
*CONN
*I *748:DIODE I *D sky130_fd_sc_hd__diode_2
*I *747:DIODE I *D sky130_fd_sc_hd__diode_2
*I *11234:A1 I *D sky130_fd_sc_hd__o221a_1
*I *11515:DO[5] O *D CF_SRAM_1024x32
*CAP
1 *748:DIODE 0.000318701
2 *747:DIODE 0
3 *11234:A1 0.000148365
4 *11515:DO[5] 0.000548769
5 *232:35 0.00186099
6 *232:33 0.00282786
7 *232:23 0.00275532
8 *232:21 0.00229497
9 *232:7 0.00152236
10 *748:DIODE *801:DIODE 5.33005e-05
11 *748:DIODE *241:63 5.96516e-05
12 *748:DIODE *241:72 0.000175892
13 *748:DIODE *376:28 9.63133e-05
14 *11234:A1 *625:12 0.000271132
15 *232:7 *11515:DI[5] 0.000354816
16 *232:7 *376:28 0.0001283
17 *232:21 *234:17 4.58194e-05
18 *232:21 *369:28 4.35849e-05
19 *232:21 *378:81 0.000436071
20 *232:21 *378:89 0.00149558
21 *232:21 *389:36 0.000184135
22 *232:21 *558:127 0.00153021
23 *232:23 *11515:DI[12] 6.86409e-05
24 *232:23 *233:19 0.00691511
25 *232:23 *378:81 2.33251e-05
26 *232:23 *389:24 0.000165345
27 *232:23 *389:36 0.00277976
28 *232:23 *558:69 7.84873e-05
29 *232:23 *558:81 7.00326e-05
30 *232:33 *236:17 7.79882e-05
31 *232:35 *598:12 3.32573e-06
32 *232:35 *625:12 0.000302959
33 *131:14 *232:33 5.06433e-05
34 *140:76 *232:35 0.0005153
35 *144:16 *232:33 0.00143636
36 *145:60 *232:35 0.000151071
37 *148:38 *232:23 0.000704119
38 *154:8 *232:7 0
39 *154:20 *232:33 5.81568e-05
40 *158:22 *232:33 0.00139447
41 *208:11 *232:23 0.00261154
42 *209:25 *232:33 2.14658e-05
43 *210:11 *232:23 8.2769e-05
*RES
1 *11515:DO[5] *232:7 9.77679 
2 *232:7 *232:21 39.9732 
3 *232:21 *232:23 88.0089 
4 *232:23 *232:33 41.625 
5 *232:33 *232:35 21.8929 
6 *232:35 *11234:A1 12.925 
7 *232:35 *747:DIODE 9.3 
8 *232:7 *748:DIODE 14.7643 
*END

*D_NET *233 0.0355993
*CONN
*I *11237:A1 I *D sky130_fd_sc_hd__o221a_2
*I *11515:DO[6] O *D CF_SRAM_1024x32
*CAP
1 *11237:A1 0.00032705
2 *11515:DO[6] 0.000715808
3 *233:23 0.00106298
4 *233:19 0.00243212
5 *233:17 0.00241199
6 *11237:A1 *625:12 0.000223846
7 *233:17 *11515:DI[6] 9.31011e-05
8 *233:17 *353:10 0.00121046
9 *233:17 *372:28 5.96516e-05
10 *233:17 *387:58 0.00113974
11 *233:17 *389:36 3.3986e-05
12 *233:17 *549:32 0.000178425
13 *233:19 *378:81 0.00458372
14 *233:19 *382:51 0.00244885
15 *233:23 *393:12 0.00475686
16 *11237:B1 *11237:A1 2.09072e-05
17 *11237:B2 *11237:A1 0.00081512
18 *11240:B2 *11237:A1 5.28368e-06
19 *11243:B2 *11237:A1 0.000183633
20 *11265:A0 *233:17 7.9908e-05
21 *3:23 *233:23 0.000358079
22 *127:14 *233:23 0.00475521
23 *137:8 *233:17 5.84943e-05
24 *148:38 *233:19 0.000160405
25 *156:8 *233:17 0.000424029
26 *201:132 *11237:A1 3.23658e-05
27 *206:11 *233:19 0.000112157
28 *232:23 *233:19 0.00691511
*RES
1 *11515:DO[6] *233:17 38.1875 
2 *233:17 *233:19 91.5 
3 *233:19 *233:23 49.8036 
4 *233:23 *11237:A1 28.7107 
*END

*D_NET *234 0.0349795
*CONN
*I *11240:A1 I *D sky130_fd_sc_hd__o221a_2
*I *11515:DO[7] O *D CF_SRAM_1024x32
*CAP
1 *11240:A1 0.000553987
2 *11515:DO[7] 0.000968727
3 *234:23 0.00168167
4 *234:21 0.00112768
5 *234:19 0.0018685
6 *234:17 0.00283722
7 *234:17 *11515:DI[7] 0.000262491
8 *234:17 *369:28 0.000584528
9 *234:17 *378:81 0.000898073
10 *234:17 *387:50 0.000546444
11 *234:17 *558:123 1.32921e-05
12 *234:17 *558:127 0.000301513
13 *234:19 *11407:A 0.00279552
14 *234:19 *383:48 0.0037408
15 *234:19 *588:22 5.19343e-05
16 *234:23 *588:20 5.89005e-05
17 *234:23 *611:12 0
18 *11240:A2 *11240:A1 0.000106533
19 *11240:B2 *11240:A1 0.00100728
20 *127:14 *234:23 0.000197167
21 *133:18 *234:23 0.00483803
22 *135:16 *234:23 0.00412606
23 *139:24 *234:23 5.19842e-06
24 *152:14 *234:19 0.00554388
25 *201:167 *234:19 0.000398347
26 *227:27 *234:23 0.000419924
27 *232:21 *234:17 4.58194e-05
*RES
1 *11515:DO[7] *234:17 37.4018 
2 *234:17 *234:19 84.5179 
3 *234:19 *234:21 4.5 
4 *234:21 *234:23 49.8214 
5 *234:23 *11240:A1 31.4786 
*END

*D_NET *235 0.0248008
*CONN
*I *11243:A1 I *D sky130_fd_sc_hd__o221a_2
*I *11515:DO[8] O *D CF_SRAM_1024x32
*CAP
1 *11243:A1 0.000709645
2 *11515:DO[8] 3.33008e-05
3 *235:19 0.00116968
4 *235:15 0.000690784
5 *235:9 0.00293557
6 *235:7 0.00273812
7 *235:7 *365:46 7.60969e-06
8 *235:7 *367:40 7.1412e-05
9 *235:9 *367:42 1.71788e-05
10 *235:19 *11515:vpwrac 0.000104053
11 *11231:B2 *11243:A1 0
12 *11234:A2 *11243:A1 0.000163046
13 *11234:B2 *11243:A1 0.00058556
14 *121:18 *235:19 0.00376092
15 *137:10 *235:9 0.00132309
16 *137:10 *235:15 0.00107831
17 *139:10 *235:9 0.00161484
18 *205:29 *235:19 0.000265482
19 *209:17 *235:9 0.00143457
20 *211:13 *235:15 0.00103794
21 *227:21 *235:9 0.000970431
22 *231:19 *235:19 0.00376285
23 *231:21 *11243:A1 0.000326453
*RES
1 *11515:DO[8] *235:7 5.38393 
2 *235:7 *235:9 67.7768 
3 *235:9 *235:15 18.3661 
4 *235:15 *235:19 39.9464 
5 *235:19 *11243:A1 30.0143 
*END

*D_NET *236 0.0236373
*CONN
*I *11249:A1 I *D sky130_fd_sc_hd__o221a_2
*I *11515:DO[9] O *D CF_SRAM_1024x32
*CAP
1 *11249:A1 0.000642167
2 *11515:DO[9] 0.000715973
3 *236:17 0.00142101
4 *236:11 0.00237049
5 *236:9 0.00230762
6 *11249:A1 *595:12 0
7 *236:9 *11515:DI[9] 8.52174e-05
8 *236:9 *365:28 0.000205748
9 *236:11 *387:50 0.00217971
10 *236:11 *588:22 0.00584247
11 *236:11 *591:57 0.00222207
12 *236:17 *611:12 0.00267139
13 *11249:B2 *11249:A1 0.000312065
14 *11254:C1 *11249:A1 4.25974e-05
15 *131:14 *236:17 0
16 *139:24 *236:17 0.000400894
17 *144:16 *236:17 0.000308697
18 *206:11 *236:11 0.000719378
19 *209:25 *236:17 0.00111178
20 *232:33 *236:17 7.79882e-05
*RES
1 *11515:DO[9] *236:9 15.6518 
2 *236:9 *236:11 74.1964 
3 *236:11 *236:17 41.5714 
4 *236:17 *11249:A1 26.3714 
*END

*D_NET *237 0.0613628
*CONN
*I *754:DIODE I *D sky130_fd_sc_hd__diode_2
*I *753:DIODE I *D sky130_fd_sc_hd__diode_2
*I *752:DIODE I *D sky130_fd_sc_hd__diode_2
*I *749:DIODE I *D sky130_fd_sc_hd__diode_2
*I *750:DIODE I *D sky130_fd_sc_hd__diode_2
*I *11216:A1 I *D sky130_fd_sc_hd__mux2_2
*I *751:DIODE I *D sky130_fd_sc_hd__diode_2
*I *11524:DO[0] O *D CF_SRAM_1024x32
*CAP
1 *754:DIODE 0.000143936
2 *753:DIODE 0
3 *752:DIODE 0
4 *749:DIODE 5.787e-05
5 *750:DIODE 0
6 *11216:A1 0
7 *751:DIODE 0.000724415
8 *11524:DO[0] 0.000129786
9 *237:64 0.000279675
10 *237:57 0.000712136
11 *237:27 0.000916889
12 *237:25 0.000243205
13 *237:23 0.00121224
14 *237:15 0.0158469
15 *237:13 0.0153937
16 *237:7 0.00135664
17 *749:DIODE *245:26 0.000198353
18 *751:DIODE *265:63 9.41642e-05
19 *237:7 *11524:ScanInCC 0
20 *237:7 *11524:DI[0] 6.86693e-05
21 *237:7 *396:50 2.59355e-05
22 *237:13 *11524:DI[1] 0.000189711
23 *237:13 *247:15 0.000847995
24 *237:13 *248:21 1.94945e-05
25 *237:13 *259:13 1.94945e-05
26 *237:13 *391:30 4.35849e-05
27 *237:13 *396:30 4.35849e-05
28 *237:15 *259:15 0
29 *237:15 *262:15 0
30 *237:15 *391:30 0
31 *237:15 *391:68 0
32 *237:23 *246:69 0.00309783
33 *237:23 *259:19 0.00115977
34 *237:57 *11524:ScanInCC 0
35 *237:57 *396:50 0.000366846
36 *11216:A0 *237:27 5.96516e-05
37 *11216:S *751:DIODE 0.000301438
38 *11216:S *237:27 4.08637e-05
39 *11236:A0 *751:DIODE 5.33005e-05
40 *111:10 *749:DIODE 0.000198353
41 *135:8 *751:DIODE 1.82549e-05
42 *143:80 *751:DIODE 5.33005e-05
43 *202:84 *751:DIODE 3.4137e-05
44 *202:93 *751:DIODE 0.000175892
45 *202:137 *237:15 0.016627
46 *202:139 *237:13 0.000607848
*RES
1 *11524:DO[0] *237:7 2.38393 
2 *237:7 *237:13 31.5618 
3 *237:13 *237:15 49.6289 
4 *237:15 *237:23 49.8475 
5 *237:23 *237:25 0.535714 
6 *237:25 *237:27 2.17857 
7 *237:27 *751:DIODE 18.05 
8 *237:27 *11216:A1 9.3 
9 *237:25 *750:DIODE 9.3 
10 *237:23 *749:DIODE 20.8536 
11 *237:7 *237:57 9.98214 
12 *237:57 *752:DIODE 9.3 
13 *237:57 *237:64 1.76786 
14 *237:64 *753:DIODE 9.3 
15 *237:64 *754:DIODE 11.0679 
*END

*D_NET *238 0.0608697
*CONN
*I *11252:A1 I *D sky130_fd_sc_hd__mux2_1
*I *758:DIODE I *D sky130_fd_sc_hd__diode_2
*I *759:DIODE I *D sky130_fd_sc_hd__diode_2
*I *760:DIODE I *D sky130_fd_sc_hd__diode_2
*I *762:DIODE I *D sky130_fd_sc_hd__diode_2
*I *761:DIODE I *D sky130_fd_sc_hd__diode_2
*I *757:DIODE I *D sky130_fd_sc_hd__diode_2
*I *769:DIODE I *D sky130_fd_sc_hd__diode_2
*I *768:DIODE I *D sky130_fd_sc_hd__diode_2
*I *766:DIODE I *D sky130_fd_sc_hd__diode_2
*I *764:DIODE I *D sky130_fd_sc_hd__diode_2
*I *763:DIODE I *D sky130_fd_sc_hd__diode_2
*I *765:DIODE I *D sky130_fd_sc_hd__diode_2
*I *11524:DO[10] O *D CF_SRAM_1024x32
*CAP
1 *11252:A1 0
2 *758:DIODE 0
3 *759:DIODE 0
4 *760:DIODE 0
5 *762:DIODE 0.000149754
6 *761:DIODE 0
7 *757:DIODE 0.000174251
8 *769:DIODE 0.000160419
9 *768:DIODE 0
10 *766:DIODE 0
11 *764:DIODE 0
12 *763:DIODE 0
13 *765:DIODE 0.000305322
14 *11524:DO[10] 0.000214141
15 *238:109 0.000293691
16 *238:107 0.000253081
17 *238:105 0.000328623
18 *238:103 0.000621357
19 *238:85 0.000183614
20 *238:81 0.00198926
21 *238:71 0.0149752
22 *238:69 0.0153726
23 *238:43 0.000326627
24 *238:36 0.000344544
25 *238:29 0.000356672
26 *238:22 0.000429153
27 *238:11 0.00102063
28 *238:7 0.0026541
29 *765:DIODE *363:38 0.000301016
30 *765:DIODE *576:8 0.000248143
31 *238:7 *11524:BEN[9] 0
32 *238:11 *355:34 6.57032e-05
33 *238:11 *356:16 2.47753e-05
34 *238:11 *363:38 0
35 *238:69 *247:15 0.000179805
36 *238:69 *249:23 0.000608832
37 *238:69 *254:13 0.000243098
38 *238:69 *266:13 0.000202128
39 *238:69 *266:15 2.60973e-05
40 *238:69 *266:68 1.20849e-05
41 *238:69 *268:23 0.00080299
42 *238:69 *365:68 0.000135306
43 *238:69 *548:20 0.00178916
44 *238:69 *549:101 0.000167762
45 *238:71 *248:25 0.00591588
46 *238:71 *264:19 0.00769895
47 *238:81 *380:28 0.00102693
48 *238:85 *245:26 1.94945e-05
49 *238:103 *239:83 6.05161e-06
50 *238:103 *245:26 0.000187812
51 *675:DIODE *765:DIODE 5.49489e-05
52 *1203:DIODE *238:103 0.000257619
53 *1203:DIODE *238:105 4.08637e-05
54 *111:10 *238:85 2.09897e-05
55 *111:10 *238:103 0.000180138
56 *146:22 *238:105 0.000218404
57 *147:16 *238:105 0.000180959
58 *184:62 *238:11 9.54014e-05
59 *184:62 *238:22 5.38593e-06
*RES
1 *11524:DO[10] *238:7 3.6875 
2 *238:7 *238:11 7.83929 
3 *238:11 *765:DIODE 15.1571 
4 *238:11 *238:22 2.58929 
5 *238:22 *763:DIODE 9.3 
6 *238:22 *238:29 1.76786 
7 *238:29 *764:DIODE 9.3 
8 *238:29 *238:36 1.76786 
9 *238:36 *766:DIODE 9.3 
10 *238:36 *238:43 1.76786 
11 *238:43 *768:DIODE 9.3 
12 *238:43 *769:DIODE 11.0679 
13 *238:7 *238:69 41.0133 
14 *238:69 *238:71 48.3317 
15 *238:71 *238:81 13.9352 
16 *238:81 *238:85 4.77679 
17 *238:85 *757:DIODE 11.4786 
18 *238:85 *761:DIODE 9.3 
19 *238:81 *238:103 11.9554 
20 *238:103 *238:105 4.23214 
21 *238:105 *238:107 1.35714 
22 *238:107 *238:109 1.76786 
23 *238:109 *762:DIODE 11.0679 
24 *238:109 *760:DIODE 9.3 
25 *238:107 *759:DIODE 9.3 
26 *238:105 *758:DIODE 9.3 
27 *238:103 *11252:A1 9.3 
*END

*D_NET *239 0.0594149
*CONN
*I *775:DIODE I *D sky130_fd_sc_hd__diode_2
*I *773:DIODE I *D sky130_fd_sc_hd__diode_2
*I *771:DIODE I *D sky130_fd_sc_hd__diode_2
*I *11256:A1 I *D sky130_fd_sc_hd__mux2_1
*I *770:DIODE I *D sky130_fd_sc_hd__diode_2
*I *772:DIODE I *D sky130_fd_sc_hd__diode_2
*I *774:DIODE I *D sky130_fd_sc_hd__diode_2
*I *783:DIODE I *D sky130_fd_sc_hd__diode_2
*I *781:DIODE I *D sky130_fd_sc_hd__diode_2
*I *777:DIODE I *D sky130_fd_sc_hd__diode_2
*I *776:DIODE I *D sky130_fd_sc_hd__diode_2
*I *780:DIODE I *D sky130_fd_sc_hd__diode_2
*I *782:DIODE I *D sky130_fd_sc_hd__diode_2
*I *779:DIODE I *D sky130_fd_sc_hd__diode_2
*I *11524:DO[11] O *D CF_SRAM_1024x32
*CAP
1 *775:DIODE 0
2 *773:DIODE 0
3 *771:DIODE 0
4 *11256:A1 3.80696e-05
5 *770:DIODE 0
6 *772:DIODE 0
7 *774:DIODE 0
8 *783:DIODE 0.00017483
9 *781:DIODE 9.45076e-05
10 *777:DIODE 0
11 *776:DIODE 0
12 *780:DIODE 3.7903e-05
13 *782:DIODE 0.000179873
14 *779:DIODE 0
15 *11524:DO[11] 6.33113e-05
16 *239:95 0.000310525
17 *239:93 0.000264678
18 *239:91 0.000431812
19 *239:89 0.000597727
20 *239:87 0.0004169
21 *239:85 0.00033496
22 *239:83 0.000615571
23 *239:71 0.00162971
24 *239:69 0.00143635
25 *239:63 0.0184564
26 *239:61 0.0182802
27 *239:43 0.000189015
28 *239:15 0.000224441
29 *239:11 8.24715e-05
30 *239:9 0.000622964
31 *239:5 0.000662897
32 *781:DIODE *389:102 0.000163455
33 *239:5 *389:102 0.000103964
34 *239:9 *389:102 0.00104622
35 *239:43 *389:102 0.000163455
36 *239:61 *247:15 0.000239013
37 *239:61 *548:20 7.90529e-05
38 *239:63 *11524:DI[11] 0
39 *239:63 *11524:vpwrac 0.000349218
40 *239:63 *363:26 0
41 *239:63 *363:60 0
42 *239:63 *363:64 0
43 *239:63 *389:24 0
44 *239:69 *563:57 1.08359e-05
45 *239:71 *245:26 0.00204956
46 *239:71 *245:28 0.000272523
47 *239:71 *245:34 0.000126439
48 *239:71 *263:19 0.00376357
49 *239:71 *363:66 0.000123605
50 *239:83 *828:DIODE 4.58194e-05
51 *239:83 *831:DIODE 9.33978e-07
52 *239:83 *245:26 0.000494587
53 *11256:S *239:87 4.58194e-05
54 *11256:S *239:89 0.000109263
55 *3:25 *239:69 0.000140349
56 *111:10 *239:83 0.000498473
57 *143:41 *239:69 0.000767878
58 *143:41 *239:71 0.00161097
59 *150:12 *783:DIODE 0.000178847
60 *150:12 *239:91 0.000135028
61 *150:12 *239:93 0.000178847
62 *150:12 *239:95 0.000175892
63 *185:10 *780:DIODE 0.000153054
64 *185:10 *239:15 0.00012401
65 *193:8 *780:DIODE 0.000143804
66 *193:8 *239:15 0.000125724
67 *199:82 *239:69 0.000574505
68 *224:36 *239:69 5.30413e-05
69 *224:36 *239:71 0.000216013
70 *238:103 *239:83 6.05161e-06
*RES
1 *11524:DO[11] *239:5 1.29464 
2 *239:5 *239:9 10.5714 
3 *239:9 *239:11 4.5 
4 *239:11 *239:15 6.14286 
5 *239:15 *779:DIODE 9.3 
6 *239:15 *782:DIODE 11.0679 
7 *239:11 *780:DIODE 15.7464 
8 *239:9 *776:DIODE 9.3 
9 *239:9 *239:43 1.76786 
10 *239:43 *777:DIODE 9.3 
11 *239:43 *781:DIODE 11.0679 
12 *239:5 *239:61 10.8654 
13 *239:61 *239:63 50.0613 
14 *239:63 *239:69 13.6957 
15 *239:69 *239:71 53.4911 
16 *239:71 *239:83 23.125 
17 *239:83 *239:85 1.76786 
18 *239:85 *239:87 1.76786 
19 *239:87 *239:89 3 
20 *239:89 *239:91 3.41071 
21 *239:91 *239:93 1.76786 
22 *239:93 *239:95 1.76786 
23 *239:95 *783:DIODE 11.4786 
24 *239:95 *774:DIODE 9.3 
25 *239:93 *772:DIODE 9.3 
26 *239:91 *770:DIODE 9.3 
27 *239:89 *11256:A1 10.0321 
28 *239:87 *771:DIODE 9.3 
29 *239:85 *773:DIODE 9.3 
30 *239:83 *775:DIODE 9.3 
*END

*D_NET *240 0.072253
*CONN
*I *795:DIODE I *D sky130_fd_sc_hd__diode_2
*I *792:DIODE I *D sky130_fd_sc_hd__diode_2
*I *791:DIODE I *D sky130_fd_sc_hd__diode_2
*I *794:DIODE I *D sky130_fd_sc_hd__diode_2
*I *796:DIODE I *D sky130_fd_sc_hd__diode_2
*I *793:DIODE I *D sky130_fd_sc_hd__diode_2
*I *797:DIODE I *D sky130_fd_sc_hd__diode_2
*I *11259:A1 I *D sky130_fd_sc_hd__mux2_1
*I *785:DIODE I *D sky130_fd_sc_hd__diode_2
*I *787:DIODE I *D sky130_fd_sc_hd__diode_2
*I *790:DIODE I *D sky130_fd_sc_hd__diode_2
*I *788:DIODE I *D sky130_fd_sc_hd__diode_2
*I *784:DIODE I *D sky130_fd_sc_hd__diode_2
*I *786:DIODE I *D sky130_fd_sc_hd__diode_2
*I *11524:DO[12] O *D CF_SRAM_1024x32
*CAP
1 *795:DIODE 0.000130399
2 *792:DIODE 0
3 *791:DIODE 0
4 *794:DIODE 0.000354931
5 *796:DIODE 0.000139078
6 *793:DIODE 0
7 *797:DIODE 8.98191e-05
8 *11259:A1 0
9 *785:DIODE 0
10 *787:DIODE 0
11 *790:DIODE 0.000112099
12 *788:DIODE 6.88363e-05
13 *784:DIODE 0
14 *786:DIODE 0.000143891
15 *11524:DO[12] 0.000101511
16 *240:124 0.000266185
17 *240:117 0.000352845
18 *240:94 0.000418724
19 *240:90 0.001405
20 *240:59 0.000607528
21 *240:53 0.000822618
22 *240:51 0.000674213
23 *240:49 0.000510119
24 *240:26 0.000212727
25 *240:24 0.000137673
26 *240:22 0.00164269
27 *240:20 0.00156941
28 *240:18 0.0132119
29 *240:16 0.0132335
30 *240:10 0.000676388
31 *240:4 0
32 *786:DIODE *241:57 0.000175892
33 *788:DIODE *241:57 9.41642e-05
34 *796:DIODE *387:112 0.000164334
35 *240:10 *11524:DI[12] 0
36 *240:16 *247:15 4.38265e-05
37 *240:16 *548:20 1.23998e-05
38 *240:18 *11524:DI[11] 0
39 *240:18 *241:49 0
40 *240:18 *243:13 0
41 *240:18 *387:28 0.0209749
42 *240:18 *387:100 0.00276486
43 *240:22 *242:21 0.00053373
44 *240:22 *264:29 2.09897e-05
45 *240:22 *589:26 0.00145918
46 *240:26 *241:57 9.41642e-05
47 *240:59 *11262:A1 5.33005e-05
48 *240:90 *387:112 0
49 *240:94 *387:112 0.000259273
50 *1204:DIODE *240:51 0.000125355
51 *1204:DIODE *240:53 2.89016e-05
52 *11259:S *240:53 5.87969e-05
53 *11262:S *240:53 4.25569e-05
54 *11262:S *240:59 9.24522e-05
55 *3:25 *240:22 0.000421119
56 *111:10 *240:22 0.000907418
57 *120:10 *240:22 0.00107743
58 *120:10 *240:49 0.000190911
59 *143:80 *240:22 0.000151972
60 *152:8 *240:59 5.20448e-05
61 *154:8 *790:DIODE 6.09773e-05
62 *154:8 *240:59 6.43196e-05
63 *162:10 *240:22 0.000221893
64 *163:10 *240:22 0.00482911
65 *163:10 *240:49 0.000182288
66 *202:24 *240:22 2.04825e-05
67 *202:39 *240:22 0.000191877
*RES
1 *11524:DO[12] *240:4 0.159091 
2 *11524:DO[12] *240:10 1.35714 
3 *240:10 *240:16 8.49036 
4 *240:16 *240:18 50.3495 
5 *240:18 *240:20 3.41 
6 *240:20 *240:22 67.0625 
7 *240:22 *240:24 4.5 
8 *240:24 *240:26 0.946429 
9 *240:26 *786:DIODE 11.0679 
10 *240:26 *784:DIODE 9.3 
11 *240:24 *788:DIODE 10.2464 
12 *240:22 *240:49 7.05357 
13 *240:49 *240:51 3.82143 
14 *240:51 *240:53 3.82143 
15 *240:53 *240:59 7.25 
16 *240:59 *790:DIODE 11.0679 
17 *240:59 *787:DIODE 9.3 
18 *240:53 *785:DIODE 9.3 
19 *240:51 *11259:A1 9.3 
20 *240:49 *797:DIODE 10.2464 
21 *240:10 *240:90 7.92857 
22 *240:90 *240:94 4.23214 
23 *240:94 *793:DIODE 9.3 
24 *240:94 *796:DIODE 11.0679 
25 *240:90 *794:DIODE 13.8357 
26 *240:90 *240:117 3 
27 *240:117 *791:DIODE 9.3 
28 *240:117 *240:124 1.76786 
29 *240:124 *792:DIODE 9.3 
30 *240:124 *795:DIODE 11.0679 
*END

*D_NET *241 0.0782549
*CONN
*I *802:DIODE I *D sky130_fd_sc_hd__diode_2
*I *807:DIODE I *D sky130_fd_sc_hd__diode_2
*I *11262:A1 I *D sky130_fd_sc_hd__mux2_2
*I *798:DIODE I *D sky130_fd_sc_hd__diode_2
*I *801:DIODE I *D sky130_fd_sc_hd__diode_2
*I *799:DIODE I *D sky130_fd_sc_hd__diode_2
*I *804:DIODE I *D sky130_fd_sc_hd__diode_2
*I *803:DIODE I *D sky130_fd_sc_hd__diode_2
*I *806:DIODE I *D sky130_fd_sc_hd__diode_2
*I *805:DIODE I *D sky130_fd_sc_hd__diode_2
*I *11524:DO[13] O *D CF_SRAM_1024x32
*CAP
1 *802:DIODE 0.00033345
2 *807:DIODE 0
3 *11262:A1 0.000103949
4 *798:DIODE 0
5 *801:DIODE 8.88985e-05
6 *799:DIODE 0
7 *804:DIODE 9.45076e-05
8 *803:DIODE 0
9 *806:DIODE 3.7903e-05
10 *805:DIODE 4.89555e-05
11 *11524:DO[13] 3.99398e-05
12 *241:72 0.000201065
13 *241:63 0.000375922
14 *241:61 0.000881729
15 *241:59 0.000582799
16 *241:57 0.0010505
17 *241:53 0.0024504
18 *241:51 0.00180212
19 *241:49 0.0110523
20 *241:47 0.0111419
21 *241:11 8.68586e-05
22 *241:9 0.000651539
23 *241:5 0.000686573
24 *801:DIODE *376:28 5.33005e-05
25 *804:DIODE *383:98 0.000163455
26 *241:5 *383:98 7.49185e-05
27 *241:9 *383:98 0.00108484
28 *241:47 *243:11 0.0003407
29 *241:47 *247:21 2.01584e-05
30 *241:47 *254:13 0.00038523
31 *241:49 *243:13 0.0310444
32 *241:49 *387:28 5.93692e-05
33 *241:49 *387:100 0.00192997
34 *241:53 *246:69 0
35 *241:53 *259:19 0.00263132
36 *241:72 *376:28 4.08637e-05
37 *748:DIODE *801:DIODE 5.33005e-05
38 *748:DIODE *241:63 5.96516e-05
39 *748:DIODE *241:72 0.000175892
40 *786:DIODE *241:57 0.000175892
41 *788:DIODE *241:57 9.41642e-05
42 *112:20 *11262:A1 0.00016997
43 *130:10 *802:DIODE 0.000355922
44 *143:16 *241:53 0.000819945
45 *143:132 *802:DIODE 9.33978e-07
46 *150:12 *801:DIODE 0.000116964
47 *152:12 *801:DIODE 5.21702e-05
48 *185:10 *805:DIODE 0.00012294
49 *185:10 *806:DIODE 0.000153054
50 *193:8 *805:DIODE 0.00012294
51 *193:8 *806:DIODE 0.000143804
52 *214:22 *241:53 0.00577834
53 *222:28 *241:53 0
54 *229:34 *11262:A1 0.000171692
55 *240:18 *241:49 0
56 *240:26 *241:57 9.41642e-05
57 *240:59 *11262:A1 5.33005e-05
*RES
1 *11524:DO[13] *241:5 0.883929 
2 *241:5 *241:9 10.9464 
3 *241:9 *241:11 4.5 
4 *241:11 *805:DIODE 15.4429 
5 *241:11 *806:DIODE 15.7464 
6 *241:9 *803:DIODE 9.3 
7 *241:9 *804:DIODE 11.0679 
8 *241:5 *241:47 12.7225 
9 *241:47 *241:49 49.1965 
10 *241:49 *241:51 3.41 
11 *241:51 *241:53 72.8304 
12 *241:53 *241:57 14.0714 
13 *241:57 *241:59 0.946429 
14 *241:59 *241:61 6.28571 
15 *241:61 *241:63 3.41071 
16 *241:63 *799:DIODE 9.3 
17 *241:63 *241:72 2.19643 
18 *241:72 *801:DIODE 20.4786 
19 *241:72 *798:DIODE 9.3 
20 *241:61 *11262:A1 21.0857 
21 *241:59 *807:DIODE 9.3 
22 *241:57 *802:DIODE 23.5143 
*END

*D_NET *242 0.0776861
*CONN
*I *820:DIODE I *D sky130_fd_sc_hd__diode_2
*I *817:DIODE I *D sky130_fd_sc_hd__diode_2
*I *816:DIODE I *D sky130_fd_sc_hd__diode_2
*I *823:DIODE I *D sky130_fd_sc_hd__diode_2
*I *819:DIODE I *D sky130_fd_sc_hd__diode_2
*I *821:DIODE I *D sky130_fd_sc_hd__diode_2
*I *818:DIODE I *D sky130_fd_sc_hd__diode_2
*I *815:DIODE I *D sky130_fd_sc_hd__diode_2
*I *813:DIODE I *D sky130_fd_sc_hd__diode_2
*I *810:DIODE I *D sky130_fd_sc_hd__diode_2
*I *808:DIODE I *D sky130_fd_sc_hd__diode_2
*I *11265:A1 I *D sky130_fd_sc_hd__mux2_1
*I *824:DIODE I *D sky130_fd_sc_hd__diode_2
*I *814:DIODE I *D sky130_fd_sc_hd__diode_2
*I *812:DIODE I *D sky130_fd_sc_hd__diode_2
*I *809:DIODE I *D sky130_fd_sc_hd__diode_2
*I *11524:DO[14] O *D CF_SRAM_1024x32
*CAP
1 *820:DIODE 9.45076e-05
2 *817:DIODE 0
3 *816:DIODE 0
4 *823:DIODE 0.000183085
5 *819:DIODE 0
6 *821:DIODE 0.00018034
7 *818:DIODE 0
8 *815:DIODE 0
9 *813:DIODE 0
10 *810:DIODE 0
11 *808:DIODE 0
12 *11265:A1 3.82418e-05
13 *824:DIODE 0.000174889
14 *814:DIODE 0
15 *812:DIODE 0
16 *809:DIODE 3.69055e-05
17 *11524:DO[14] 4.04145e-05
18 *242:155 0.000189015
19 *242:136 0.000223158
20 *242:120 0.000224908
21 *242:116 8.46413e-05
22 *242:114 0.000648092
23 *242:73 0.000315439
24 *242:66 0.00020816
25 *242:53 0.000197553
26 *242:49 0.000399663
27 *242:47 0.00037949
28 *242:45 0.000282905
29 *242:43 0.000307494
30 *242:41 0.00104736
31 *242:35 0.00135917
32 *242:21 0.00146946
33 *242:13 0.0141076
34 *242:11 0.0131017
35 *242:5 0.00061009
36 *820:DIODE *378:39 0.000163455
37 *242:5 *378:39 9.13501e-05
38 *242:11 *243:11 4.38265e-05
39 *242:11 *254:13 4.38265e-05
40 *242:13 *11524:DI[14] 0.00320759
41 *242:13 *11524:DI[13] 0
42 *242:13 *378:59 0.0226384
43 *242:21 *246:90 7.4826e-05
44 *242:21 *589:26 0.00298408
45 *242:35 *259:31 0.000143745
46 *242:35 *259:33 3.97677e-05
47 *242:35 *263:27 9.41642e-05
48 *242:114 *378:39 0.0010715
49 *242:155 *378:39 0.000163455
50 *11221:S *242:41 0.000283335
51 *11224:A0 *242:35 0.000216755
52 *11265:A0 *242:53 1.07719e-05
53 *11265:S *242:45 1.98839e-05
54 *11265:S *242:47 6.57032e-05
55 *11265:S *242:49 0.000105471
56 *3:25 *242:21 0.000238742
57 *111:10 *242:21 0.000451829
58 *111:10 *242:35 0.000270094
59 *121:10 *242:41 0.00182025
60 *125:12 *242:41 0.000219289
61 *125:12 *242:43 0.000175892
62 *125:12 *242:45 0.000175892
63 *127:8 *242:35 4.82865e-05
64 *128:10 *242:41 0.00139959
65 *129:8 *242:41 0.00068193
66 *130:10 *242:41 2.76859e-05
67 *143:41 *242:21 0.00119061
68 *143:41 *242:35 0.000267665
69 *150:14 *809:DIODE 7.83587e-05
70 *150:14 *242:66 0.000198698
71 *152:12 *809:DIODE 2.56601e-05
72 *152:12 *242:66 6.98762e-05
73 *160:10 *242:41 4.37659e-05
74 *185:10 *242:120 0.00012401
75 *185:10 *242:136 0.000151333
76 *193:8 *242:120 0.000125724
77 *193:8 *242:136 0.000143804
78 *199:82 *242:21 0.00146448
79 *202:39 *242:35 0.000175892
80 *202:47 *242:35 0.000216755
81 *240:22 *242:21 0.00053373
*RES
1 *11524:DO[14] *242:5 0.883929 
2 *242:5 *242:11 8.49036 
3 *242:11 *242:13 50.1333 
4 *242:13 *242:21 49.2761 
5 *242:21 *242:35 28.2857 
6 *242:35 *242:41 35.0357 
7 *242:41 *242:43 1.76786 
8 *242:43 *242:45 2.17857 
9 *242:45 *242:47 1.35714 
10 *242:47 *242:49 3 
11 *242:49 *242:53 5.44643 
12 *242:53 *809:DIODE 14.8357 
13 *242:53 *242:66 7.05357 
14 *242:66 *812:DIODE 9.3 
15 *242:66 *242:73 1.35714 
16 *242:73 *814:DIODE 9.3 
17 *242:73 *824:DIODE 11.0679 
18 *242:49 *11265:A1 10.0321 
19 *242:47 *808:DIODE 9.3 
20 *242:45 *810:DIODE 9.3 
21 *242:43 *813:DIODE 9.3 
22 *242:41 *815:DIODE 9.3 
23 *242:5 *242:114 10.8036 
24 *242:114 *242:116 4.5 
25 *242:116 *242:120 6.14286 
26 *242:120 *818:DIODE 9.3 
27 *242:120 *821:DIODE 11.0679 
28 *242:116 *242:136 6.44643 
29 *242:136 *819:DIODE 9.3 
30 *242:136 *823:DIODE 11.0679 
31 *242:114 *816:DIODE 9.3 
32 *242:114 *242:155 1.76786 
33 *242:155 *817:DIODE 9.3 
34 *242:155 *820:DIODE 11.0679 
*END

*D_NET *243 0.0812424
*CONN
*I *826:DIODE I *D sky130_fd_sc_hd__diode_2
*I *11268:A1 I *D sky130_fd_sc_hd__mux2_2
*I *825:DIODE I *D sky130_fd_sc_hd__diode_2
*I *11524:DO[15] O *D CF_SRAM_1024x32
*CAP
1 *826:DIODE 0.000594713
2 *11268:A1 0.000222298
3 *825:DIODE 0
4 *11524:DO[15] 5.38979e-05
5 *243:21 0.000248088
6 *243:17 0.00203209
7 *243:15 0.0020063
8 *243:13 0.0135025
9 *243:11 0.0140045
10 *243:5 0.00115056
11 *826:DIODE *374:58 0.000513031
12 *243:5 *374:58 7.4402e-05
13 *243:11 *11524:DI[14] 1.94879e-05
14 *243:11 *11524:DI[13] 0.000162032
15 *243:11 *247:21 0.00185638
16 *243:11 *254:13 0.000453626
17 *243:11 *254:23 0.000445006
18 *243:13 *383:28 0
19 *243:13 *387:100 0
20 *11268:S *11268:A1 0.000108423
21 *11268:S *243:21 5.33005e-05
22 *200:22 *243:17 0.000215849
23 *207:15 *243:17 0.00117971
24 *212:23 *243:17 0.00436733
25 *229:34 *243:17 0.00654992
26 *240:18 *243:13 0
27 *241:47 *243:11 0.0003407
28 *241:49 *243:13 0.0310444
29 *242:11 *243:11 4.38265e-05
*RES
1 *11524:DO[15] *243:5 1.29464 
2 *243:5 *243:11 31.5796 
3 *243:11 *243:13 52.2953 
4 *243:13 *243:15 3.41 
5 *243:15 *243:17 83.4554 
6 *243:17 *243:21 5.03571 
7 *243:21 *825:DIODE 9.3 
8 *243:21 *11268:A1 12.6214 
9 *243:5 *826:DIODE 19.8357 
*END

*D_NET *244 0.0761044
*CONN
*I *837:DIODE I *D sky130_fd_sc_hd__diode_2
*I *839:DIODE I *D sky130_fd_sc_hd__diode_2
*I *835:DIODE I *D sky130_fd_sc_hd__diode_2
*I *834:DIODE I *D sky130_fd_sc_hd__diode_2
*I *838:DIODE I *D sky130_fd_sc_hd__diode_2
*I *836:DIODE I *D sky130_fd_sc_hd__diode_2
*I *831:DIODE I *D sky130_fd_sc_hd__diode_2
*I *11271:A1 I *D sky130_fd_sc_hd__mux2_1
*I *827:DIODE I *D sky130_fd_sc_hd__diode_2
*I *830:DIODE I *D sky130_fd_sc_hd__diode_2
*I *832:DIODE I *D sky130_fd_sc_hd__diode_2
*I *840:DIODE I *D sky130_fd_sc_hd__diode_2
*I *829:DIODE I *D sky130_fd_sc_hd__diode_2
*I *828:DIODE I *D sky130_fd_sc_hd__diode_2
*I *11524:DO[16] O *D CF_SRAM_1024x32
*CAP
1 *837:DIODE 0.00032874
2 *839:DIODE 0.000174889
3 *835:DIODE 0
4 *834:DIODE 0
5 *838:DIODE 0.000143891
6 *836:DIODE 0
7 *831:DIODE 9.60079e-05
8 *11271:A1 0
9 *827:DIODE 0
10 *830:DIODE 0
11 *832:DIODE 0.000178295
12 *840:DIODE 0
13 *829:DIODE 0.000176249
14 *828:DIODE 0.000164908
15 *11524:DO[16] 9.13761e-05
16 *244:124 0.000349778
17 *244:117 0.000306335
18 *244:103 0.000193269
19 *244:97 0.000438576
20 *244:93 0.00100609
21 *244:58 0.000576468
22 *244:56 0.000695429
23 *244:54 0.000502958
24 *244:38 0.000269515
25 *244:23 0.000293649
26 *244:21 0.000321366
27 *244:19 0.00158524
28 *244:17 0.00140905
29 *244:15 0.00893032
30 *244:13 0.00902936
31 *244:9 0.000610018
32 *828:DIODE *245:26 0.000188405
33 *828:DIODE *263:19 0.000188405
34 *837:DIODE *11524:SM 9.85753e-06
35 *837:DIODE *427:24 0.000135028
36 *838:DIODE *418:72 0.000175892
37 *244:9 *11524:ScanInDR 7.32658e-05
38 *244:9 *11524:DI[16] 0
39 *244:9 *245:20 2.46369e-05
40 *244:9 *247:11 5.66716e-05
41 *244:9 *254:13 0.00012327
42 *244:13 *247:11 0.000178004
43 *244:13 *254:13 0.000338436
44 *244:15 *246:65 0.0314538
45 *244:15 *418:42 0.00585616
46 *244:15 *485:66 0
47 *244:19 *245:26 0.00464051
48 *244:19 *363:66 0.000457352
49 *244:21 *245:26 0.000316346
50 *244:23 *245:26 6.73939e-05
51 *244:23 *263:19 2.04825e-05
52 *244:93 *11524:SM 7.6698e-05
53 *244:93 *11524:ScanInDR 0.00019883
54 *244:97 *11524:ScanInDR 0.000180066
55 *244:103 *433:10 0.00020112
56 *244:103 *474:112 0.000202842
57 *11271:A0 *244:54 7.43578e-06
58 *11271:A0 *244:56 2.89114e-05
59 *11271:S *244:54 1.39726e-05
60 *11271:S *244:56 8.48807e-05
61 *11271:S *244:58 3.69047e-06
62 *160:8 *244:58 4.12921e-05
63 *200:46 *244:19 0.000101776
64 *200:50 *244:15 0
65 *200:66 *244:19 0.000285738
66 *224:36 *244:19 0.00224957
67 *224:36 *244:21 0.000178018
68 *224:36 *244:23 2.70899e-05
69 *239:83 *828:DIODE 4.58194e-05
70 *239:83 *831:DIODE 9.33978e-07
*RES
1 *11524:DO[16] *244:9 7.10714 
2 *244:9 *244:13 7.63321 
3 *244:13 *244:15 49.9171 
4 *244:15 *244:17 3.41 
5 *244:17 *244:19 59.1696 
6 *244:19 *244:21 4.07143 
7 *244:21 *244:23 1.03571 
8 *244:23 *828:DIODE 17.3 
9 *244:23 *244:38 5.44643 
10 *244:38 *829:DIODE 11.0679 
11 *244:38 *840:DIODE 9.3 
12 *244:21 *244:54 6.67857 
13 *244:54 *244:56 3.41071 
14 *244:56 *244:58 4.23214 
15 *244:58 *832:DIODE 11.0679 
16 *244:58 *830:DIODE 9.3 
17 *244:56 *827:DIODE 9.3 
18 *244:54 *11271:A1 9.3 
19 *244:19 *831:DIODE 14.7464 
20 *244:9 *244:93 12.8393 
21 *244:93 *244:97 3.625 
22 *244:97 *244:103 11.5536 
23 *244:103 *836:DIODE 9.3 
24 *244:103 *838:DIODE 11.0679 
25 *244:97 *244:117 1.35714 
26 *244:117 *834:DIODE 9.3 
27 *244:117 *244:124 1.76786 
28 *244:124 *835:DIODE 9.3 
29 *244:124 *839:DIODE 11.0679 
30 *244:93 *837:DIODE 13.1214 
*END

*D_NET *245 0.0661959
*CONN
*I *852:DIODE I *D sky130_fd_sc_hd__diode_2
*I *849:DIODE I *D sky130_fd_sc_hd__diode_2
*I *853:DIODE I *D sky130_fd_sc_hd__diode_2
*I *850:DIODE I *D sky130_fd_sc_hd__diode_2
*I *851:DIODE I *D sky130_fd_sc_hd__diode_2
*I *848:DIODE I *D sky130_fd_sc_hd__diode_2
*I *846:DIODE I *D sky130_fd_sc_hd__diode_2
*I *842:DIODE I *D sky130_fd_sc_hd__diode_2
*I *841:DIODE I *D sky130_fd_sc_hd__diode_2
*I *845:DIODE I *D sky130_fd_sc_hd__diode_2
*I *847:DIODE I *D sky130_fd_sc_hd__diode_2
*I *11274:A1 I *D sky130_fd_sc_hd__mux2_1
*I *854:DIODE I *D sky130_fd_sc_hd__diode_2
*I *843:DIODE I *D sky130_fd_sc_hd__diode_2
*I *11524:DO[17] O *D CF_SRAM_1024x32
*CAP
1 *852:DIODE 9.16411e-05
2 *849:DIODE 0
3 *853:DIODE 0.000183085
4 *850:DIODE 0
5 *851:DIODE 0.000175233
6 *848:DIODE 0
7 *846:DIODE 0
8 *842:DIODE 0.00017558
9 *841:DIODE 0
10 *845:DIODE 0
11 *847:DIODE 0.000140905
12 *11274:A1 0
13 *854:DIODE 0
14 *843:DIODE 0.000133045
15 *11524:DO[17] 3.8124e-05
16 *245:140 0.000221289
17 *245:126 0.000227645
18 *245:120 0.000265035
19 *245:104 0.000461896
20 *245:96 0.000633337
21 *245:82 0.000226311
22 *245:61 0.000443233
23 *245:59 0.000556026
24 *245:50 0.000370149
25 *245:34 0.000261981
26 *245:28 0.000318642
27 *245:26 0.0023973
28 *245:24 0.00227332
29 *245:22 0.0141668
30 *245:20 0.0144223
31 *245:10 0.000541122
32 *245:4 8.39453e-06
33 *852:DIODE *422:72 0.000175892
34 *245:10 *11524:WLBI 9.60875e-05
35 *245:10 *11524:DI[17] 4.87854e-05
36 *245:20 *247:11 0.000513118
37 *245:20 *254:13 0.000555285
38 *245:20 *552:113 4.26759e-05
39 *245:20 *552:125 0.000202117
40 *245:22 *418:42 0.00834617
41 *245:26 *879:DIODE 6.53083e-05
42 *245:26 *880:DIODE 0.00020176
43 *245:26 *248:27 1.90936e-05
44 *245:26 *263:19 1.97827e-05
45 *245:26 *564:10 0.00105749
46 *245:96 *11524:WLBI 0.000880067
47 *245:96 *11524:DI[17] 0.000107946
48 *245:96 *422:38 0.000108308
49 *245:96 *422:72 0.000234665
50 *245:104 *427:24 4.97892e-05
51 *245:104 *463:73 0.000121951
52 *245:120 *11524:WLBI 6.74397e-05
53 *245:120 *11524:TM 2.60054e-05
54 *245:120 *422:72 0.00022093
55 *245:126 *433:10 0.00012401
56 *245:126 *474:112 0.000125731
57 *245:140 *11524:TM 1.30607e-05
58 *245:140 *422:72 0.000257619
59 *749:DIODE *245:26 0.000198353
60 *828:DIODE *245:26 0.000188405
61 *11274:A0 *245:59 5.33005e-05
62 *11274:S *245:50 5.33005e-05
63 *3:25 *245:26 0.000580957
64 *111:10 *245:26 0.000708984
65 *111:18 *245:26 0.00279176
66 *120:10 *245:26 2.50556e-05
67 *143:41 *245:28 2.24646e-05
68 *143:41 *245:34 0.000126439
69 *143:80 *245:26 0.000138676
70 *143:80 *245:28 0.000247629
71 *162:8 *245:59 3.63775e-05
72 *196:26 *245:26 0.000180039
73 *200:66 *245:26 0.000231433
74 *238:85 *245:26 1.94945e-05
75 *238:103 *245:26 0.000187812
76 *239:71 *245:26 0.00204956
77 *239:71 *245:28 0.000272523
78 *239:71 *245:34 0.000126439
79 *239:83 *245:26 0.000494587
80 *244:9 *245:20 2.46369e-05
81 *244:19 *245:26 0.00464051
82 *244:21 *245:26 0.000316346
83 *244:23 *245:26 6.73939e-05
*RES
1 *11524:DO[17] *245:4 0.160714 
2 *11524:DO[17] *245:10 0.946429 
3 *245:10 *245:20 18.5618 
4 *245:20 *245:22 50.0613 
5 *245:22 *245:24 3.41 
6 *245:24 *245:26 98.6339 
7 *245:26 *245:28 3.46429 
8 *245:28 *245:34 7.08929 
9 *245:34 *843:DIODE 10.6571 
10 *245:34 *854:DIODE 9.3 
11 *245:28 *245:50 6.26786 
12 *245:50 *11274:A1 9.3 
13 *245:50 *245:59 3.83929 
14 *245:59 *245:61 4.23214 
15 *245:61 *847:DIODE 11.0679 
16 *245:61 *845:DIODE 9.3 
17 *245:59 *841:DIODE 9.3 
18 *245:26 *245:82 5.03571 
19 *245:82 *842:DIODE 11.0679 
20 *245:82 *846:DIODE 9.3 
21 *245:10 *245:96 8.75 
22 *245:96 *245:104 12.8214 
23 *245:104 *848:DIODE 9.3 
24 *245:104 *851:DIODE 11.0679 
25 *245:96 *245:120 2.60714 
26 *245:120 *245:126 10.6429 
27 *245:126 *850:DIODE 9.3 
28 *245:126 *853:DIODE 11.0679 
29 *245:120 *245:140 2.58929 
30 *245:140 *849:DIODE 9.3 
31 *245:140 *852:DIODE 11.0679 
*END

*D_NET *246 0.086581
*CONN
*I *11277:A1 I *D sky130_fd_sc_hd__mux2_1
*I *856:DIODE I *D sky130_fd_sc_hd__diode_2
*I *858:DIODE I *D sky130_fd_sc_hd__diode_2
*I *860:DIODE I *D sky130_fd_sc_hd__diode_2
*I *870:DIODE I *D sky130_fd_sc_hd__diode_2
*I *861:DIODE I *D sky130_fd_sc_hd__diode_2
*I *857:DIODE I *D sky130_fd_sc_hd__diode_2
*I *859:DIODE I *D sky130_fd_sc_hd__diode_2
*I *869:DIODE I *D sky130_fd_sc_hd__diode_2
*I *864:DIODE I *D sky130_fd_sc_hd__diode_2
*I *865:DIODE I *D sky130_fd_sc_hd__diode_2
*I *868:DIODE I *D sky130_fd_sc_hd__diode_2
*I *863:DIODE I *D sky130_fd_sc_hd__diode_2
*I *862:DIODE I *D sky130_fd_sc_hd__diode_2
*I *11524:DO[18] O *D CF_SRAM_1024x32
*CAP
1 *11277:A1 0
2 *856:DIODE 0
3 *858:DIODE 0
4 *860:DIODE 0
5 *870:DIODE 0.000128471
6 *861:DIODE 0
7 *857:DIODE 0.000135666
8 *859:DIODE 5.54804e-05
9 *869:DIODE 0.000176639
10 *864:DIODE 0
11 *865:DIODE 5.41912e-05
12 *868:DIODE 0.000174889
13 *863:DIODE 0
14 *862:DIODE 0
15 *11524:DO[18] 0.000222317
16 *246:112 0.000269689
17 *246:110 0.000264633
18 *246:108 0.000322121
19 *246:106 0.000352656
20 *246:90 0.000282512
21 *246:84 0.000361684
22 *246:73 0.000325451
23 *246:69 0.00431126
24 *246:67 0.00410218
25 *246:65 0.00891541
26 *246:63 0.00941013
27 *246:24 0.000357974
28 *246:17 0.000183085
29 *246:15 9.83154e-05
30 *246:11 0.000937172
31 *246:7 0.00143345
32 *865:DIODE *433:10 0.000198291
33 *865:DIODE *474:112 0.000190391
34 *246:7 *11524:BEN[17] 0
35 *246:7 *11524:DI[18] 0
36 *246:7 *427:28 0
37 *246:11 *427:28 0
38 *246:15 *433:10 7.14469e-05
39 *246:15 *474:112 7.29712e-05
40 *246:63 *247:11 0.00193141
41 *246:63 *398:18 0.00193148
42 *246:65 *418:42 0
43 *246:65 *483:64 0
44 *246:69 *11515:DI[10] 6.87203e-05
45 *246:69 *259:19 0
46 *246:69 *262:19 0.00387303
47 *246:69 *363:66 0.000232309
48 *11277:S *246:106 0.000207274
49 *11277:S *246:108 5.33005e-05
50 *113:10 *246:69 0
51 *143:20 *246:73 0
52 *143:20 *246:106 5.33005e-05
53 *143:41 *246:84 0.000213485
54 *143:41 *246:90 3.17148e-05
55 *199:82 *246:84 0.000222735
56 *199:82 *246:90 0.000171368
57 *200:50 *246:65 0.00582087
58 *214:22 *246:69 0
59 *222:28 *246:69 0.00373509
60 *237:23 *246:69 0.00309783
61 *241:53 *246:69 0
62 *242:21 *246:90 7.4826e-05
63 *244:15 *246:65 0.0314538
*RES
1 *11524:DO[18] *246:7 3.57143 
2 *246:7 *246:11 10 
3 *246:11 *246:15 5.53571 
4 *246:15 *246:17 4.5 
5 *246:17 *862:DIODE 9.3 
6 *246:17 *246:24 1.76786 
7 *246:24 *863:DIODE 9.3 
8 *246:24 *868:DIODE 11.0679 
9 *246:15 *865:DIODE 16.3536 
10 *246:11 *864:DIODE 9.3 
11 *246:11 *869:DIODE 11.0679 
12 *246:7 *246:63 32.4725 
13 *246:63 *246:65 49.773 
14 *246:65 *246:67 3.41 
15 *246:67 *246:69 133.848 
16 *246:69 *246:73 7.08929 
17 *246:73 *859:DIODE 9.83571 
18 *246:73 *246:84 7.35714 
19 *246:84 *246:90 7.69643 
20 *246:90 *857:DIODE 10.6571 
21 *246:90 *861:DIODE 9.3 
22 *246:84 *246:106 7.08929 
23 *246:106 *246:108 2.58929 
24 *246:108 *246:110 1.76786 
25 *246:110 *246:112 1.76786 
26 *246:112 *870:DIODE 11.0679 
27 *246:112 *860:DIODE 9.3 
28 *246:110 *858:DIODE 9.3 
29 *246:108 *856:DIODE 9.3 
30 *246:106 *11277:A1 9.3 
*END

*D_NET *247 0.0843364
*CONN
*I *875:DIODE I *D sky130_fd_sc_hd__diode_2
*I *874:DIODE I *D sky130_fd_sc_hd__diode_2
*I *876:DIODE I *D sky130_fd_sc_hd__diode_2
*I *877:DIODE I *D sky130_fd_sc_hd__diode_2
*I *873:DIODE I *D sky130_fd_sc_hd__diode_2
*I *872:DIODE I *D sky130_fd_sc_hd__diode_2
*I *11283:A1 I *D sky130_fd_sc_hd__mux2_1
*I *871:DIODE I *D sky130_fd_sc_hd__diode_2
*I *11524:DO[19] O *D CF_SRAM_1024x32
*CAP
1 *875:DIODE 0.000170799
2 *874:DIODE 0
3 *876:DIODE 0.000292362
4 *877:DIODE 0
5 *873:DIODE 0
6 *872:DIODE 2.07731e-05
7 *11283:A1 0
8 *871:DIODE 0.000255655
9 *11524:DO[19] 0.00016617
10 *247:93 0.000448059
11 *247:80 0.00101931
12 *247:61 5.03778e-05
13 *247:59 4.09205e-05
14 *247:43 0.00114563
15 *247:27 0.00150096
16 *247:23 0.00258157
17 *247:21 0.00298819
18 *247:15 0.00413224
19 *247:13 0.0031731
20 *247:11 0.00120134
21 *247:9 0.00115419
22 *247:7 0.000615858
23 *871:DIODE *11329:A 0.00124392
24 *871:DIODE *559:12 0.00048188
25 *871:DIODE *575:44 0.000353638
26 *872:DIODE *559:12 0.000188586
27 *876:DIODE *552:153 2.51343e-06
28 *247:7 *552:153 0
29 *247:11 *11524:BEN[18] 0.000674887
30 *247:11 *11524:AD[1] 1.94945e-05
31 *247:11 *11524:AD[2] 0.000187358
32 *247:11 *252:11 0.000333532
33 *247:11 *254:13 0.000504638
34 *247:11 *398:18 0.000759283
35 *247:11 *474:98 0.000162991
36 *247:11 *491:74 2.01504e-05
37 *247:11 *552:113 4.26759e-05
38 *247:11 *552:125 0.000639366
39 *247:15 *11524:AD[6] 1.94015e-05
40 *247:15 *11524:DI[3] 6.87181e-05
41 *247:15 *11524:DI[4] 0.000265447
42 *247:15 *11524:DI[11] 0.00026556
43 *247:15 *11524:DI[1] 0.000193187
44 *247:15 *11524:DI[6] 0.000214674
45 *247:15 *248:21 1.94945e-05
46 *247:15 *254:13 0.0102974
47 *247:15 *258:14 0
48 *247:15 *259:13 1.94945e-05
49 *247:15 *262:13 1.94945e-05
50 *247:15 *263:13 6.58704e-05
51 *247:15 *264:19 0.000462775
52 *247:15 *265:11 0.000106299
53 *247:15 *266:13 1.79038e-05
54 *247:15 *267:45 8.32562e-05
55 *247:15 *268:23 0.000894541
56 *247:15 *363:26 9.36119e-05
57 *247:15 *365:68 0.00026556
58 *247:15 *367:64 0.000118506
59 *247:15 *369:63 1.90936e-05
60 *247:15 *376:67 8.7326e-06
61 *247:15 *387:100 1.94879e-05
62 *247:15 *391:30 4.38243e-05
63 *247:15 *396:30 4.38243e-05
64 *247:15 *398:18 0
65 *247:15 *461:54 6.35275e-05
66 *247:15 *463:55 4.26825e-05
67 *247:15 *467:58 2.11419e-05
68 *247:15 *478:66 0.000190765
69 *247:15 *548:20 0
70 *247:15 *549:115 9.02467e-05
71 *247:15 *549:127 0.000144853
72 *247:15 *549:143 0.0001734
73 *247:15 *549:157 0.000255687
74 *247:15 *571:34 0
75 *247:21 *11524:DI[15] 1.94879e-05
76 *247:21 *254:13 7.89828e-05
77 *247:21 *254:23 0.000519193
78 *247:21 *548:20 0.0016377
79 *247:21 *558:367 6.78796e-05
80 *247:43 *11329:A 3.57693e-05
81 *247:43 *559:12 0.000918417
82 *247:43 *583:24 0.000818887
83 *247:59 *559:12 5.49489e-05
84 *247:61 *559:12 0.000184945
85 *247:80 *552:153 0
86 *11524:R_WB *247:11 8.23597e-06
87 *167:166 *247:43 0.000104249
88 *168:43 *872:DIODE 0.000188586
89 *168:43 *247:43 0.000833734
90 *168:43 *247:59 4.17433e-05
91 *168:43 *247:61 0.000171611
92 *171:79 *247:27 8.94123e-05
93 *178:55 *247:23 0.000382583
94 *185:14 *247:23 0.000104074
95 *187:42 *247:23 0.0131763
96 *195:14 *247:23 0.0123536
97 *202:16 *247:43 2.13529e-05
98 *202:139 *247:15 0
99 *222:40 *247:27 0.000460067
100 *222:40 *247:43 3.99767e-05
101 *226:30 *247:23 0.00209648
102 *229:42 *247:23 0.00288088
103 *237:13 *247:15 0.000847995
104 *238:69 *247:15 0.000179805
105 *239:61 *247:15 0.000239013
106 *240:16 *247:15 4.38265e-05
107 *241:47 *247:21 2.01584e-05
108 *243:11 *247:21 0.00185638
109 *244:9 *247:11 5.66716e-05
110 *244:13 *247:11 0.000178004
111 *245:20 *247:11 0.000513118
112 *246:63 *247:11 0.00193141
*RES
1 *11524:DO[19] *247:7 2.875 
2 *247:7 *247:9 4.5 
3 *247:9 *247:11 49.5446 
4 *247:11 *247:13 0.946429 
5 *247:13 *247:15 129.5 
6 *247:15 *247:21 45.3482 
7 *247:21 *247:23 146.339 
8 *247:23 *247:27 17.6786 
9 *247:27 *247:43 33.2857 
10 *247:43 *871:DIODE 21.3357 
11 *247:43 *11283:A1 9.3 
12 *247:27 *247:59 5.03571 
13 *247:59 *247:61 1.76786 
14 *247:61 *872:DIODE 11.0679 
15 *247:61 *873:DIODE 9.3 
16 *247:59 *877:DIODE 9.3 
17 *247:7 *247:80 7.10714 
18 *247:80 *876:DIODE 13.0321 
19 *247:80 *247:93 3.42857 
20 *247:93 *874:DIODE 9.3 
21 *247:93 *875:DIODE 11.0679 
*END

*D_NET *248 0.0467886
*CONN
*I *884:DIODE I *D sky130_fd_sc_hd__diode_2
*I *883:DIODE I *D sky130_fd_sc_hd__diode_2
*I *882:DIODE I *D sky130_fd_sc_hd__diode_2
*I *879:DIODE I *D sky130_fd_sc_hd__diode_2
*I *881:DIODE I *D sky130_fd_sc_hd__diode_2
*I *11221:A1 I *D sky130_fd_sc_hd__mux2_2
*I *880:DIODE I *D sky130_fd_sc_hd__diode_2
*I *11524:DO[1] O *D CF_SRAM_1024x32
*CAP
1 *884:DIODE 0.00013606
2 *883:DIODE 0
3 *882:DIODE 0
4 *879:DIODE 2.43602e-05
5 *881:DIODE 0
6 *11221:A1 0.000304365
7 *880:DIODE 4.85609e-05
8 *11524:DO[1] 7.90719e-05
9 *248:68 0.000242338
10 *248:61 0.000660631
11 *248:38 0.000304365
12 *248:27 5.71805e-05
13 *248:25 0.0113647
14 *248:21 0.0184169
15 *248:7 0.00771859
16 *248:7 *11524:BEN[0] 0
17 *248:7 *394:106 7.11447e-05
18 *248:21 *11524:DI[1] 0
19 *248:21 *264:19 0.000276302
20 *248:25 *265:53 0
21 *248:25 *268:39 0
22 *248:61 *11524:BEN[0] 0
23 *248:61 *394:106 0.000487466
24 *248:61 *422:24 2.60984e-05
25 *248:68 *422:24 4.16984e-05
26 *11221:S *11221:A1 1.58163e-05
27 *111:10 *879:DIODE 5.78834e-05
28 *111:10 *880:DIODE 0.000202835
29 *111:10 *248:27 1.12323e-05
30 *237:13 *248:21 1.94945e-05
31 *238:71 *248:25 0.00591588
32 *245:26 *879:DIODE 6.53083e-05
33 *245:26 *880:DIODE 0.00020176
34 *245:26 *248:27 1.90936e-05
35 *247:15 *248:21 1.94945e-05
*RES
1 *11524:DO[1] *248:7 1.49107 
2 *248:7 *248:21 35.8764 
3 *248:21 *248:25 41.1839 
4 *248:25 *248:27 0.276786 
5 *248:27 *880:DIODE 16.3536 
6 *248:27 *248:38 4.5 
7 *248:38 *11221:A1 12.3 
8 *248:38 *881:DIODE 9.3 
9 *248:25 *879:DIODE 14.6839 
10 *248:7 *248:61 10.3929 
11 *248:61 *882:DIODE 9.3 
12 *248:61 *248:68 1.76786 
13 *248:68 *883:DIODE 9.3 
14 *248:68 *884:DIODE 11.0679 
*END

*D_NET *249 0.0720589
*CONN
*I *886:DIODE I *D sky130_fd_sc_hd__diode_2
*I *885:DIODE I *D sky130_fd_sc_hd__diode_2
*I *11287:A1 I *D sky130_fd_sc_hd__mux2_1
*I *887:DIODE I *D sky130_fd_sc_hd__diode_2
*I *11524:DO[20] O *D CF_SRAM_1024x32
*CAP
1 *886:DIODE 0.000746084
2 *885:DIODE 0
3 *11287:A1 0.000748554
4 *887:DIODE 0.000307793
5 *11524:DO[20] 4.29054e-05
6 *249:42 0.000994532
7 *249:29 0.00564215
8 *249:23 0.0134604
9 *249:19 0.00858892
10 *249:5 0.00100592
11 *886:DIODE *11524:BEN[19] 0
12 *886:DIODE *11524:DI[20] 1.36635e-05
13 *886:DIODE *400:16 9.38795e-05
14 *887:DIODE *467:14 3.22653e-05
15 *249:19 *11524:BEN[19] 9.85396e-06
16 *249:19 *254:13 1.94879e-05
17 *249:19 *400:30 1.94879e-05
18 *249:19 *400:32 0.000327141
19 *249:23 *253:19 0.0197693
20 *249:29 *250:29 0.0119375
21 *249:29 *251:29 0.00233484
22 *249:29 *252:29 0.000362099
23 *249:29 *253:29 0
24 *249:29 *365:18 4.54213e-06
25 *249:29 *387:18 2.80925e-05
26 *249:29 *389:18 4.54213e-06
27 *249:29 *461:14 2.80925e-05
28 *249:29 *463:14 4.54329e-06
29 *249:29 *467:14 8.87606e-06
30 *249:29 *504:14 0.00241251
31 *249:29 *571:14 0.000706795
32 *11307:B2 *11287:A1 3.8083e-05
33 *11310:B2 *887:DIODE 0
34 *174:77 *887:DIODE 1.26352e-05
35 *174:83 *887:DIODE 1.88048e-05
36 *176:93 *249:29 4.58615e-05
37 *177:6 *11287:A1 0.000950588
38 *177:6 *249:42 0.000339599
39 *182:91 *249:29 0.000368302
40 *190:90 *249:29 2.14879e-05
41 *224:48 *11287:A1 0
42 *229:46 *887:DIODE 0
43 *229:46 *249:29 0
44 *238:69 *249:23 0.000608832
*RES
1 *11524:DO[20] *249:5 0.821429 
2 *249:5 *249:19 13.7908 
3 *249:19 *249:23 44.5789 
4 *249:23 *249:29 25.8114 
5 *249:29 *887:DIODE 19.0857 
6 *249:29 *249:42 7.91071 
7 *249:42 *11287:A1 29.1036 
8 *249:42 *885:DIODE 9.3 
9 *249:5 *886:DIODE 20.925 
*END

*D_NET *250 0.0689235
*CONN
*I *890:DIODE I *D sky130_fd_sc_hd__diode_2
*I *11291:A1 I *D sky130_fd_sc_hd__mux2_1
*I *888:DIODE I *D sky130_fd_sc_hd__diode_2
*I *891:DIODE I *D sky130_fd_sc_hd__diode_2
*I *11524:DO[21] O *D CF_SRAM_1024x32
*CAP
1 *890:DIODE 0.000740404
2 *11291:A1 0.000186918
3 *888:DIODE 0.000128161
4 *891:DIODE 0.000153224
5 *11524:DO[21] 4.38381e-05
6 *250:31 0.000359262
7 *250:29 0.00496355
8 *250:23 0.0136801
9 *250:19 0.00929017
10 *250:5 0.00109305
11 *890:DIODE *11524:DI[21] 1.22954e-05
12 *890:DIODE *402:22 9.4281e-05
13 *891:DIODE *463:14 0
14 *891:DIODE *559:12 9.60939e-05
15 *250:19 *11524:BEN[20] 0
16 *250:19 *251:17 0.000299657
17 *250:19 *252:11 8.22793e-06
18 *250:19 *402:38 0.000137163
19 *250:23 *252:19 0
20 *250:23 *253:19 0.02055
21 *250:31 *463:14 0
22 *933:DIODE *11291:A1 0.000915438
23 *11313:B2 *891:DIODE 0.000223585
24 *11313:B2 *250:29 0.000225233
25 *11313:B2 *250:31 0.00012401
26 *168:31 *11291:A1 0.00107486
27 *168:33 *11291:A1 5.71472e-05
28 *174:104 *11291:A1 0.000116855
29 *193:12 *250:29 0.00241251
30 *195:18 *250:29 0
31 *225:36 *891:DIODE 0
32 *225:36 *250:29 0
33 *249:29 *250:29 0.0119375
*RES
1 *11524:DO[21] *250:5 0.839286 
2 *250:5 *250:19 14.5618 
3 *250:19 *250:23 46.1769 
4 *250:23 *250:29 25.3114 
5 *250:29 *250:31 1.64286 
6 *250:31 *891:DIODE 17.6036 
7 *250:31 *888:DIODE 15.1571 
8 *250:29 *11291:A1 24.6036 
9 *250:5 *890:DIODE 20.925 
*END

*D_NET *251 0.0565833
*CONN
*I *893:DIODE I *D sky130_fd_sc_hd__diode_2
*I *892:DIODE I *D sky130_fd_sc_hd__diode_2
*I *11294:A1 I *D sky130_fd_sc_hd__mux2_1
*I *894:DIODE I *D sky130_fd_sc_hd__diode_2
*I *11524:DO[22] O *D CF_SRAM_1024x32
*CAP
1 *893:DIODE 0.000525871
2 *892:DIODE 0
3 *11294:A1 0.000154018
4 *894:DIODE 0.000384612
5 *11524:DO[22] 5.95227e-05
6 *251:43 0.00119908
7 *251:29 0.00288958
8 *251:21 0.0159289
9 *251:17 0.0151975
10 *251:7 0.00208311
11 *893:DIODE *11524:DI[22] 0.000358225
12 *893:DIODE *405:12 0.000215517
13 *894:DIODE *11434:A 0.000207695
14 *894:DIODE *389:18 0
15 *251:7 *11524:DI[22] 4.87854e-05
16 *251:17 *252:11 0.000362897
17 *251:17 *254:13 0.00101307
18 *251:17 *402:36 1.94945e-05
19 *251:17 *402:38 0
20 *251:21 *11524:vpwrac 0.000598141
21 *251:29 *11315:A1 0.000230198
22 *251:29 *252:29 0.00681039
23 *251:29 *258:26 0.000142051
24 *251:43 *11297:A1 0.000265113
25 *251:43 *252:31 2.89114e-05
26 *1089:DIODE *11294:A1 0.000746546
27 *11294:A0 *11294:A1 5.71472e-05
28 *168:27 *251:43 0.00105275
29 *168:29 *11294:A1 1.69961e-05
30 *168:29 *251:43 0.000186926
31 *168:31 *11294:A1 2.44318e-05
32 *174:104 *11294:A1 0.000186662
33 *176:133 *894:DIODE 3.0285e-05
34 *176:133 *251:43 3.06406e-05
35 *176:135 *894:DIODE 1.78353e-05
36 *178:55 *251:43 0
37 *178:62 *251:43 0.000264743
38 *178:69 *251:43 0.000182875
39 *178:76 *251:43 0.000187464
40 *178:80 *251:43 1.10868e-05
41 *179:14 *11294:A1 0.000836684
42 *180:72 *894:DIODE 0
43 *181:12 *894:DIODE 0.000276211
44 *182:91 *251:29 0.000686567
45 *182:119 *251:29 0.000104716
46 *190:90 *251:29 5.11642e-05
47 *191:32 *894:DIODE 0.000274294
48 *249:29 *251:29 0.00233484
49 *250:19 *251:17 0.000299657
*RES
1 *11524:DO[22] *251:7 1.125 
2 *251:7 *251:17 27.7296 
3 *251:17 *251:21 46.3899 
4 *251:21 *251:29 19.8726 
5 *251:29 *251:43 30.6071 
6 *251:43 *894:DIODE 23.4964 
7 *251:43 *11294:A1 22.9607 
8 *251:29 *892:DIODE 9.3 
9 *251:7 *893:DIODE 20.1036 
*END

*D_NET *252 0.0574994
*CONN
*I *896:DIODE I *D sky130_fd_sc_hd__diode_2
*I *895:DIODE I *D sky130_fd_sc_hd__diode_2
*I *897:DIODE I *D sky130_fd_sc_hd__diode_2
*I *11297:A1 I *D sky130_fd_sc_hd__mux2_1
*I *11524:DO[23] O *D CF_SRAM_1024x32
*CAP
1 *896:DIODE 0.000482185
2 *895:DIODE 0
3 *897:DIODE 0.000391147
4 *11297:A1 0.000597173
5 *11524:DO[23] 0.000112859
6 *252:31 0.00128693
7 *252:29 0.00432664
8 *252:19 0.0189071
9 *252:11 0.0164234
10 *252:7 0.00213941
11 *896:DIODE *407:14 0.00050197
12 *252:7 *11524:DI[23] 4.87854e-05
13 *252:7 *407:14 6.7224e-05
14 *252:11 *254:13 0
15 *252:11 *258:14 0.000960815
16 *252:11 *398:18 0.000538502
17 *252:11 *398:40 8.26979e-05
18 *252:11 *400:30 0.000118148
19 *252:11 *402:36 8.23597e-06
20 *252:11 *407:28 1.31511e-05
21 *252:19 *253:19 0
22 *252:19 *427:44 0
23 *252:29 *253:29 0
24 *252:29 *254:25 0.000625071
25 *252:29 *374:18 4.70487e-05
26 *252:29 *378:16 4.70487e-05
27 *1211:DIODE *897:DIODE 7.83659e-05
28 *1211:DIODE *252:31 0.000303368
29 *168:12 *897:DIODE 6.32641e-05
30 *168:27 *897:DIODE 0.0001234
31 *168:86 *252:29 8.6229e-06
32 *178:62 *11297:A1 0.000395188
33 *178:69 *11297:A1 0.000170438
34 *178:76 *11297:A1 0.00013074
35 *178:80 *11297:A1 0.000186765
36 *178:87 *11297:A1 0.000142575
37 *178:97 *897:DIODE 0
38 *247:11 *252:11 0.000333532
39 *249:29 *252:29 0.000362099
40 *250:19 *252:11 8.22793e-06
41 *250:23 *252:19 0
42 *251:17 *252:11 0.000362897
43 *251:29 *252:29 0.00681039
44 *251:43 *11297:A1 0.000265113
45 *251:43 *252:31 2.89114e-05
*RES
1 *11524:DO[23] *252:7 2.33929 
2 *252:7 *252:11 48.7946 
3 *252:11 *252:19 47.8118 
4 *252:19 *252:29 24.5798 
5 *252:29 *252:31 5.46429 
6 *252:31 *11297:A1 30.5857 
7 *252:31 *897:DIODE 26.0143 
8 *252:29 *895:DIODE 9.3 
9 *252:7 *896:DIODE 18.8714 
*END

*D_NET *253 0.0728731
*CONN
*I *899:DIODE I *D sky130_fd_sc_hd__diode_2
*I *898:DIODE I *D sky130_fd_sc_hd__diode_2
*I *11300:A1 I *D sky130_fd_sc_hd__mux2_1
*I *901:DIODE I *D sky130_fd_sc_hd__diode_2
*I *11524:DO[24] O *D CF_SRAM_1024x32
*CAP
1 *899:DIODE 0.000516413
2 *898:DIODE 0
3 *11300:A1 0
4 *901:DIODE 0.000759455
5 *11524:DO[24] 5.76573e-05
6 *253:33 0.00181114
7 *253:29 0.00721759
8 *253:19 0.0126444
9 *253:17 0.00669704
10 *253:7 0.000792595
11 *899:DIODE *11524:DI[24] 0.000576755
12 *253:7 *11524:DI[24] 4.87854e-05
13 *253:17 *254:13 4.38243e-05
14 *253:17 *258:14 0
15 *253:17 *409:30 0.000110982
16 *253:19 *572:20 0.00010283
17 *253:29 *11351:A 1.90936e-05
18 *253:29 *374:18 1.1192e-05
19 *253:29 *570:14 0.00069735
20 *649:DIODE *253:33 1.2081e-05
21 *650:DIODE *901:DIODE 4.42966e-05
22 *180:81 *901:DIODE 7.21829e-05
23 *180:88 *901:DIODE 3.91492e-05
24 *180:107 *901:DIODE 0.000180108
25 *180:107 *253:33 1.10639e-05
26 *180:114 *901:DIODE 1.93007e-05
27 *180:114 *253:33 2.44168e-05
28 *180:121 *253:33 1.36882e-05
29 *180:128 *253:33 1.44198e-05
30 *180:135 *253:33 1.58782e-05
31 *249:23 *253:19 0.0197693
32 *249:29 *253:29 0
33 *250:23 *253:19 0.02055
34 *252:19 *253:19 0
35 *252:29 *253:29 0
*RES
1 *11524:DO[24] *253:7 1.08929 
2 *253:7 *253:17 12.5599 
3 *253:17 *253:19 49.2654 
4 *253:19 *253:29 24.796 
5 *253:29 *253:33 11.9464 
6 *253:33 *901:DIODE 22.1929 
7 *253:33 *11300:A1 9.3 
8 *253:29 *898:DIODE 9.3 
9 *253:7 *899:DIODE 20.1036 
*END

*D_NET *254 0.0611107
*CONN
*I *913:DIODE I *D sky130_fd_sc_hd__diode_2
*I *909:DIODE I *D sky130_fd_sc_hd__diode_2
*I *908:DIODE I *D sky130_fd_sc_hd__diode_2
*I *912:DIODE I *D sky130_fd_sc_hd__diode_2
*I *914:DIODE I *D sky130_fd_sc_hd__diode_2
*I *910:DIODE I *D sky130_fd_sc_hd__diode_2
*I *915:DIODE I *D sky130_fd_sc_hd__diode_2
*I *904:DIODE I *D sky130_fd_sc_hd__diode_2
*I *907:DIODE I *D sky130_fd_sc_hd__diode_2
*I *906:DIODE I *D sky130_fd_sc_hd__diode_2
*I *905:DIODE I *D sky130_fd_sc_hd__diode_2
*I *903:DIODE I *D sky130_fd_sc_hd__diode_2
*I *902:DIODE I *D sky130_fd_sc_hd__diode_2
*I *11303:A1 I *D sky130_fd_sc_hd__mux2_1
*I *11524:DO[25] O *D CF_SRAM_1024x32
*CAP
1 *913:DIODE 0.000103156
2 *909:DIODE 0
3 *908:DIODE 0
4 *912:DIODE 4.03783e-05
5 *914:DIODE 0.000179904
6 *910:DIODE 0
7 *915:DIODE 0
8 *904:DIODE 0
9 *907:DIODE 7.93001e-05
10 *906:DIODE 0
11 *905:DIODE 0.000115804
12 *903:DIODE 0
13 *902:DIODE 0
14 *11303:A1 0.000527686
15 *11524:DO[25] 3.50576e-05
16 *254:127 0.000206313
17 *254:99 0.000221997
18 *254:95 8.24715e-05
19 *254:93 0.000651307
20 *254:60 0.000195
21 *254:58 0.000248599
22 *254:35 0.000637457
23 *254:33 0.000171654
24 *254:31 0.000212913
25 *254:29 0.000315793
26 *254:27 0.000278652
27 *254:25 0.00176573
28 *254:23 0.00285517
29 *254:13 0.0140288
30 *254:11 0.0129727
31 *254:5 0.000640288
32 *912:DIODE *433:10 0.000125731
33 *912:DIODE *474:112 0.000116481
34 *913:DIODE *411:22 8.55871e-05
35 *254:5 *11524:DI[25] 3.91239e-05
36 *254:11 *411:36 4.12513e-05
37 *254:13 *11524:BEN[18] 0.000341042
38 *254:13 *11524:BEN[24] 0.000118506
39 *254:13 *11524:AD[4] 1.94945e-05
40 *254:13 *11524:DI[14] 1.94879e-05
41 *254:13 *11524:DI[13] 0.000162032
42 *254:13 *258:14 0
43 *254:13 *400:30 0.000113864
44 *254:13 *407:28 9.11899e-05
45 *254:13 *409:28 1.94945e-05
46 *254:13 *411:36 5.28924e-05
47 *254:13 *427:42 4.38243e-05
48 *254:13 *474:98 7.48052e-05
49 *254:13 *491:74 6.36172e-05
50 *254:13 *552:125 0.000121638
51 *254:23 *11524:DI[15] 1.94879e-05
52 *254:23 *548:20 0.000137578
53 *254:23 *558:367 6.87181e-05
54 *254:23 *574:10 0.000594799
55 *254:25 *11315:A1 0.000445558
56 *254:25 *258:26 0.00106806
57 *254:25 *573:14 0.000704306
58 *254:93 *11524:DI[25] 2.59355e-05
59 *254:93 *411:22 0.000540271
60 *254:99 *433:10 0.000151333
61 *254:99 *474:112 0.000153047
62 *254:127 *411:22 8.55871e-05
63 *669:DIODE *11303:A1 0.000175251
64 *688:DIODE *254:25 5.56594e-05
65 *694:DIODE *254:25 0.000188586
66 *696:DIODE *254:25 7.50473e-05
67 *11524:CLKin *254:13 0.000212293
68 *11524:R_WB *254:13 1.94945e-05
69 *168:86 *11303:A1 9.90367e-05
70 *182:135 *11303:A1 0.000272147
71 *182:142 *11303:A1 0.000435867
72 *182:149 *11303:A1 0.000175251
73 *190:96 *254:25 0.00069487
74 *190:103 *254:25 0.000313019
75 *190:110 *254:25 0.000188586
76 *190:117 *254:25 0.000188586
77 *190:133 *254:25 6.62783e-05
78 *190:152 *254:25 5.04705e-05
79 *238:69 *254:13 0.000243098
80 *241:47 *254:13 0.00038523
81 *242:11 *254:13 4.38265e-05
82 *243:11 *254:13 0.000453626
83 *243:11 *254:23 0.000445006
84 *244:9 *254:13 0.00012327
85 *244:13 *254:13 0.000338436
86 *245:20 *254:13 0.000555285
87 *247:11 *254:13 0.000504638
88 *247:15 *254:13 0.0102974
89 *247:21 *254:13 7.89828e-05
90 *247:21 *254:23 0.000519193
91 *249:19 *254:13 1.94879e-05
92 *251:17 *254:13 0.00101307
93 *252:11 *254:13 0
94 *252:29 *254:25 0.000625071
95 *253:17 *254:13 4.38243e-05
*RES
1 *11524:DO[25] *254:5 0.883929 
2 *254:5 *254:11 5.55357 
3 *254:11 *254:13 259.375 
4 *254:13 *254:23 32.9911 
5 *254:23 *254:25 50.2321 
6 *254:25 *254:27 0.428571 
7 *254:27 *254:29 3.41071 
8 *254:29 *254:31 0.946429 
9 *254:31 *254:33 0.946429 
10 *254:33 *254:35 1.76786 
11 *254:35 *11303:A1 20.925 
12 *254:35 *902:DIODE 9.3 
13 *254:33 *903:DIODE 9.3 
14 *254:31 *254:58 10.3393 
15 *254:58 *254:60 0.946429 
16 *254:60 *905:DIODE 10.6571 
17 *254:60 *906:DIODE 9.3 
18 *254:58 *907:DIODE 10.2464 
19 *254:29 *904:DIODE 9.3 
20 *254:27 *915:DIODE 9.3 
21 *254:5 *254:93 10.9911 
22 *254:93 *254:95 4.5 
23 *254:95 *254:99 6.44643 
24 *254:99 *910:DIODE 9.3 
25 *254:99 *914:DIODE 11.0679 
26 *254:95 *912:DIODE 15.4429 
27 *254:93 *908:DIODE 9.3 
28 *254:93 *254:127 1.76786 
29 *254:127 *909:DIODE 9.3 
30 *254:127 *913:DIODE 11.0679 
*END

*D_NET *255 0.0500942
*CONN
*I *916:DIODE I *D sky130_fd_sc_hd__diode_2
*I *11306:A1 I *D sky130_fd_sc_hd__mux2_2
*I *917:DIODE I *D sky130_fd_sc_hd__diode_2
*I *11524:DO[26] O *D CF_SRAM_1024x32
*CAP
1 *916:DIODE 0
2 *11306:A1 0.000410621
3 *917:DIODE 0
4 *11524:DO[26] 0.00069308
5 *255:26 0.00114416
6 *255:22 0.00388659
7 *255:20 0.00475654
8 *255:11 0.00229656
9 *255:11 *11524:DI[26] 0.000105808
10 *255:11 *413:22 0.00113747
11 *255:20 *413:22 0.000998232
12 *255:22 *257:22 0.015441
13 *255:22 *260:22 0.00103732
14 *255:22 *261:22 0.0160977
15 *255:22 *363:40 0.00170319
16 *676:DIODE *11306:A1 0.00016775
17 *184:86 *11306:A1 0.00021816
*RES
1 *11524:DO[26] *255:11 13.9107 
2 *255:11 *917:DIODE 9.3 
3 *255:11 *255:20 22.6964 
4 *255:20 *255:22 225.071 
5 *255:22 *255:26 15.7143 
6 *255:26 *11306:A1 15.9071 
7 *255:26 *916:DIODE 9.3 
*END

*D_NET *256 0.0349969
*CONN
*I *919:DIODE I *D sky130_fd_sc_hd__diode_2
*I *918:DIODE I *D sky130_fd_sc_hd__diode_2
*I *11309:A1 I *D sky130_fd_sc_hd__mux2_2
*I *11524:DO[27] O *D CF_SRAM_1024x32
*CAP
1 *919:DIODE 5.44469e-05
2 *918:DIODE 0.000211231
3 *11309:A1 0
4 *11524:DO[27] 0.00076132
5 *256:23 0.000566627
6 *256:19 0.00486172
7 *256:17 0.00484196
8 *256:9 0.0011514
9 *919:DIODE *433:10 0.000119217
10 *919:DIODE *474:112 0.000110594
11 *256:17 *11524:BEN[26] 2.59355e-05
12 *256:17 *433:10 0.000394351
13 *256:17 *474:112 0.000394351
14 *256:19 *11524:BEN[23] 0.000662649
15 *256:19 *11524:BEN[0] 0.000786914
16 *256:19 *356:10 0.0008528
17 *256:19 *396:50 2.09897e-05
18 *256:19 *398:54 0.000855968
19 *256:19 *405:24 0.00023469
20 *256:19 *405:44 0.00168476
21 *256:19 *418:26 0.00143318
22 *256:19 *418:38 0.000789137
23 *256:19 *418:60 0.000387494
24 *256:19 *422:32 0.000461541
25 *256:19 *463:73 0.00156859
26 *256:19 *467:80 6.79325e-05
27 *256:19 *467:82 0.00184062
28 *256:19 *491:92 4.58835e-05
29 *256:19 *549:187 0.00077127
30 *256:19 *552:153 0.000801008
31 *256:19 *552:165 0.000689761
32 *256:19 *552:177 0.000779106
33 *256:19 *552:189 0.000777957
34 *256:19 *555:112 0.00082348
35 *256:19 *555:124 0.000701005
36 *256:19 *574:16 0.00325109
37 *256:19 *576:8 0.000385929
38 *256:23 *11447:A 8.14358e-06
39 *11309:A0 *256:23 0.000430832
40 *11309:S *918:DIODE 1.21258e-05
41 *11309:S *256:23 2.95726e-05
42 *186:12 *256:19 0
43 *192:16 *256:19 0.000349323
*RES
1 *11524:DO[27] *256:9 16.3 
2 *256:9 *256:17 17.3929 
3 *256:17 *256:19 186.518 
4 *256:19 *256:23 9.55357 
5 *256:23 *11309:A1 9.3 
6 *256:23 *918:DIODE 11.4786 
7 *256:9 *919:DIODE 15.4429 
*END

*D_NET *257 0.0469143
*CONN
*I *920:DIODE I *D sky130_fd_sc_hd__diode_2
*I *11312:A1 I *D sky130_fd_sc_hd__mux2_2
*I *921:DIODE I *D sky130_fd_sc_hd__diode_2
*I *11524:DO[28] O *D CF_SRAM_1024x32
*CAP
1 *920:DIODE 0
2 *11312:A1 0.000173809
3 *921:DIODE 0
4 *11524:DO[28] 0.000779176
5 *257:26 0.00109213
6 *257:22 0.00348764
7 *257:20 0.00433836
8 *257:11 0.00254821
9 *11312:A1 *372:71 6.44554e-05
10 *257:11 *11524:DI[28] 1.48428e-05
11 *257:11 *420:14 6.7279e-05
12 *257:11 *420:16 0.000305966
13 *257:20 *420:14 0.000165152
14 *257:22 *261:22 0.000881782
15 *257:22 *363:40 0.0170342
16 *257:26 *372:71 0.000467037
17 *11312:S *11312:A1 5.33005e-05
18 *255:22 *257:22 0.015441
*RES
1 *11524:DO[28] *257:11 13.875 
2 *257:11 *921:DIODE 9.3 
3 *257:11 *257:20 23.1071 
4 *257:20 *257:22 207.768 
5 *257:22 *257:26 19.4107 
6 *257:26 *11312:A1 11.8893 
7 *257:26 *920:DIODE 9.3 
*END

*D_NET *258 0.0669839
*CONN
*I *924:DIODE I *D sky130_fd_sc_hd__diode_2
*I *923:DIODE I *D sky130_fd_sc_hd__diode_2
*I *11315:A1 I *D sky130_fd_sc_hd__mux2_1
*I *11524:DO[29] O *D CF_SRAM_1024x32
*CAP
1 *924:DIODE 0.00069189
2 *923:DIODE 0
3 *11315:A1 0.000810699
4 *11524:DO[29] 0.000184031
5 *258:26 0.00293947
6 *258:22 0.0046308
7 *258:20 0.00257764
8 *258:14 0.00527343
9 *258:12 0.00519782
10 *258:10 0.000875921
11 *258:4 0
12 *924:DIODE *11524:BEN[28] 0
13 *924:DIODE *433:26 7.64454e-05
14 *258:10 *11524:BEN[28] 0
15 *258:10 *11524:DI[29] 0
16 *258:10 *433:26 0
17 *258:14 *11524:BEN[24] 0
18 *258:14 *11524:DI[27] 0
19 *258:14 *398:18 0.00157118
20 *258:14 *398:40 4.66499e-05
21 *258:14 *407:28 0
22 *258:14 *411:36 0
23 *258:14 *413:36 0
24 *258:14 *420:30 0
25 *258:14 *422:52 4.3588e-05
26 *258:14 *571:34 0.00081817
27 *258:22 *548:20 4.39986e-05
28 *258:22 *570:18 0.00608873
29 *258:22 *570:26 4.37659e-05
30 *258:22 *571:26 0.000188756
31 *258:22 *571:34 3.40246e-05
32 *258:26 *573:14 1.88536e-05
33 *11312:A0 *258:22 0.00123386
34 *187:22 *258:22 0.00133975
35 *187:36 *258:22 0.00116745
36 *187:38 *258:22 3.30575e-05
37 *189:10 *258:22 0.0078565
38 *194:18 *258:14 0.0157495
39 *194:32 *258:22 0.000895838
40 *202:139 *258:14 0.00370539
41 *247:15 *258:14 0
42 *251:29 *11315:A1 0.000230198
43 *251:29 *258:26 0.000142051
44 *252:11 *258:14 0.000960815
45 *253:17 *258:14 0
46 *254:13 *258:14 0
47 *254:25 *11315:A1 0.000445558
48 *254:25 *258:26 0.00106806
*RES
1 *11524:DO[29] *258:4 0.21875 
2 *11524:DO[29] *258:10 3.41071 
3 *258:10 *258:12 4.5 
4 *258:12 *258:14 199.268 
5 *258:14 *258:20 10.3393 
6 *258:20 *258:22 124.589 
7 *258:22 *258:26 33.375 
8 *258:26 *11315:A1 20.8357 
9 *258:26 *923:DIODE 9.3 
10 *258:10 *924:DIODE 19.4071 
*END

*D_NET *259 0.0586897
*CONN
*I *932:DIODE I *D sky130_fd_sc_hd__diode_2
*I *931:DIODE I *D sky130_fd_sc_hd__diode_2
*I *930:DIODE I *D sky130_fd_sc_hd__diode_2
*I *929:DIODE I *D sky130_fd_sc_hd__diode_2
*I *928:DIODE I *D sky130_fd_sc_hd__diode_2
*I *11224:A1 I *D sky130_fd_sc_hd__mux2_2
*I *925:DIODE I *D sky130_fd_sc_hd__diode_2
*I *926:DIODE I *D sky130_fd_sc_hd__diode_2
*I *927:DIODE I *D sky130_fd_sc_hd__diode_2
*I *11524:DO[2] O *D CF_SRAM_1024x32
*CAP
1 *932:DIODE 0.000109088
2 *931:DIODE 0
3 *930:DIODE 0
4 *929:DIODE 0
5 *928:DIODE 0
6 *11224:A1 0
7 *925:DIODE 0
8 *926:DIODE 0
9 *927:DIODE 0.00014548
10 *11524:DO[2] 8.619e-05
11 *259:78 0.000218175
12 *259:71 0.000198996
13 *259:64 0.000651036
14 *259:35 0.000272454
15 *259:33 0.000441383
16 *259:31 0.000567002
17 *259:29 0.000698014
18 *259:19 0.00225771
19 *259:17 0.00181229
20 *259:15 0.0129637
21 *259:13 0.0129748
22 *259:7 0.000658415
23 *932:DIODE *391:42 7.95355e-05
24 *259:7 *11524:BEN[1] 0
25 *259:7 *11524:DI[2] 6.86693e-05
26 *259:7 *391:42 6.05161e-06
27 *259:15 *11524:DI[1] 0
28 *259:15 *391:30 0.0101469
29 *259:15 *391:68 0.00711698
30 *259:64 *11524:BEN[1] 0
31 *259:64 *391:42 0.000525917
32 *259:71 *391:42 8.86413e-05
33 *259:78 *391:42 7.95355e-05
34 *11224:A0 *927:DIODE 9.83442e-05
35 *11224:A0 *259:33 0.000286046
36 *11224:A0 *259:35 0.000169387
37 *111:10 *259:29 0.000358827
38 *143:41 *259:29 0.000357112
39 *214:22 *259:19 0.00123949
40 *237:13 *259:13 1.94945e-05
41 *237:15 *259:15 0
42 *237:23 *259:19 0.00115977
43 *241:53 *259:19 0.00263132
44 *242:35 *259:31 0.000143745
45 *242:35 *259:33 3.97677e-05
46 *246:69 *259:19 0
47 *247:15 *259:13 1.94945e-05
*RES
1 *11524:DO[2] *259:7 1.50893 
2 *259:7 *259:13 8.18679 
3 *259:13 *259:15 49.3406 
4 *259:15 *259:17 3.41 
5 *259:17 *259:19 63.1161 
6 *259:19 *259:29 22.8214 
7 *259:29 *259:31 3 
8 *259:31 *259:33 3.82143 
9 *259:33 *259:35 1.76786 
10 *259:35 *927:DIODE 11.0679 
11 *259:35 *926:DIODE 9.3 
12 *259:33 *925:DIODE 9.3 
13 *259:31 *11224:A1 9.3 
14 *259:29 *928:DIODE 9.3 
15 *259:7 *259:64 10.3929 
16 *259:64 *929:DIODE 9.3 
17 *259:64 *259:71 1.76786 
18 *259:71 *930:DIODE 9.3 
19 *259:71 *259:78 1.76786 
20 *259:78 *931:DIODE 9.3 
21 *259:78 *932:DIODE 11.0679 
*END

*D_NET *260 0.0578642
*CONN
*I *934:DIODE I *D sky130_fd_sc_hd__diode_2
*I *11318:A1 I *D sky130_fd_sc_hd__mux2_2
*I *935:DIODE I *D sky130_fd_sc_hd__diode_2
*I *11524:DO[30] O *D CF_SRAM_1024x32
*CAP
1 *934:DIODE 0
2 *11318:A1 0.000249658
3 *935:DIODE 0
4 *11524:DO[30] 0.000849266
5 *260:26 0.00150932
6 *260:22 0.00643371
7 *260:20 0.00695433
8 *260:11 0.00262956
9 *260:11 *11524:DI[30] 4.25652e-05
10 *260:11 *456:18 3.77065e-05
11 *260:11 *456:37 5.33334e-05
12 *260:20 *456:18 3.69047e-06
13 *260:22 *261:22 0.0187958
14 *260:22 *365:80 0
15 *260:22 *367:76 0.00034658
16 *260:22 *369:81 0.0188681
17 *11318:S *11318:A1 5.33005e-05
18 *255:22 *260:22 0.00103732
*RES
1 *11524:DO[30] *260:11 13.4286 
2 *260:11 *935:DIODE 9.3 
3 *260:11 *260:20 22.2857 
4 *260:20 *260:22 260.893 
5 *260:22 *260:26 18.1786 
6 *260:26 *11318:A1 11.8893 
7 *260:26 *934:DIODE 9.3 
*END

*D_NET *261 0.0540272
*CONN
*I *936:DIODE I *D sky130_fd_sc_hd__diode_2
*I *11321:A1 I *D sky130_fd_sc_hd__mux2_2
*I *937:DIODE I *D sky130_fd_sc_hd__diode_2
*I *11524:DO[31] O *D CF_SRAM_1024x32
*CAP
1 *936:DIODE 0
2 *11321:A1 0.000228803
3 *937:DIODE 0
4 *11524:DO[31] 0.000867727
5 *261:26 0.00135816
6 *261:22 0.00525881
7 *261:20 0.00593478
8 *261:11 0.00267305
9 *11321:A1 *369:79 4.44369e-05
10 *261:11 *11524:DI[31] 0
11 *261:11 *465:14 5.21937e-05
12 *261:22 *363:40 0.000941502
13 *261:22 *369:81 0.000405381
14 *261:26 *369:79 0.000433757
15 *11321:S *11321:A1 5.33005e-05
16 *255:22 *261:22 0.0160977
17 *257:22 *261:22 0.000881782
18 *260:22 *261:22 0.0187958
*RES
1 *11524:DO[31] *261:11 13.4107 
2 *261:11 *937:DIODE 9.3 
3 *261:11 *261:20 22.6964 
4 *261:20 *261:22 246.321 
5 *261:22 *261:26 18.5893 
6 *261:26 *11321:A1 11.8893 
7 *261:26 *936:DIODE 9.3 
*END

*D_NET *262 0.0520706
*CONN
*I *939:DIODE I *D sky130_fd_sc_hd__diode_2
*I *938:DIODE I *D sky130_fd_sc_hd__diode_2
*I *11227:A1 I *D sky130_fd_sc_hd__mux2_2
*I *11524:DO[3] O *D CF_SRAM_1024x32
*CAP
1 *939:DIODE 0.000548319
2 *938:DIODE 0
3 *11227:A1 0.00026183
4 *11524:DO[3] 8.1054e-05
5 *262:23 0.000650495
6 *262:19 0.00116087
7 *262:17 0.000772205
8 *262:15 0.0159262
9 *262:13 0.0159424
10 *262:7 0.000645653
11 *939:DIODE *11458:A 0
12 *939:DIODE *11524:BEN[2] 0
13 *939:DIODE *385:38 0.000531012
14 *262:7 *11524:BEN[2] 0
15 *262:7 *385:38 7.11447e-05
16 *262:15 *11524:DI[3] 0
17 *262:15 *385:58 0.00744456
18 *262:19 *363:66 0.000251371
19 *11227:S *11227:A1 1.58163e-05
20 *222:28 *262:19 0.00387509
21 *237:15 *262:15 0
22 *246:69 *262:19 0.00387303
23 *247:15 *262:13 1.94945e-05
*RES
1 *11524:DO[3] *262:7 1.52679 
2 *262:7 *262:13 8.18679 
3 *262:13 *262:15 49.7009 
4 *262:15 *262:17 3.41 
5 *262:17 *262:19 48.2411 
6 *262:19 *262:23 8.73214 
7 *262:23 *11227:A1 11.8893 
8 *262:23 *938:DIODE 9.3 
9 *262:7 *939:DIODE 19.6929 
*END

*D_NET *263 0.0666026
*CONN
*I *941:DIODE I *D sky130_fd_sc_hd__diode_2
*I *942:DIODE I *D sky130_fd_sc_hd__diode_2
*I *11230:A1 I *D sky130_fd_sc_hd__mux2_2
*I *940:DIODE I *D sky130_fd_sc_hd__diode_2
*I *943:DIODE I *D sky130_fd_sc_hd__diode_2
*I *11524:DO[4] O *D CF_SRAM_1024x32
*CAP
1 *941:DIODE 0.000595285
2 *942:DIODE 0
3 *11230:A1 0
4 *940:DIODE 0
5 *943:DIODE 0.000129291
6 *11524:DO[4] 8.38689e-05
7 *263:29 0.000498953
8 *263:27 0.000613739
9 *263:23 0.000378449
10 *263:19 0.00124827
11 *263:17 0.0011139
12 *263:15 0.0259171
13 *263:13 0.0259434
14 *263:7 0.000705532
15 *941:DIODE *380:70 0.000509902
16 *263:7 *380:70 6.95411e-05
17 *263:13 *549:157 6.58704e-05
18 *263:15 *11524:DI[3] 0
19 *263:19 *363:66 0.000110498
20 *828:DIODE *263:19 0.000188405
21 *11230:A0 *263:29 0.0001399
22 *11230:S *263:27 0.000177821
23 *131:8 *943:DIODE 1.83136e-05
24 *131:8 *263:29 0.000124929
25 *224:36 *263:19 0.00400581
26 *239:71 *263:19 0.00376357
27 *242:35 *263:27 9.41642e-05
28 *244:23 *263:19 2.04825e-05
29 *245:26 *263:19 1.97827e-05
30 *247:15 *263:13 6.58704e-05
*RES
1 *11524:DO[4] *263:7 1.54464 
2 *263:7 *263:13 8.79393 
3 *263:13 *263:15 49.9171 
4 *263:15 *263:17 3.41 
5 *263:17 *263:19 51.2768 
6 *263:19 *263:23 5.85714 
7 *263:23 *263:27 4.33929 
8 *263:27 *263:29 5.875 
9 *263:29 *943:DIODE 11.0679 
10 *263:29 *940:DIODE 9.3 
11 *263:27 *11230:A1 9.3 
12 *263:23 *942:DIODE 9.3 
13 *263:7 *941:DIODE 19.6929 
*END

*D_NET *264 0.0544458
*CONN
*I *950:DIODE I *D sky130_fd_sc_hd__diode_2
*I *949:DIODE I *D sky130_fd_sc_hd__diode_2
*I *948:DIODE I *D sky130_fd_sc_hd__diode_2
*I *945:DIODE I *D sky130_fd_sc_hd__diode_2
*I *11233:A1 I *D sky130_fd_sc_hd__mux2_2
*I *946:DIODE I *D sky130_fd_sc_hd__diode_2
*I *947:DIODE I *D sky130_fd_sc_hd__diode_2
*I *11524:DO[5] O *D CF_SRAM_1024x32
*CAP
1 *950:DIODE 0.00013606
2 *949:DIODE 0
3 *948:DIODE 0
4 *945:DIODE 0
5 *11233:A1 0
6 *946:DIODE 0
7 *947:DIODE 0.000166343
8 *11524:DO[5] 6.68111e-05
9 *264:68 0.000248841
10 *264:61 0.000785535
11 *264:35 0.000506235
12 *264:33 0.000606985
13 *264:29 0.00850325
14 *264:19 0.0118985
15 *264:5 0.00440189
16 *264:5 *11524:DI[5] 8.59671e-05
17 *264:19 *376:67 4.06508e-05
18 *264:19 *549:143 0.0002136
19 *264:29 *11524:DI[6] 0.00194978
20 *264:29 *268:29 0.0115002
21 *264:29 *369:28 0
22 *264:29 *372:28 0.00419151
23 *264:61 *11524:DI[5] 1.98839e-05
24 *264:61 *376:79 0.000386791
25 *264:61 *548:32 0
26 *11233:S *947:DIODE 3.69047e-06
27 *11233:S *264:33 1.92789e-05
28 *11233:S *264:35 4.11889e-05
29 *111:10 *264:29 1.94945e-05
30 *132:22 *264:35 0.000155267
31 *133:12 *947:DIODE 3.30337e-05
32 *143:80 *264:29 6.05161e-06
33 *238:71 *264:19 0.00769895
34 *240:22 *264:29 2.09897e-05
35 *247:15 *264:19 0.000462775
36 *248:21 *264:19 0.000276302
*RES
1 *11524:DO[5] *264:5 1.29464 
2 *264:5 *264:19 34.9652 
3 *264:19 *264:29 47.6061 
4 *264:29 *264:33 3.01786 
5 *264:33 *264:35 4.23214 
6 *264:35 *947:DIODE 11.0679 
7 *264:35 *946:DIODE 9.3 
8 *264:33 *11233:A1 9.3 
9 *264:29 *945:DIODE 9.3 
10 *264:5 *264:61 10.6607 
11 *264:61 *948:DIODE 9.3 
12 *264:61 *264:68 1.76786 
13 *264:68 *949:DIODE 9.3 
14 *264:68 *950:DIODE 11.0679 
*END

*D_NET *265 0.0551132
*CONN
*I *11236:A1 I *D sky130_fd_sc_hd__mux2_2
*I *951:DIODE I *D sky130_fd_sc_hd__diode_2
*I *952:DIODE I *D sky130_fd_sc_hd__diode_2
*I *953:DIODE I *D sky130_fd_sc_hd__diode_2
*I *954:DIODE I *D sky130_fd_sc_hd__diode_2
*I *957:DIODE I *D sky130_fd_sc_hd__diode_2
*I *956:DIODE I *D sky130_fd_sc_hd__diode_2
*I *959:DIODE I *D sky130_fd_sc_hd__diode_2
*I *958:DIODE I *D sky130_fd_sc_hd__diode_2
*I *11524:DO[6] O *D CF_SRAM_1024x32
*CAP
1 *11236:A1 2.17071e-05
2 *951:DIODE 0
3 *952:DIODE 0
4 *953:DIODE 0
5 *954:DIODE 7.05357e-05
6 *957:DIODE 0.000133441
7 *956:DIODE 0
8 *959:DIODE 0
9 *958:DIODE 0
10 *11524:DO[6] 0.000170779
11 *265:67 0.000199112
12 *265:65 0.000253879
13 *265:63 0.000588882
14 *265:53 0.0137755
15 *265:51 0.0132902
16 *265:37 0.000620967
17 *265:24 0.000650851
18 *265:17 0.000984168
19 *265:11 0.000991621
20 *957:DIODE *372:71 0.000180355
21 *265:11 *11524:BEN[5] 0
22 *265:11 *11524:DI[6] 0.000107064
23 *265:11 *372:71 0.000180348
24 *265:11 *549:127 0.000308778
25 *265:17 *11524:BEN[6] 0
26 *265:17 *11524:DI[6] 2.11419e-05
27 *265:17 *549:127 1.94945e-05
28 *265:37 *378:41 0.000132585
29 *265:37 *389:104 0.000134692
30 *265:53 *11524:DI[6] 0.00848811
31 *265:53 *268:39 0.00353418
32 *265:53 *372:28 0.00931178
33 *265:63 *372:28 0.000154511
34 *265:63 *552:12 4.29471e-05
35 *751:DIODE *265:63 9.41642e-05
36 *134:18 *11236:A1 4.08789e-05
37 *135:8 *265:63 8.83549e-05
38 *135:8 *265:65 4.85033e-05
39 *135:8 *265:67 5.21937e-05
40 *138:10 *265:63 4.11173e-05
41 *150:14 *954:DIODE 0.000172226
42 *152:12 *954:DIODE 5.9462e-05
43 *213:33 *11236:A1 4.24541e-05
44 *247:15 *265:11 0.000106299
45 *248:25 *265:53 0
*RES
1 *11524:DO[6] *265:11 10.3929 
2 *265:11 *265:17 14.7589 
3 *265:17 *958:DIODE 9.3 
4 *265:17 *265:24 1.76786 
5 *265:24 *959:DIODE 9.3 
6 *265:24 *265:37 16.2857 
7 *265:37 *956:DIODE 9.3 
8 *265:37 *957:DIODE 11.0679 
9 *265:11 *265:51 3.41 
10 *265:51 *265:53 51.5026 
11 *265:53 *265:63 12.0418 
12 *265:63 *265:65 1.76786 
13 *265:65 *265:67 1.76786 
14 *265:67 *954:DIODE 20.55 
15 *265:67 *953:DIODE 9.3 
16 *265:65 *952:DIODE 9.3 
17 *265:63 *951:DIODE 9.3 
18 *265:53 *11236:A1 17.7904 
*END

*D_NET *266 0.054577
*CONN
*I *968:DIODE I *D sky130_fd_sc_hd__diode_2
*I *965:DIODE I *D sky130_fd_sc_hd__diode_2
*I *964:DIODE I *D sky130_fd_sc_hd__diode_2
*I *967:DIODE I *D sky130_fd_sc_hd__diode_2
*I *963:DIODE I *D sky130_fd_sc_hd__diode_2
*I *11239:A1 I *D sky130_fd_sc_hd__mux2_2
*I *960:DIODE I *D sky130_fd_sc_hd__diode_2
*I *962:DIODE I *D sky130_fd_sc_hd__diode_2
*I *961:DIODE I *D sky130_fd_sc_hd__diode_2
*I *11524:DO[7] O *D CF_SRAM_1024x32
*CAP
1 *968:DIODE 0.000131446
2 *965:DIODE 0.000122041
3 *964:DIODE 0
4 *967:DIODE 0
5 *963:DIODE 0
6 *11239:A1 0
7 *960:DIODE 0
8 *962:DIODE 0.000128576
9 *961:DIODE 0
10 *11524:DO[7] 0.000260544
11 *266:83 0.000615453
12 *266:75 0.000670434
13 *266:68 0.00104645
14 *266:36 0.000416686
15 *266:34 0.000571549
16 *266:23 0.000392375
17 *266:21 0.000126612
18 *266:15 0.0109352
19 *266:13 0.0121789
20 *965:DIODE *369:79 0.000181996
21 *266:13 *11524:BEN[6] 0
22 *266:13 *11524:BEN[7] 1.94945e-05
23 *266:13 *11524:DI[7] 0.000136951
24 *266:13 *268:23 0.000536174
25 *266:13 *369:63 1.90936e-05
26 *266:13 *369:79 5.33005e-05
27 *266:13 *548:20 1.13265e-05
28 *266:13 *549:115 0.000346208
29 *266:15 *267:47 0.0176888
30 *266:15 *549:97 0.000676329
31 *266:15 *549:101 0.00530808
32 *266:68 *526:24 0.000170008
33 *266:68 *576:8 0.000168293
34 *266:83 *11467:A 0.00025263
35 *266:83 *369:79 0.000509515
36 *266:83 *569:30 0.000125922
37 *130:10 *266:21 2.09897e-05
38 *137:8 *962:DIODE 5.21937e-05
39 *137:8 *266:36 5.21937e-05
40 *168:114 *266:83 0.000392997
41 *238:69 *266:13 0.000202128
42 *238:69 *266:15 2.60973e-05
43 *238:69 *266:68 1.20849e-05
44 *247:15 *266:13 1.79038e-05
*RES
1 *11524:DO[7] *266:13 17.4279 
2 *266:13 *266:15 50.9981 
3 *266:15 *266:21 8.18679 
4 *266:21 *266:23 1.35714 
5 *266:23 *961:DIODE 9.3 
6 *266:23 *266:34 4.26786 
7 *266:34 *266:36 3.82143 
8 *266:36 *962:DIODE 11.0679 
9 *266:36 *960:DIODE 9.3 
10 *266:34 *11239:A1 9.3 
11 *266:21 *963:DIODE 9.3 
12 *266:13 *266:68 14.2803 
13 *266:68 *967:DIODE 9.3 
14 *266:68 *266:75 0.535714 
15 *266:75 *266:83 19.0357 
16 *266:83 *964:DIODE 9.3 
17 *266:83 *965:DIODE 11.0679 
18 *266:75 *968:DIODE 10.6571 
*END

*D_NET *267 0.0517545
*CONN
*I *11242:A1 I *D sky130_fd_sc_hd__mux2_2
*I *969:DIODE I *D sky130_fd_sc_hd__diode_2
*I *970:DIODE I *D sky130_fd_sc_hd__diode_2
*I *972:DIODE I *D sky130_fd_sc_hd__diode_2
*I *971:DIODE I *D sky130_fd_sc_hd__diode_2
*I *976:DIODE I *D sky130_fd_sc_hd__diode_2
*I *974:DIODE I *D sky130_fd_sc_hd__diode_2
*I *973:DIODE I *D sky130_fd_sc_hd__diode_2
*I *975:DIODE I *D sky130_fd_sc_hd__diode_2
*I *11524:DO[8] O *D CF_SRAM_1024x32
*CAP
1 *11242:A1 0
2 *969:DIODE 0
3 *970:DIODE 0
4 *972:DIODE 2.60795e-05
5 *971:DIODE 5.1188e-05
6 *976:DIODE 0.000135786
7 *974:DIODE 0
8 *973:DIODE 0
9 *975:DIODE 0.000273594
10 *11524:DO[8] 8.70244e-05
11 *267:63 0.000254054
12 *267:59 0.00034927
13 *267:57 0.000554449
14 *267:55 0.000436698
15 *267:47 0.0142655
16 *267:45 0.0142433
17 *267:27 0.000259071
18 *267:20 0.000307327
19 *267:9 0.00105012
20 *267:5 0.000712046
21 *971:DIODE *383:48 0.00020212
22 *972:DIODE *383:48 6.98302e-05
23 *975:DIODE *367:74 0.000261799
24 *267:5 *367:74 0
25 *267:9 *367:74 0
26 *267:45 *268:23 8.21992e-05
27 *267:47 *367:28 0
28 *267:47 *367:64 0
29 *267:47 *549:97 0
30 *11242:S *267:55 4.85049e-06
31 *126:10 *267:55 1.90936e-05
32 *138:10 *267:55 2.04825e-05
33 *139:10 *267:57 1.22751e-05
34 *139:10 *267:59 1.22751e-05
35 *139:10 *267:63 1.32091e-05
36 *152:14 *971:DIODE 0.000200406
37 *152:14 *972:DIODE 7.83659e-05
38 *247:15 *267:45 8.32562e-05
39 *266:15 *267:47 0.0176888
*RES
1 *11524:DO[8] *267:5 1.29464 
2 *267:5 *267:9 8.16071 
3 *267:9 *975:DIODE 13.5321 
4 *267:9 *267:20 2.58929 
5 *267:20 *973:DIODE 9.3 
6 *267:20 *267:27 1.76786 
7 *267:27 *974:DIODE 9.3 
8 *267:27 *976:DIODE 11.0679 
9 *267:5 *267:45 8.99036 
10 *267:45 *267:47 51.7909 
11 *267:47 *267:55 8.7225 
12 *267:55 *267:57 3.82143 
13 *267:57 *267:59 1.76786 
14 *267:59 *267:63 6.26786 
15 *267:63 *971:DIODE 16.3536 
16 *267:63 *972:DIODE 14.8357 
17 *267:59 *970:DIODE 9.3 
18 *267:57 *969:DIODE 9.3 
19 *267:55 *11242:A1 9.3 
*END

*D_NET *268 0.0568503
*CONN
*I *984:DIODE I *D sky130_fd_sc_hd__diode_2
*I *983:DIODE I *D sky130_fd_sc_hd__diode_2
*I *986:DIODE I *D sky130_fd_sc_hd__diode_2
*I *985:DIODE I *D sky130_fd_sc_hd__diode_2
*I *982:DIODE I *D sky130_fd_sc_hd__diode_2
*I *980:DIODE I *D sky130_fd_sc_hd__diode_2
*I *11248:A1 I *D sky130_fd_sc_hd__mux2_2
*I *979:DIODE I *D sky130_fd_sc_hd__diode_2
*I *981:DIODE I *D sky130_fd_sc_hd__diode_2
*I *11524:DO[9] O *D CF_SRAM_1024x32
*CAP
1 *984:DIODE 0.000170831
2 *983:DIODE 0
3 *986:DIODE 3.62408e-05
4 *985:DIODE 6.45584e-05
5 *982:DIODE 0
6 *980:DIODE 0
7 *11248:A1 0
8 *979:DIODE 0
9 *981:DIODE 0.000166658
10 *11524:DO[9] 4.61699e-05
11 *268:76 0.000100799
12 *268:74 0.00104423
13 *268:45 0.000532905
14 *268:43 0.000736997
15 *268:41 0.000501395
16 *268:39 0.00173142
17 *268:29 0.0117806
18 *268:23 0.0111259
19 *268:5 0.00186562
20 *985:DIODE *569:16 7.29452e-05
21 *986:DIODE *569:16 3.48235e-05
22 *268:23 *11524:BEN[8] 1.57724e-05
23 *268:23 *367:64 0.000116612
24 *268:23 *369:63 2.63501e-05
25 *268:29 *11524:DI[6] 0
26 *268:29 *369:28 0.00377066
27 *268:29 *369:63 0.00519896
28 *268:74 *11524:BEN[8] 0
29 *268:74 *365:78 0
30 *11248:S *268:43 5.33005e-05
31 *11318:A0 *985:DIODE 6.56976e-05
32 *130:10 *268:39 2.04825e-05
33 *144:8 *981:DIODE 3.55471e-05
34 *144:8 *268:45 3.55471e-05
35 *168:114 *985:DIODE 0.0001098
36 *168:114 *986:DIODE 3.92854e-05
37 *238:69 *268:23 0.00080299
38 *247:15 *268:23 0.000894541
39 *248:25 *268:39 0
40 *264:29 *268:29 0.0115002
41 *265:53 *268:39 0.00353418
42 *266:13 *268:23 0.000536174
43 *267:45 *268:23 8.21992e-05
*RES
1 *11524:DO[9] *268:5 0.883929 
2 *268:5 *268:23 28.9413 
3 *268:23 *268:29 49.8648 
4 *268:29 *268:39 17.301 
5 *268:39 *268:41 1.35714 
6 *268:41 *268:43 3.82143 
7 *268:43 *268:45 3.82143 
8 *268:45 *981:DIODE 11.0679 
9 *268:45 *979:DIODE 9.3 
10 *268:43 *11248:A1 9.3 
11 *268:41 *980:DIODE 9.3 
12 *268:39 *982:DIODE 9.3 
13 *268:5 *268:74 11.625 
14 *268:74 *268:76 4.5 
15 *268:76 *985:DIODE 16.3536 
16 *268:76 *986:DIODE 14.8357 
17 *268:74 *983:DIODE 9.3 
18 *268:74 *984:DIODE 11.0679 
*END

*D_NET *269 0.0491567
*CONN
*I *11215:A1 I *D sky130_fd_sc_hd__mux2_2
*I *987:DIODE I *D sky130_fd_sc_hd__diode_2
*I *988:DIODE I *D sky130_fd_sc_hd__diode_2
*I *11533:DO[0] O *D CF_SRAM_1024x32
*CAP
1 *11215:A1 0.000193173
2 *987:DIODE 0
3 *988:DIODE 0
4 *11533:DO[0] 0.000779642
5 *269:28 0.00148497
6 *269:20 0.0069483
7 *269:18 0.00632781
8 *269:9 0.00145095
9 *11215:A1 *301:65 0.000251543
10 *269:9 *11533:ScanInCC 0
11 *269:9 *11533:DI[0] 8.45906e-05
12 *269:20 *277:26 0.000421928
13 *269:20 *278:18 0.00904267
14 *269:20 *280:20 0.0173138
15 *269:28 *278:18 0.000631599
16 *269:28 *280:20 0.000218203
17 *269:28 *294:32 0.000301958
18 *269:28 *301:65 0.000140856
19 *269:28 *301:67 0.000140856
20 *269:28 *328:27 0.000573017
21 *142:10 *269:28 0.000207304
22 *149:24 *269:28 0.000808329
23 *151:16 *269:28 0.00056171
24 *203:36 *269:28 0.000256931
25 *203:38 *269:28 0.000830971
26 *203:44 *269:28 0.000185555
*RES
1 *11533:DO[0] *269:9 12.5089 
2 *269:9 *988:DIODE 9.3 
3 *269:9 *269:18 11.6071 
4 *269:18 *269:20 228.545 
5 *269:20 *269:28 44.9554 
6 *269:28 *987:DIODE 9.3 
7 *269:28 *11215:A1 11.8893 
*END

*D_NET *270 0.028978
*CONN
*I *990:DIODE I *D sky130_fd_sc_hd__diode_2
*I *11251:A1 I *D sky130_fd_sc_hd__mux2_2
*I *991:DIODE I *D sky130_fd_sc_hd__diode_2
*I *11533:DO[10] O *D CF_SRAM_1024x32
*CAP
1 *990:DIODE 4.36033e-05
2 *11251:A1 0.000468519
3 *991:DIODE 0
4 *11533:DO[10] 0.000809215
5 *270:18 0.00303847
6 *270:16 0.00295644
7 *270:7 0.00123931
8 *11251:A1 *11251:A0 4.58194e-05
9 *11251:A1 *11515:DI[30] 1.28935e-06
10 *11251:A1 *272:21 0.000120724
11 *11251:A1 *297:20 0.000120724
12 *11251:A1 *302:64 0.000139187
13 *270:7 *11533:DI[10] 0.000225044
14 *270:18 *272:21 0.00851318
15 *270:18 *297:20 0.0100525
16 *146:8 *990:DIODE 5.33005e-05
17 *149:22 *270:18 0.000309422
18 *203:151 *270:18 0.00084128
*RES
1 *11533:DO[10] *270:7 12.2054 
2 *270:7 *991:DIODE 9.3 
3 *270:7 *270:16 8.73214 
4 *270:16 *270:18 127.321 
5 *270:18 *11251:A1 20.0857 
6 *270:18 *990:DIODE 14.3357 
*END

*D_NET *271 0.022006
*CONN
*I *993:DIODE I *D sky130_fd_sc_hd__diode_2
*I *11255:A1 I *D sky130_fd_sc_hd__mux2_2
*I *992:DIODE I *D sky130_fd_sc_hd__diode_2
*I *11533:DO[11] O *D CF_SRAM_1024x32
*CAP
1 *993:DIODE 0.000519663
2 *11255:A1 0
3 *992:DIODE 3.67999e-05
4 *11533:DO[11] 0.00037103
5 *271:24 0.00374237
6 *271:14 0.00455359
7 *271:12 0.000848022
8 *271:10 0.000882765
9 *271:4 7.92817e-06
10 *992:DIODE *306:42 0.000230431
11 *271:10 *11533:DI[11] 0
12 *271:14 *357:10 0.000975725
13 *271:14 *376:48 0.00440095
14 *271:14 *383:72 0.00262863
15 *271:14 *391:88 0.000893487
16 *271:24 *11261:A0 0
17 *271:24 *11533:vpwrpc 9.50261e-06
18 *271:24 *11533:vpwrac 2.14455e-05
19 *271:24 *275:18 0.000424069
20 *271:24 *303:33 0.00130947
21 *141:100 *992:DIODE 5.49489e-05
22 *141:109 *992:DIODE 9.51577e-05
*RES
1 *11533:DO[11] *271:4 0.151786 
2 *11533:DO[11] *271:10 5.46429 
3 *271:10 *271:12 4.5 
4 *271:12 *271:14 54.3125 
5 *271:14 *271:24 48.7031 
6 *271:24 *992:DIODE 11.4786 
7 *271:24 *11255:A1 9.3 
8 *271:10 *993:DIODE 15.5857 
*END

*D_NET *272 0.0270452
*CONN
*I *994:DIODE I *D sky130_fd_sc_hd__diode_2
*I *11258:A1 I *D sky130_fd_sc_hd__mux2_2
*I *995:DIODE I *D sky130_fd_sc_hd__diode_2
*I *11533:DO[12] O *D CF_SRAM_1024x32
*CAP
1 *994:DIODE 0
2 *11258:A1 0.000384894
3 *995:DIODE 0
4 *11533:DO[12] 0.000931783
5 *272:25 0.000461964
6 *272:21 0.00237017
7 *272:19 0.00276573
8 *272:10 0.00139742
9 *272:4 6.99545e-06
10 *11258:A1 *304:63 0.000165123
11 *272:10 *11533:BEN[11] 0
12 *272:10 *11533:DI[12] 0
13 *272:21 *296:36 0.000464377
14 *272:21 *297:20 0.000105743
15 *272:21 *297:36 0.000259096
16 *272:21 *302:56 1.53472e-05
17 *272:21 *302:58 0.000104749
18 *272:21 *302:64 7.73022e-05
19 *272:25 *304:63 4.22431e-05
20 *11251:A1 *272:21 0.000120724
21 *146:10 *272:21 1.77757e-05
22 *149:22 *272:21 0.000464497
23 *203:20 *272:21 0.00269877
24 *203:151 *272:21 0.00567732
25 *270:18 *272:21 0.00851318
*RES
1 *11533:DO[12] *272:4 0.133929 
2 *11533:DO[12] *272:10 12.0357 
3 *272:10 *995:DIODE 9.3 
4 *272:10 *272:19 9.14286 
5 *272:19 *272:21 115.179 
6 *272:21 *272:25 5.44643 
7 *272:25 *11258:A1 13.5321 
8 *272:25 *994:DIODE 9.3 
*END

*D_NET *273 0.0219318
*CONN
*I *11261:A1 I *D sky130_fd_sc_hd__mux2_4
*I *11533:DO[13] O *D CF_SRAM_1024x32
*CAP
1 *11261:A1 3.01357e-05
2 *11533:DO[13] 0.000897606
3 *273:18 0.00330933
4 *273:16 0.00327919
5 *273:14 0.00122041
6 *273:12 0.00211802
7 *273:4 0
8 *11261:A1 *11261:A0 9.35228e-06
9 *273:12 *11533:BEN[12] 0
10 *273:12 *383:72 0
11 *273:14 *483:44 0.000729323
12 *273:14 *558:141 0.002805
13 *273:14 *558:155 0.000142871
14 *273:14 *558:257 0.000573649
15 *273:14 *558:277 0.000706907
16 *273:14 *629:74 0.000270387
17 *273:14 *631:68 0.00472876
18 *273:18 *11261:A0 0.000358971
19 *153:14 *273:18 0.000751922
*RES
1 *11533:DO[13] *273:4 0.134615 
2 *11533:DO[13] *273:12 16.125 
3 *273:12 *273:14 59.9286 
4 *273:14 *273:16 4.5 
5 *273:16 *273:18 51.4643 
6 *273:18 *11261:A1 9.72857 
*END

*D_NET *274 0.0217792
*CONN
*I *997:DIODE I *D sky130_fd_sc_hd__diode_2
*I *11264:A1 I *D sky130_fd_sc_hd__mux2_2
*I *996:DIODE I *D sky130_fd_sc_hd__diode_2
*I *11533:DO[14] O *D CF_SRAM_1024x32
*CAP
1 *997:DIODE 0.000405414
2 *11264:A1 0.000319271
3 *996:DIODE 0
4 *11533:DO[14] 0.000514153
5 *274:26 0.00357055
6 *274:24 0.00442431
7 *274:20 0.00197282
8 *274:10 0.00171934
9 *274:4 0
10 *997:DIODE *558:277 0
11 *11264:A1 *11264:A0 3.27461e-05
12 *11264:A1 *11267:A1 0.000189611
13 *274:10 *11533:BEN[13] 0
14 *274:10 *11533:DI[14] 0
15 *274:20 *305:15 0.000674846
16 *274:20 *389:56 6.81459e-05
17 *274:20 *394:68 0.002252
18 *274:20 *463:36 0.002252
19 *274:24 *365:48 0.00237359
20 *274:26 *11267:A1 0.000930207
21 *141:121 *11264:A1 8.02172e-05
*RES
1 *11533:DO[14] *274:4 0.159091 
2 *11533:DO[14] *274:10 7.10714 
3 *274:10 *274:20 48.5536 
4 *274:20 *274:24 34.6786 
5 *274:24 *274:26 41.6071 
6 *274:26 *996:DIODE 9.3 
7 *274:26 *11264:A1 24.6214 
8 *274:10 *997:DIODE 13.9429 
*END

*D_NET *275 0.0157679
*CONN
*I *11267:A1 I *D sky130_fd_sc_hd__mux2_4
*I *11533:DO[15] O *D CF_SRAM_1024x32
*CAP
1 *11267:A1 0.00213893
2 *11533:DO[15] 0.00165423
3 *275:24 0.00405855
4 *275:18 0.00357384
5 *275:4 0
6 *11267:A1 *11267:A0 0.000178459
7 *275:18 *11533:DI[15] 0.000354099
8 *275:18 *305:15 0
9 *275:18 *387:74 0.0012456
10 *275:18 *389:66 0.00050317
11 *275:18 *391:88 0.000183372
12 *11264:A1 *11267:A1 0.000189611
13 *11267:S *11267:A1 0.00022209
14 *141:121 *11267:A1 0.000111727
15 *271:24 *275:18 0.000424069
16 *274:26 *11267:A1 0.000930207
*RES
1 *11533:DO[15] *275:4 0.194444 
2 *11533:DO[15] *275:18 49.1964 
3 *275:18 *275:24 41.6071 
4 *275:24 *11267:A1 49.8179 
*END

*D_NET *276 0.0538662
*CONN
*I *11270:A1 I *D sky130_fd_sc_hd__mux2_2
*I *998:DIODE I *D sky130_fd_sc_hd__diode_2
*I *999:DIODE I *D sky130_fd_sc_hd__diode_2
*I *11533:DO[16] O *D CF_SRAM_1024x32
*CAP
1 *11270:A1 4.70928e-05
2 *998:DIODE 0.000457652
3 *999:DIODE 0
4 *11533:DO[16] 0.000361224
5 *276:20 0.0154216
6 *276:18 0.0161432
7 *276:9 0.0015876
8 *998:DIODE *298:22 1.18451e-05
9 *998:DIODE *308:50 3.34295e-05
10 *998:DIODE *332:19 2.49484e-05
11 *11270:A1 *308:54 2.59355e-05
12 *276:9 *11533:ScanInDR 0.00114571
13 *276:9 *11533:DI[16] 0.00133924
14 *276:9 *418:106 1.33343e-05
15 *276:20 *291:22 0
16 *276:20 *293:25 0
17 *276:20 *308:50 0.000148903
18 *276:20 *323:19 0.0167757
19 *276:20 *332:19 2.14474e-05
20 *163:10 *998:DIODE 0.000263505
21 *225:24 *998:DIODE 4.38136e-05
*RES
1 *11533:DO[16] *276:9 15.1607 
2 *276:9 *999:DIODE 9.3 
3 *276:9 *276:18 17.7679 
4 *276:18 *276:20 268.179 
5 *276:20 *998:DIODE 20.55 
6 *276:20 *11270:A1 14.3357 
*END

*D_NET *277 0.0568224
*CONN
*I *1001:DIODE I *D sky130_fd_sc_hd__diode_2
*I *11273:A1 I *D sky130_fd_sc_hd__mux2_2
*I *1002:DIODE I *D sky130_fd_sc_hd__diode_2
*I *11533:DO[17] O *D CF_SRAM_1024x32
*CAP
1 *1001:DIODE 0
2 *11273:A1 0.000253905
3 *1002:DIODE 0
4 *11533:DO[17] 0.000782604
5 *277:40 0.00137142
6 *277:26 0.00743773
7 *277:24 0.00689896
8 *277:15 0.00136134
9 *11273:A1 *291:22 0.00013059
10 *11273:A1 *309:59 0.000125355
11 *277:15 *11533:BEN[16] 0
12 *277:15 *11533:WLBI 0.00049041
13 *277:15 *11533:TM 0.000196968
14 *277:15 *11533:DI[17] 3.30237e-05
15 *277:26 *278:18 0
16 *277:26 *280:20 0.0168041
17 *277:26 *294:20 0.0152528
18 *277:26 *330:39 0.000129529
19 *277:40 *291:22 0.00206569
20 *277:40 *310:29 0.000564717
21 *151:18 *11273:A1 0.000132297
22 *151:18 *277:40 0.000641892
23 *153:20 *277:26 0.000147853
24 *203:20 *277:40 1.24368e-05
25 *203:151 *277:26 0.00156681
26 *269:20 *277:26 0.000421928
*RES
1 *11533:DO[17] *277:15 24.3214 
2 *277:15 *1002:DIODE 9.3 
3 *277:15 *277:24 10.7857 
4 *277:24 *277:26 260.893 
5 *277:26 *277:40 41.6786 
6 *277:40 *11273:A1 18.0321 
7 *277:40 *1001:DIODE 13.8 
*END

*D_NET *278 0.0425921
*CONN
*I *11276:A1 I *D sky130_fd_sc_hd__mux2_2
*I *1003:DIODE I *D sky130_fd_sc_hd__diode_2
*I *1004:DIODE I *D sky130_fd_sc_hd__diode_2
*I *11533:DO[18] O *D CF_SRAM_1024x32
*CAP
1 *11276:A1 0.000192281
2 *1003:DIODE 0
3 *1004:DIODE 0
4 *11533:DO[18] 0.000656115
5 *278:20 0.000192281
6 *278:18 0.0122179
7 *278:16 0.0129297
8 *278:7 0.0013679
9 *11276:A1 *310:31 0.000265981
10 *278:7 *11533:DI[18] 0.00041751
11 *278:18 *291:22 0
12 *278:18 *328:27 0.00467811
13 *269:20 *278:18 0.00904267
14 *269:28 *278:18 0.000631599
15 *277:26 *278:18 0
*RES
1 *11533:DO[18] *278:7 12.25 
2 *278:7 *1004:DIODE 9.3 
3 *278:7 *278:16 12.4286 
4 *278:16 *278:18 287.607 
5 *278:18 *278:20 4.5 
6 *278:20 *1003:DIODE 9.3 
7 *278:20 *11276:A1 11.8893 
*END

*D_NET *279 0.0690774
*CONN
*I *1006:DIODE I *D sky130_fd_sc_hd__diode_2
*I *1005:DIODE I *D sky130_fd_sc_hd__diode_2
*I *11281:A1 I *D sky130_fd_sc_hd__mux2_4
*I *11533:DO[19] O *D CF_SRAM_1024x32
*CAP
1 *1006:DIODE 0.00010404
2 *1005:DIODE 0.000148592
3 *11281:A1 1.348e-05
4 *11533:DO[19] 0.000446131
5 *279:29 0.000209544
6 *279:25 0.00356276
7 *279:23 0.00351528
8 *279:21 0.00341091
9 *279:19 0.00455884
10 *279:15 0.00251679
11 *279:9 0.00191903
12 *1005:DIODE *11281:A0 0.00123671
13 *1005:DIODE *292:37 0.00126719
14 *279:9 *11533:DI[19] 0.000534526
15 *279:15 *11533:DI[19] 5.7903e-06
16 *279:15 *11533:DI[17] 0
17 *279:15 *629:74 0.00266093
18 *279:15 *630:213 0
19 *279:15 *630:225 0
20 *279:19 *284:21 0.00264671
21 *279:21 *281:20 0.0153778
22 *279:21 *282:22 1.08936e-05
23 *279:21 *284:23 0.0175856
24 *279:21 *285:22 2.65329e-05
25 *279:21 *287:18 0
26 *279:21 *292:19 0.000113156
27 *279:21 *331:67 0.0019023
28 *279:25 *292:23 0.00223148
29 *279:25 *292:37 0.00115624
30 *279:29 *292:37 0.00015691
31 *11281:S *1005:DIODE 2.44318e-05
32 *11281:S *11281:A1 1.00733e-05
33 *11281:S *279:29 9.88879e-05
34 *11533:CLKin *279:15 0
35 *3:35 *1005:DIODE 0.000287637
36 *3:35 *279:25 0.00133816
*RES
1 *11533:DO[19] *279:9 11.0179 
2 *279:9 *279:15 43.125 
3 *279:15 *279:19 30.9107 
4 *279:19 *279:21 220.518 
5 *279:21 *279:23 4.5 
6 *279:23 *279:25 68.3036 
7 *279:25 *279:29 2.08929 
8 *279:29 *11281:A1 9.72857 
9 *279:29 *1005:DIODE 21.3357 
10 *279:9 *1006:DIODE 10.6571 
*END

*D_NET *280 0.0511345
*CONN
*I *11220:A1 I *D sky130_fd_sc_hd__mux2_2
*I *1007:DIODE I *D sky130_fd_sc_hd__diode_2
*I *1008:DIODE I *D sky130_fd_sc_hd__diode_2
*I *11533:DO[1] O *D CF_SRAM_1024x32
*CAP
1 *11220:A1 0.000222322
2 *1007:DIODE 0
3 *1008:DIODE 0
4 *11533:DO[1] 0.000838469
5 *280:22 0.000222322
6 *280:20 0.00473268
7 *280:18 0.00536896
8 *280:9 0.00147475
9 *11220:A1 *312:29 5.49544e-05
10 *280:9 *11533:BEN[0] 0
11 *280:9 *11533:DI[1] 0
12 *280:20 *294:20 6.45763e-05
13 *280:20 *330:39 0.000256441
14 *11220:S *11220:A1 5.36669e-05
15 *142:10 *280:20 0.000936321
16 *151:16 *280:20 0.000574443
17 *203:36 *280:20 0.00122363
18 *203:38 *280:20 0.000773856
19 *224:32 *11220:A1 9.33978e-07
20 *269:20 *280:20 0.0173138
21 *269:28 *280:20 0.000218203
22 *277:26 *280:20 0.0168041
*RES
1 *11533:DO[1] *280:9 12.4911 
2 *280:9 *1008:DIODE 9.3 
3 *280:9 *280:18 11.1964 
4 *280:18 *280:20 241.464 
5 *280:20 *280:22 4.5 
6 *280:22 *1007:DIODE 9.3 
7 *280:22 *11220:A1 11.8893 
*END

*D_NET *281 0.0701127
*CONN
*I *11286:A1 I *D sky130_fd_sc_hd__mux2_4
*I *1009:DIODE I *D sky130_fd_sc_hd__diode_2
*I *1010:DIODE I *D sky130_fd_sc_hd__diode_2
*I *11533:DO[20] O *D CF_SRAM_1024x32
*CAP
1 *11286:A1 0.000886528
2 *1009:DIODE 0
3 *1010:DIODE 0
4 *11533:DO[20] 0.000560143
5 *281:30 0.00244319
6 *281:24 0.0042836
7 *281:22 0.00272694
8 *281:20 0.00432342
9 *281:18 0.00633379
10 *281:9 0.00257052
11 *281:9 *11533:DI[20] 0.000716037
12 *281:18 *11533:DI[20] 5.33334e-05
13 *281:18 *400:78 0.000197888
14 *281:20 *282:22 0.0185069
15 *281:24 *282:26 0.00887459
16 *281:30 *11281:A0 7.17696e-05
17 *281:30 *311:19 0.000722043
18 *11281:S *11286:A1 0.0012414
19 *3:35 *11286:A1 0.000182899
20 *166:28 *11286:A1 3.99189e-05
21 *279:21 *281:20 0.0153778
*RES
1 *11533:DO[20] *281:9 12.4107 
2 *281:9 *1010:DIODE 9.3 
3 *281:9 *281:18 28.8571 
4 *281:18 *281:20 232.054 
5 *281:20 *281:22 4.5 
6 *281:22 *281:24 83.5 
7 *281:24 *281:30 40.3929 
8 *281:30 *1009:DIODE 9.3 
9 *281:30 *11286:A1 22.4786 
*END

*D_NET *282 0.081159
*CONN
*I *11290:A1 I *D sky130_fd_sc_hd__mux2_4
*I *1012:DIODE I *D sky130_fd_sc_hd__diode_2
*I *1013:DIODE I *D sky130_fd_sc_hd__diode_2
*I *11533:DO[21] O *D CF_SRAM_1024x32
*CAP
1 *11290:A1 0.000335013
2 *1012:DIODE 0
3 *1013:DIODE 0
4 *11533:DO[21] 0.000743993
5 *282:34 0.00200855
6 *282:26 0.0031255
7 *282:24 0.00145196
8 *282:22 0.0042001
9 *282:20 0.00619058
10 *282:11 0.00273448
11 *282:11 *11533:BEN[20] 0
12 *282:11 *11533:DI[21] 8.41481e-05
13 *282:22 *285:22 0.0193084
14 *282:26 *286:26 0.0101386
15 *282:26 *303:33 0.00181893
16 *1011:DIODE *11290:A1 7.50473e-05
17 *11290:S *11290:A1 5.49489e-05
18 *113:36 *11290:A1 0.00106822
19 *113:36 *282:34 5.52302e-05
20 *174:6 *11290:A1 1.02132e-05
21 *174:8 *11290:A1 4.63768e-05
22 *174:10 *11290:A1 0.000154958
23 *174:29 *11290:A1 0.000161356
24 *279:21 *282:22 1.08936e-05
25 *281:20 *282:22 0.0185069
26 *281:24 *282:26 0.00887459
*RES
1 *11533:DO[21] *282:11 12.75 
2 *282:11 *1013:DIODE 9.3 
3 *282:11 *282:20 28.4464 
4 *282:20 *282:22 242.071 
5 *282:22 *282:24 4.5 
6 *282:24 *282:26 95.4107 
7 *282:26 *282:34 36.375 
8 *282:34 *1012:DIODE 9.3 
9 *282:34 *11290:A1 21.9071 
*END

*D_NET *283 0.0847374
*CONN
*I *11293:A1 I *D sky130_fd_sc_hd__mux2_4
*I *1016:DIODE I *D sky130_fd_sc_hd__diode_2
*I *1014:DIODE I *D sky130_fd_sc_hd__diode_2
*I *1015:DIODE I *D sky130_fd_sc_hd__diode_2
*I *11533:DO[22] O *D CF_SRAM_1024x32
*CAP
1 *11293:A1 8.13981e-05
2 *1016:DIODE 0.000832554
3 *1014:DIODE 0
4 *1015:DIODE 0
5 *11533:DO[22] 0.000559846
6 *283:41 0.00183705
7 *283:34 0.00304849
8 *283:26 0.00374235
9 *283:24 0.00161696
10 *283:22 0.00660405
11 *283:20 0.00826832
12 *283:11 0.00222411
13 *1016:DIODE *1124:DIODE 0
14 *1016:DIODE *11290:A0 0.000185124
15 *1016:DIODE *315:35 0
16 *11293:A1 *11293:A0 8.29108e-05
17 *283:11 *11533:DI[22] 0.00101784
18 *283:20 *11533:DI[22] 5.33334e-05
19 *283:22 *286:22 0.0204848
20 *283:22 *289:25 0
21 *283:22 *299:18 0.00694536
22 *283:22 *363:66 0.00113383
23 *283:26 *285:26 0.0106654
24 *283:26 *290:29 0.0113468
25 *283:26 *303:33 0.00226175
26 *283:26 *305:15 0.000169587
27 *283:34 *284:31 0.000108437
28 *283:41 *284:31 0.000764305
29 *11293:S *11293:A1 4.8765e-06
30 *113:36 *1016:DIODE 0.000347874
31 *166:10 *1016:DIODE 6.02394e-05
32 *174:57 *1016:DIODE 5.33005e-05
33 *174:67 *1016:DIODE 0.000196754
34 *176:50 *11293:A1 1.03105e-05
35 *176:75 *1016:DIODE 0
36 *200:66 *283:22 2.94124e-05
*RES
1 *11533:DO[22] *283:11 12.7321 
2 *283:11 *1015:DIODE 9.3 
3 *283:11 *283:20 23.1071 
4 *283:20 *283:22 253 
5 *283:22 *283:24 4.5 
6 *283:24 *283:26 106.911 
7 *283:26 *283:34 38.625 
8 *283:34 *1014:DIODE 9.3 
9 *283:34 *283:41 13.2679 
10 *283:41 *1016:DIODE 42.8 
11 *283:41 *11293:A1 10.8714 
*END

*D_NET *284 0.087843
*CONN
*I *1018:DIODE I *D sky130_fd_sc_hd__diode_2
*I *1017:DIODE I *D sky130_fd_sc_hd__diode_2
*I *11296:A1 I *D sky130_fd_sc_hd__mux2_4
*I *1202:DIODE I *D sky130_fd_sc_hd__diode_2
*I *11533:DO[23] O *D CF_SRAM_1024x32
*CAP
1 *1018:DIODE 4.23061e-05
2 *1017:DIODE 0.000715566
3 *11296:A1 0
4 *1202:DIODE 0
5 *11533:DO[23] 0.000565307
6 *284:52 0.000790442
7 *284:45 0.000398677
8 *284:31 0.00253848
9 *284:29 0.00225292
10 *284:27 0.00465978
11 *284:25 0.00462154
12 *284:23 0.00350616
13 *284:21 0.0047962
14 *284:15 0.00275672
15 *284:13 0.00146669
16 *284:11 0.000607613
17 *1017:DIODE *11296:A0 0.000362453
18 *1017:DIODE *11299:A1 0
19 *1017:DIODE *306:30 0.000494431
20 *1018:DIODE *11533:DI[23] 1.07719e-05
21 *284:11 *11533:DI[23] 0.00040319
22 *284:15 *292:11 0.00572345
23 *284:15 *629:74 0.00571789
24 *284:23 *292:19 0.0162952
25 *284:27 *306:42 0.000644749
26 *284:31 *306:38 0.00277404
27 *284:31 *313:47 0.000159553
28 *284:45 *11293:A0 0.000483207
29 *284:45 *11296:A0 0
30 *284:45 *313:47 0.000144856
31 *284:52 *11293:A0 9.93135e-05
32 *284:52 *11296:A0 1.55885e-05
33 *1200:DIODE *284:31 0.000184246
34 *11296:S *1017:DIODE 5.7661e-06
35 *3:35 *284:31 0.000261003
36 *166:16 *284:31 1.74352e-05
37 *166:16 *284:45 1.98839e-05
38 *166:20 *284:31 1.74352e-05
39 *166:66 *1017:DIODE 4.72917e-05
40 *166:66 *284:45 2.14757e-05
41 *166:66 *284:52 0.000358971
42 *166:87 *1017:DIODE 0.000373438
43 *176:6 *284:31 0.00040765
44 *176:8 *284:31 0.000188586
45 *176:10 *284:31 0.000187888
46 *176:50 *284:31 0.000191869
47 *176:50 *284:45 0.000280937
48 *176:57 *284:45 0.000187888
49 *176:64 *284:45 0.000188586
50 *176:75 *284:45 0.000186662
51 *178:6 *1017:DIODE 0.000441674
52 *178:17 *1017:DIODE 0.000118416
53 *178:24 *1017:DIODE 3.69047e-06
54 *279:19 *284:21 0.00264671
55 *279:21 *284:23 0.0175856
56 *283:34 *284:31 0.000108437
57 *283:41 *284:31 0.000764305
*RES
1 *11533:DO[23] *284:11 12.3036 
2 *284:11 *284:13 4.5 
3 *284:13 *284:15 72.6786 
4 *284:15 *284:21 35 
5 *284:21 *284:23 217.482 
6 *284:23 *284:25 4.5 
7 *284:25 *284:27 56.1875 
8 *284:27 *284:29 0.732143 
9 *284:29 *284:31 59.4732 
10 *284:31 *284:45 19.6786 
11 *284:45 *1202:DIODE 9.3 
12 *284:45 *284:52 3.41071 
13 *284:52 *11296:A1 9.3 
14 *284:52 *1017:DIODE 34.0679 
15 *284:11 *1018:DIODE 9.83571 
*END

*D_NET *285 0.0927278
*CONN
*I *1019:DIODE I *D sky130_fd_sc_hd__diode_2
*I *1021:DIODE I *D sky130_fd_sc_hd__diode_2
*I *11299:A1 I *D sky130_fd_sc_hd__mux2_4
*I *1020:DIODE I *D sky130_fd_sc_hd__diode_2
*I *11533:DO[24] O *D CF_SRAM_1024x32
*CAP
1 *1019:DIODE 2.81285e-05
2 *1021:DIODE 0.000148314
3 *11299:A1 4.68159e-05
4 *1020:DIODE 0
5 *11533:DO[24] 0.000756475
6 *285:43 0.000815341
7 *285:30 0.00232507
8 *285:26 0.0044372
9 *285:24 0.00279784
10 *285:22 0.00512109
11 *285:20 0.00707061
12 *285:11 0.00270599
13 *1021:DIODE *11299:A0 3.17148e-05
14 *285:11 *11533:DI[24] 0
15 *285:22 *287:18 0.0217335
16 *285:26 *290:29 0.00225586
17 *285:26 *305:15 0.00459903
18 *285:26 *311:15 0.00623992
19 *285:30 *11296:A0 7.24849e-05
20 *285:30 *316:35 7.05143e-06
21 *285:43 *11296:A0 9.90431e-05
22 *285:43 *11299:A0 0.00139171
23 *1017:DIODE *11299:A1 0
24 *1221:DIODE *285:30 0
25 *178:158 *11299:A1 0
26 *180:50 *1019:DIODE 2.28598e-05
27 *180:50 *285:43 2.14658e-05
28 *180:52 *1021:DIODE 0
29 *180:163 *1021:DIODE 0
30 *279:21 *285:22 2.65329e-05
31 *282:22 *285:22 0.0193084
32 *283:26 *285:26 0.0106654
*RES
1 *11533:DO[24] *285:11 12.7351 
2 *285:11 *1020:DIODE 9.3 
3 *285:11 *285:20 28.0357 
4 *285:20 *285:22 272.732 
5 *285:22 *285:24 4.5 
6 *285:24 *285:26 142.643 
7 *285:26 *285:30 31.9464 
8 *285:30 *11299:A1 14.5321 
9 *285:30 *285:43 18.1786 
10 *285:43 *1021:DIODE 20.55 
11 *285:43 *1019:DIODE 9.83571 
*END

*D_NET *286 0.102168
*CONN
*I *1023:DIODE I *D sky130_fd_sc_hd__diode_2
*I *11302:A1 I *D sky130_fd_sc_hd__mux2_4
*I *1024:DIODE I *D sky130_fd_sc_hd__diode_2
*I *11533:DO[25] O *D CF_SRAM_1024x32
*CAP
1 *1023:DIODE 0.00134544
2 *11302:A1 6.24772e-05
3 *1024:DIODE 0
4 *11533:DO[25] 0.000566408
5 *286:30 0.00315566
6 *286:26 0.00529006
7 *286:24 0.00354232
8 *286:22 0.00550921
9 *286:20 0.00713601
10 *286:11 0.0021932
11 *1023:DIODE *11302:A0 0.000797858
12 *1023:DIODE *306:22 2.65105e-05
13 *1023:DIODE *313:47 0.000133967
14 *286:11 *11533:DI[25] 0.000606737
15 *286:20 *11533:DI[25] 4.01768e-05
16 *286:20 *411:74 0.000213386
17 *286:22 *288:25 0.00408472
18 *286:22 *363:66 0.000998459
19 *286:26 *288:29 0.0175892
20 *286:26 *303:33 0.00344416
21 *286:30 *317:29 0
22 *11302:S *11302:A1 5.37741e-06
23 *11533:R_WB *286:22 0.000307947
24 *182:48 *1023:DIODE 3.18747e-05
25 *182:55 *1023:DIODE 7.40737e-05
26 *182:62 *1023:DIODE 7.15846e-05
27 *182:79 *1023:DIODE 1.58163e-05
28 *200:66 *286:22 0.0143025
29 *282:26 *286:26 0.0101386
30 *283:22 *286:22 0.0204848
*RES
1 *11533:DO[25] *286:11 12.7643 
2 *286:11 *1024:DIODE 9.3 
3 *286:11 *286:20 22.6964 
4 *286:20 *286:22 281.232 
5 *286:22 *286:24 4.5 
6 *286:24 *286:26 165.643 
7 *286:26 *286:30 32.8571 
8 *286:30 *11302:A1 14.8357 
9 *286:30 *1023:DIODE 32.8179 
*END

*D_NET *287 0.0947052
*CONN
*I *1027:DIODE I *D sky130_fd_sc_hd__diode_2
*I *11305:A1 I *D sky130_fd_sc_hd__mux2_4
*I *1025:DIODE I *D sky130_fd_sc_hd__diode_2
*I *1026:DIODE I *D sky130_fd_sc_hd__diode_2
*I *11533:DO[26] O *D CF_SRAM_1024x32
*CAP
1 *1027:DIODE 0.000255375
2 *11305:A1 0
3 *1025:DIODE 0
4 *1026:DIODE 0
5 *11533:DO[26] 0.00068026
6 *287:45 0.000464105
7 *287:28 0.00149916
8 *287:22 0.00711523
9 *287:20 0.0058248
10 *287:18 0.00541701
11 *287:16 0.00696895
12 *287:7 0.00223219
13 *1027:DIODE *1132:DIODE 2.12005e-05
14 *1027:DIODE *314:29 0.000128575
15 *287:7 *11533:DI[26] 0
16 *287:18 *289:25 0.0236161
17 *287:22 *289:29 0.0176124
18 *287:45 *1132:DIODE 0.000571299
19 *672:DIODE *287:45 7.29573e-05
20 *11305:S *287:45 1.51217e-05
21 *166:127 *1027:DIODE 0.000366575
22 *166:127 *287:45 2.94004e-05
23 *184:15 *287:45 8.09081e-05
24 *279:21 *287:18 0
25 *285:22 *287:18 0.0217335
*RES
1 *11533:DO[26] *287:7 12.2545 
2 *287:7 *1026:DIODE 9.3 
3 *287:7 *287:16 27.625 
4 *287:16 *287:18 296.411 
5 *287:18 *287:20 4.5 
6 *287:20 *287:22 166.875 
7 *287:22 *287:28 30.0714 
8 *287:28 *1025:DIODE 9.3 
9 *287:28 *287:45 8.23214 
10 *287:45 *11305:A1 9.3 
11 *287:45 *1027:DIODE 15.5857 
*END

*D_NET *288 0.113617
*CONN
*I *11308:A1 I *D sky130_fd_sc_hd__mux2_4
*I *1028:DIODE I *D sky130_fd_sc_hd__diode_2
*I *1029:DIODE I *D sky130_fd_sc_hd__diode_2
*I *11533:DO[27] O *D CF_SRAM_1024x32
*CAP
1 *11308:A1 0.000233534
2 *1028:DIODE 4.59739e-05
3 *1029:DIODE 0
4 *11533:DO[27] 0.000796979
5 *288:35 0.001877
6 *288:29 0.0045204
7 *288:27 0.0029229
8 *288:25 0.00642809
9 *288:23 0.00803128
10 *288:14 0.00240017
11 *288:4 0
12 *11308:A1 *290:33 1.26871e-05
13 *288:14 *11533:DI[27] 0
14 *288:25 *290:25 0.0238308
15 *288:25 *363:66 0.000852947
16 *288:29 *290:29 0.0201197
17 *288:29 *303:33 0.00433921
18 *288:35 *290:33 0.000654039
19 *11533:R_WB *288:25 0.000299748
20 *166:127 *1028:DIODE 1.40415e-05
21 *166:127 *11308:A1 0.000235908
22 *200:66 *288:25 0.0143277
23 *286:22 *288:25 0.00408472
24 *286:26 *288:29 0.0175892
*RES
1 *11533:DO[27] *288:4 0.21875 
2 *11533:DO[27] *288:14 12.5893 
3 *288:14 *1029:DIODE 9.3 
4 *288:14 *288:23 21.875 
5 *288:23 *288:25 300.964 
6 *288:25 *288:27 4.5 
7 *288:27 *288:29 189.464 
8 *288:29 *288:35 34.625 
9 *288:35 *1028:DIODE 9.83571 
10 *288:35 *11308:A1 21.6214 
*END

*D_NET *289 0.100443
*CONN
*I *1030:DIODE I *D sky130_fd_sc_hd__diode_2
*I *11311:A1 I *D sky130_fd_sc_hd__mux2_4
*I *1031:DIODE I *D sky130_fd_sc_hd__diode_2
*I *11533:DO[28] O *D CF_SRAM_1024x32
*CAP
1 *1030:DIODE 0
2 *11311:A1 0.000111977
3 *1031:DIODE 0
4 *11533:DO[28] 0.000697782
5 *289:33 0.00137941
6 *289:29 0.0153705
7 *289:27 0.0141031
8 *289:25 0.0111097
9 *289:23 0.0130245
10 *289:14 0.00261259
11 *289:4 0
12 *11311:A1 *11311:A0 5.65955e-05
13 *289:14 *11533:DI[28] 0.000215649
14 *289:23 *11533:DI[28] 8.75368e-06
15 *289:25 *299:18 0
16 *289:33 *322:34 0
17 *11311:S *11311:A1 0.000358683
18 *186:8 *11311:A1 0.00016565
19 *283:22 *289:25 0
20 *287:18 *289:25 0.0236161
21 *287:22 *289:29 0.0176124
*RES
1 *11533:DO[28] *289:4 0.175 
2 *11533:DO[28] *289:14 12.5893 
3 *289:14 *1031:DIODE 9.3 
4 *289:14 *289:23 27.2143 
5 *289:23 *289:25 315.839 
6 *289:25 *289:27 4.5 
7 *289:27 *289:29 198.911 
8 *289:29 *289:33 24.9643 
9 *289:33 *11311:A1 17.9429 
10 *289:33 *1030:DIODE 13.8 
*END

*D_NET *290 0.119655
*CONN
*I *1032:DIODE I *D sky130_fd_sc_hd__diode_2
*I *11314:A1 I *D sky130_fd_sc_hd__mux2_4
*I *1034:DIODE I *D sky130_fd_sc_hd__diode_2
*I *11533:DO[29] O *D CF_SRAM_1024x32
*CAP
1 *1032:DIODE 0.000468088
2 *11314:A1 0.000160602
3 *1034:DIODE 0
4 *11533:DO[29] 0.000566408
5 *290:33 0.00208477
6 *290:29 0.00461584
7 *290:27 0.00315977
8 *290:25 0.00649807
9 *290:23 0.0080272
10 *290:14 0.00209554
11 *290:4 0
12 *1032:DIODE *306:22 0.0012605
13 *290:14 *11533:DI[29] 0.000606737
14 *290:23 *11533:DI[29] 1.92789e-05
15 *290:25 *293:25 0.0253769
16 *290:25 *363:66 0.000788445
17 *290:29 *303:33 0.00402405
18 *290:29 *305:15 1.38707e-05
19 *290:29 *311:15 0.0014987
20 *11308:A1 *290:33 1.26871e-05
21 *182:79 *1032:DIODE 0.000160191
22 *200:66 *290:25 1.01241e-05
23 *283:26 *290:29 0.0113468
24 *285:26 *290:29 0.00225586
25 *288:25 *290:25 0.0238308
26 *288:29 *290:29 0.0201197
27 *288:35 *290:33 0.000654039
*RES
1 *11533:DO[29] *290:4 0.145833 
2 *11533:DO[29] *290:14 12.5893 
3 *290:14 *1034:DIODE 9.3 
4 *290:14 *290:23 21.4643 
5 *290:23 *290:25 320.696 
6 *290:25 *290:27 4.5 
7 *290:27 *290:29 191.107 
8 *290:29 *290:33 33.1607 
9 *290:33 *11314:A1 16.05 
10 *290:33 *1032:DIODE 25.8357 
*END

*D_NET *291 0.0421454
*CONN
*I *1035:DIODE I *D sky130_fd_sc_hd__diode_2
*I *11223:A1 I *D sky130_fd_sc_hd__mux2_2
*I *1036:DIODE I *D sky130_fd_sc_hd__diode_2
*I *11533:DO[2] O *D CF_SRAM_1024x32
*CAP
1 *1035:DIODE 8.87027e-05
2 *11223:A1 7.95166e-05
3 *1036:DIODE 0
4 *11533:DO[2] 0.000854608
5 *291:24 0.000168219
6 *291:22 0.0169088
7 *291:20 0.0180245
8 *291:11 0.00197026
9 *1035:DIODE *323:71 6.12335e-05
10 *11223:A1 *323:71 8.70594e-05
11 *291:11 *11533:BEN[1] 0
12 *291:11 *11533:DI[2] 0
13 *291:22 *295:28 0
14 *291:22 *310:29 0.000564868
15 *291:22 *328:27 0
16 *11273:A1 *291:22 0.00013059
17 *126:8 *11223:A1 0.000228507
18 *128:8 *11223:A1 9.66977e-05
19 *151:18 *291:22 0.000816148
20 *276:20 *291:22 0
21 *277:40 *291:22 0.00206569
22 *278:18 *291:22 0
*RES
1 *11533:DO[2] *291:11 12.7239 
2 *291:11 *1036:DIODE 9.3 
3 *291:11 *291:20 16.5357 
4 *291:20 *291:22 251.482 
5 *291:22 *291:24 4.5 
6 *291:24 *11223:A1 11.8893 
7 *291:24 *1035:DIODE 10.6571 
*END

*D_NET *292 0.0962586
*CONN
*I *1038:DIODE I *D sky130_fd_sc_hd__diode_2
*I *1037:DIODE I *D sky130_fd_sc_hd__diode_2
*I *11317:A1 I *D sky130_fd_sc_hd__mux2_4
*I *11533:DO[30] O *D CF_SRAM_1024x32
*CAP
1 *1038:DIODE 0
2 *1037:DIODE 0.000274849
3 *11317:A1 5.17758e-05
4 *11533:DO[30] 0.00054683
5 *292:39 0.00412419
6 *292:37 0.0047855
7 *292:23 0.00382736
8 *292:21 0.00283942
9 *292:19 0.00719538
10 *292:17 0.00940718
11 *292:11 0.00865811
12 *292:9 0.00644631
13 *292:7 0.00054683
14 *1037:DIODE *11317:A0 0.000409791
15 *11317:A1 *11317:A0 5.71472e-05
16 *292:7 *11533:DI[30] 0.000471258
17 *292:11 *11533:DI[23] 6.91215e-06
18 *292:11 *11533:DI[27] 0
19 *292:11 *11533:DI[28] 6.2589e-06
20 *292:11 *11533:DI[29] 0.000177574
21 *292:11 *11533:DI[25] 1.69497e-05
22 *292:11 *11533:DI[30] 4.07164e-05
23 *292:11 *11533:DI[22] 0.000131592
24 *292:11 *11533:DI[26] 0
25 *292:11 *400:78 2.31704e-05
26 *292:11 *629:74 0.00126156
27 *292:11 *629:78 4.58764e-05
28 *292:11 *629:181 0.000113778
29 *292:11 *630:74 0.00107435
30 *292:11 *630:86 0.000220424
31 *292:11 *630:201 0.000183802
32 *292:19 *331:67 2.60261e-05
33 *292:23 *330:25 0.000964561
34 *292:37 *11281:A0 2.44318e-05
35 *292:37 *330:25 0.000405207
36 *292:39 *11286:A0 9.59269e-05
37 *292:39 *11314:A0 0.000515569
38 *292:39 *306:30 0.00084134
39 *292:39 *330:25 0.000619683
40 *686:DIODE *292:39 0.000186765
41 *822:DIODE *292:37 0.000188586
42 *1005:DIODE *292:37 0.00126719
43 *1201:DIODE *292:39 7.86973e-05
44 *1222:DIODE *292:39 0.000187741
45 *1236:DIODE *292:37 6.09773e-05
46 *11281:S *292:37 0.000549292
47 *11281:S *292:39 4.69993e-05
48 *11317:S *11317:A1 0
49 *3:35 *292:37 0.000204055
50 *113:59 *292:39 0.00300418
51 *113:68 *11317:A1 0.000188586
52 *113:68 *292:39 7.60424e-05
53 *166:28 *292:37 1.21371e-05
54 *166:28 *292:39 0.00122212
55 *167:6 *292:37 3.50166e-05
56 *167:8 *292:37 0.000116412
57 *167:10 *292:37 7.10746e-05
58 *167:12 *292:37 7.50473e-05
59 *167:14 *292:37 7.50473e-05
60 *167:43 *292:37 0.000640233
61 *167:50 *292:37 0.000188586
62 *167:57 *292:37 0.000406105
63 *167:64 *292:37 0.000185118
64 *171:6 *292:37 4.64293e-05
65 *171:8 *292:37 0.00010629
66 *171:10 *292:37 0.000182868
67 *171:12 *292:37 0.000320024
68 *171:36 *292:37 2.99247e-05
69 *171:36 *292:39 0.000843855
70 *171:43 *292:39 0.000175892
71 *171:50 *292:39 0.000185124
72 *171:57 *292:39 0.000185118
73 *178:43 *292:39 0.000125261
74 *178:139 *292:39 0.000361492
75 *180:60 *292:39 0.000552078
76 *190:14 *292:39 9.83388e-05
77 *190:16 *292:39 0.00018831
78 *190:18 *292:39 0.000188586
79 *190:20 *292:39 0.000188586
80 *190:22 *292:39 0.000187042
81 *190:56 *292:39 0.000738253
82 *190:63 *292:39 0.000188311
83 *190:70 *292:39 0.000186662
84 *279:21 *292:19 0.000113156
85 *279:25 *292:23 0.00223148
86 *279:25 *292:37 0.00115624
87 *279:29 *292:37 0.00015691
88 *284:15 *292:11 0.00572345
89 *284:23 *292:19 0.0162952
*RES
1 *11533:DO[30] *292:7 12.0536 
2 *292:7 *292:9 4.5 
3 *292:9 *292:11 156.464 
4 *292:11 *292:17 35 
5 *292:17 *292:19 205.339 
6 *292:19 *292:21 4.5 
7 *292:21 *292:23 55.7768 
8 *292:23 *292:37 40.0625 
9 *292:37 *292:39 100.339 
10 *292:39 *11317:A1 11.8 
11 *292:39 *1037:DIODE 15.175 
12 *292:7 *1038:DIODE 9.3 
*END

*D_NET *293 0.113349
*CONN
*I *11320:A1 I *D sky130_fd_sc_hd__mux2_4
*I *1039:DIODE I *D sky130_fd_sc_hd__diode_2
*I *1040:DIODE I *D sky130_fd_sc_hd__diode_2
*I *11533:DO[31] O *D CF_SRAM_1024x32
*CAP
1 *11320:A1 0.000107684
2 *1039:DIODE 0
3 *1040:DIODE 0
4 *11533:DO[31] 0.000759379
5 *293:43 0.00167006
6 *293:37 0.00666407
7 *293:35 0.0064404
8 *293:29 0.00989047
9 *293:27 0.00855175
10 *293:25 0.0116664
11 *293:23 0.0131529
12 *293:14 0.00223844
13 *293:4 7.46181e-06
14 *11320:A1 *11320:A0 3.18676e-05
15 *293:14 *11533:DI[31] 0
16 *293:25 *298:22 0.000758965
17 *293:25 *300:22 0.00651201
18 *293:25 *323:19 0
19 *293:25 *363:66 0.000728657
20 *293:29 *307:15 7.9203e-05
21 *293:29 *331:59 0.00334023
22 *293:29 *331:63 0.00601244
23 *293:35 *331:59 0.00298922
24 *293:37 *331:55 0.00320293
25 *293:37 *331:59 0.00246761
26 *11320:S *11320:A1 0.00036192
27 *200:66 *293:25 0.000145867
28 *204:14 *293:29 0.000191945
29 *276:20 *293:25 0
30 *290:25 *293:25 0.0253769
*RES
1 *11533:DO[31] *293:4 0.142857 
2 *11533:DO[31] *293:14 12.5893 
3 *293:14 *1040:DIODE 9.3 
4 *293:14 *293:23 21.0536 
5 *293:23 *293:25 345.893 
6 *293:25 *293:27 4.5 
7 *293:27 *293:29 122.929 
8 *293:29 *293:35 29.1161 
9 *293:35 *293:37 73.4375 
10 *293:37 *293:43 34.0179 
11 *293:43 *1039:DIODE 9.3 
12 *293:43 *11320:A1 12.7107 
*END

*D_NET *294 0.0517287
*CONN
*I *11226:A1 I *D sky130_fd_sc_hd__mux2_2
*I *1041:DIODE I *D sky130_fd_sc_hd__diode_2
*I *1042:DIODE I *D sky130_fd_sc_hd__diode_2
*I *11533:DO[3] O *D CF_SRAM_1024x32
*CAP
1 *11226:A1 0
2 *1041:DIODE 0.000180886
3 *1042:DIODE 0
4 *11533:DO[3] 0.000867055
5 *294:32 0.000670575
6 *294:20 0.00513739
7 *294:18 0.00521258
8 *294:9 0.00143193
9 *1041:DIODE *11226:A0 0.000135028
10 *294:9 *11533:DI[3] 0
11 *294:20 *295:20 0.0125762
12 *294:20 *302:56 0.00163239
13 *294:20 *302:58 5.20383e-05
14 *294:20 *302:64 1.08359e-05
15 *294:20 *330:39 0.000623316
16 *294:32 *11226:A0 8.17274e-05
17 *294:32 *11232:A0 4.38942e-05
18 *126:10 *294:32 9.11048e-06
19 *138:10 *294:32 0.000173797
20 *142:10 *294:20 0.00176162
21 *142:10 *294:32 0.000240665
22 *146:10 *294:20 0.0029006
23 *149:24 *294:32 0.000172185
24 *153:20 *294:20 0.000159985
25 *203:20 *294:20 0.000200411
26 *203:36 *294:20 0.00122534
27 *203:88 *294:32 2.83627e-05
28 *203:92 *1041:DIODE 4.10926e-05
29 *203:151 *294:20 0.000400792
30 *223:22 *294:32 0.000139485
31 *269:28 *294:32 0.000301958
32 *277:26 *294:20 0.0152528
33 *280:20 *294:20 6.45763e-05
*RES
1 *11533:DO[3] *294:9 12.4554 
2 *294:9 *1042:DIODE 9.3 
3 *294:9 *294:18 10.375 
4 *294:18 *294:20 232.661 
5 *294:20 *294:32 25.1429 
6 *294:32 *1041:DIODE 11.4786 
7 *294:32 *11226:A1 9.3 
*END

*D_NET *295 0.0466801
*CONN
*I *1043:DIODE I *D sky130_fd_sc_hd__diode_2
*I *11229:A1 I *D sky130_fd_sc_hd__mux2_2
*I *1045:DIODE I *D sky130_fd_sc_hd__diode_2
*I *11533:DO[4] O *D CF_SRAM_1024x32
*CAP
1 *1043:DIODE 0.000296129
2 *11229:A1 0
3 *1045:DIODE 0
4 *11533:DO[4] 0.000833224
5 *295:32 0.000365538
6 *295:28 0.00310402
7 *295:26 0.00345265
8 *295:20 0.00345437
9 *295:18 0.0035619
10 *295:9 0.0013588
11 *1043:DIODE *327:60 0.000289001
12 *1043:DIODE *327:62 9.41642e-05
13 *295:9 *11533:DI[4] 6.3927e-05
14 *295:28 *310:29 0.000917593
15 *295:28 *312:25 0.0020718
16 *295:28 *328:27 0.000233808
17 *295:32 *327:62 9.66977e-05
18 *11229:S *295:28 0.00021693
19 *124:10 *295:28 0.000420931
20 *128:10 *295:28 0.000129422
21 *149:24 *295:28 0
22 *151:18 *295:28 0
23 *153:20 *295:20 0.000229612
24 *203:20 *295:20 0.000731094
25 *203:69 *295:28 0.000329661
26 *203:151 *295:20 0.0118527
27 *291:22 *295:28 0
28 *294:20 *295:20 0.0125762
*RES
1 *11533:DO[4] *295:9 12.4375 
2 *295:9 *1045:DIODE 9.3 
3 *295:9 *295:18 9.96429 
4 *295:18 *295:20 158.893 
5 *295:20 *295:26 13.2321 
6 *295:26 *295:28 76.9286 
7 *295:28 *295:32 5.44643 
8 *295:32 *11229:A1 9.3 
9 *295:32 *1043:DIODE 13.1214 
*END

*D_NET *296 0.0450967
*CONN
*I *11232:A1 I *D sky130_fd_sc_hd__mux2_2
*I *1046:DIODE I *D sky130_fd_sc_hd__diode_2
*I *1047:DIODE I *D sky130_fd_sc_hd__diode_2
*I *11533:DO[5] O *D CF_SRAM_1024x32
*CAP
1 *11232:A1 0
2 *1046:DIODE 0.000198055
3 *1047:DIODE 0
4 *11533:DO[5] 0.000780274
5 *296:40 0.000469106
6 *296:36 0.00113171
7 *296:20 0.00991773
8 *296:18 0.00918538
9 *296:9 0.000908582
10 *296:9 *11533:DI[5] 0.000212961
11 *296:20 *297:20 0
12 *296:20 *476:64 0.0139331
13 *296:20 *485:86 0.00236799
14 *296:36 *11251:A0 1.24368e-05
15 *296:36 *297:36 0.000312746
16 *296:36 *302:64 0.000386262
17 *296:40 *297:36 0.00027309
18 *11232:S *1046:DIODE 2.59355e-05
19 *134:8 *296:40 0.000555614
20 *146:8 *296:36 0.00038021
21 *146:10 *296:36 0.0019244
22 *146:10 *296:40 0.000126997
23 *153:20 *296:36 0.000165754
24 *223:22 *1046:DIODE 3.50858e-05
25 *229:22 *296:36 0.000777918
26 *229:32 *296:36 3.09983e-05
27 *229:32 *296:40 0.00052006
28 *272:21 *296:36 0.000464377
*RES
1 *11533:DO[5] *296:9 12.4196 
2 *296:9 *1047:DIODE 9.3 
3 *296:9 *296:18 5.85714 
4 *296:18 *296:20 176.196 
5 *296:20 *296:36 40.3304 
6 *296:36 *296:40 15.0982 
7 *296:40 *1046:DIODE 11.4786 
8 *296:40 *11232:A1 9.3 
*END

*D_NET *297 0.0393078
*CONN
*I *11235:A1 I *D sky130_fd_sc_hd__mux2_2
*I *1048:DIODE I *D sky130_fd_sc_hd__diode_2
*I *1049:DIODE I *D sky130_fd_sc_hd__diode_2
*I *11533:DO[6] O *D CF_SRAM_1024x32
*CAP
1 *11235:A1 0.000128273
2 *1048:DIODE 7.01371e-05
3 *1049:DIODE 0
4 *11533:DO[6] 0.000872852
5 *297:36 0.00115997
6 *297:20 0.0099514
7 *297:18 0.00937336
8 *297:9 0.00125637
9 *1048:DIODE *329:47 0.000135028
10 *297:9 *11533:DI[6] 0
11 *297:20 *485:86 0.0011618
12 *297:36 *1198:DIODE 0.000197623
13 *297:36 *11235:A0 9.55684e-05
14 *297:36 *329:47 0.000216755
15 *297:36 *332:50 0.000146316
16 *732:DIODE *297:36 0.000332894
17 *11235:S *11235:A1 8.53654e-05
18 *11235:S *297:36 3.97677e-05
19 *11251:A1 *297:20 0.000120724
20 *149:22 *297:20 0.000309422
21 *149:22 *297:36 0.00011994
22 *203:151 *297:20 0.00112462
23 *229:22 *297:36 0.000740577
24 *229:32 *297:36 0.000665884
25 *270:18 *297:20 0.0100525
26 *272:21 *297:20 0.000105743
27 *272:21 *297:36 0.000259096
28 *296:20 *297:20 0
29 *296:36 *297:36 0.000312746
30 *296:40 *297:36 0.00027309
*RES
1 *11533:DO[6] *297:9 12.4018 
2 *297:9 *1049:DIODE 9.3 
3 *297:9 *297:18 8.32143 
4 *297:18 *297:20 170.259 
5 *297:20 *297:36 41.9554 
6 *297:36 *1048:DIODE 10.6571 
7 *297:36 *11235:A1 11.2821 
*END

*D_NET *298 0.0450499
*CONN
*I *1050:DIODE I *D sky130_fd_sc_hd__diode_2
*I *11238:A1 I *D sky130_fd_sc_hd__mux2_2
*I *1051:DIODE I *D sky130_fd_sc_hd__diode_2
*I *11533:DO[7] O *D CF_SRAM_1024x32
*CAP
1 *1050:DIODE 0
2 *11238:A1 0.000267558
3 *1051:DIODE 0
4 *11533:DO[7] 0.000898684
5 *298:30 0.00100294
6 *298:28 0.00184983
7 *298:22 0.00496504
8 *298:20 0.0053756
9 *298:11 0.00242368
10 *11238:A1 *11238:A0 0.000169395
11 *298:11 *11533:DI[7] 0
12 *298:22 *300:22 0.0121169
13 *298:22 *323:19 0.00380938
14 *298:22 *332:19 0.00628502
15 *298:22 *363:66 0.000797311
16 *298:28 *1149:DIODE 5.54602e-05
17 *298:28 *301:41 0.000182266
18 *298:28 *301:45 0.000198698
19 *298:28 *323:35 0.000304765
20 *298:28 *323:37 4.06782e-05
21 *298:28 *323:43 8.98303e-05
22 *298:28 *327:60 0.00012316
23 *298:30 *1165:DIODE 0.000175892
24 *298:30 *11238:A0 0.000175892
25 *298:30 *327:31 0.000136682
26 *298:30 *330:39 4.25176e-05
27 *998:DIODE *298:22 1.18451e-05
28 *11273:S *298:22 0
29 *11273:S *298:28 0.000213879
30 *3:25 *298:22 0.000276298
31 *3:25 *298:28 0.000143652
32 *120:10 *298:28 0.000666589
33 *136:8 *11238:A1 0.000110029
34 *136:8 *298:30 6.06291e-05
35 *159:10 *298:22 0.000299683
36 *159:10 *298:28 0.00102112
37 *200:66 *298:28 0
38 *293:25 *298:22 0.000758965
*RES
1 *11533:DO[7] *298:11 12.7946 
2 *298:11 *1051:DIODE 9.3 
3 *298:11 *298:20 20.2321 
4 *298:20 *298:22 173.92 
5 *298:22 *298:28 39.0089 
6 *298:28 *298:30 11.2143 
7 *298:30 *11238:A1 14.3893 
8 *298:30 *1050:DIODE 9.3 
*END

*D_NET *299 0.0414924
*CONN
*I *1052:DIODE I *D sky130_fd_sc_hd__diode_2
*I *11241:A1 I *D sky130_fd_sc_hd__mux2_2
*I *1053:DIODE I *D sky130_fd_sc_hd__diode_2
*I *11533:DO[8] O *D CF_SRAM_1024x32
*CAP
1 *1052:DIODE 0
2 *11241:A1 0.000337549
3 *1053:DIODE 0
4 *11533:DO[8] 0.000884732
5 *299:22 0.000952254
6 *299:18 0.00586695
7 *299:16 0.00707998
8 *299:7 0.00271247
9 *11241:A1 *11241:A0 1.28239e-05
10 *11241:A1 *326:58 1.24368e-05
11 *11241:A1 *331:82 2.33546e-05
12 *299:7 *11533:DI[8] 0
13 *299:18 *301:37 3.57063e-05
14 *299:18 *323:33 0.00150789
15 *299:18 *363:66 0.00179079
16 *299:22 *1145:DIODE 0.000177815
17 *299:22 *323:99 0.000426133
18 *299:22 *326:58 2.42516e-05
19 *299:22 *331:71 0.00122069
20 *299:22 *331:80 1.38323e-05
21 *138:8 *11241:A1 6.24874e-05
22 *138:8 *299:22 0.000300406
23 *200:66 *299:18 0.00196309
24 *204:10 *299:18 0.00794195
25 *224:32 *299:18 0.00119945
26 *283:22 *299:18 0.00694536
27 *289:25 *299:18 0
*RES
1 *11533:DO[8] *299:7 12.2411 
2 *299:7 *1053:DIODE 9.3 
3 *299:7 *299:16 23.5179 
4 *299:16 *299:18 191.071 
5 *299:18 *299:22 19.8214 
6 *299:22 *11241:A1 14.2643 
7 *299:22 *1052:DIODE 9.3 
*END

*D_NET *300 0.036889
*CONN
*I *11246:A1 I *D sky130_fd_sc_hd__mux2_2
*I *1054:DIODE I *D sky130_fd_sc_hd__diode_2
*I *1056:DIODE I *D sky130_fd_sc_hd__diode_2
*I *11533:DO[9] O *D CF_SRAM_1024x32
*CAP
1 *11246:A1 3.25658e-05
2 *1054:DIODE 0.0001331
3 *1056:DIODE 0
4 *11533:DO[9] 0.000884126
5 *300:26 0.000801454
6 *300:22 0.00419896
7 *300:20 0.00474287
8 *300:11 0.00206383
9 *300:11 *11533:BEN[8] 0
10 *300:11 *11533:DI[9] 3.09541e-05
11 *300:22 *1095:DIODE 2.14474e-05
12 *300:22 *301:29 0.00291508
13 *300:22 *308:27 4.5225e-05
14 *300:22 *332:31 0.000171368
15 *300:22 *363:66 0.00052395
16 *300:26 *11246:A0 5.33005e-05
17 *300:26 *332:31 0.000204318
18 *300:26 *332:33 0.000163455
19 *300:26 *332:35 0.000167284
20 *300:26 *332:37 0.000377013
21 *300:26 *332:39 0.00032691
22 *11246:S *1054:DIODE 0.000175892
23 *11273:S *300:22 6.8646e-06
24 *151:16 *300:26 0.000220035
25 *200:66 *300:22 0
26 *293:25 *300:22 0.00651201
27 *298:22 *300:22 0.0121169
*RES
1 *11533:DO[9] *300:11 13.3839 
2 *300:11 *1056:DIODE 9.3 
3 *300:11 *300:20 20.6429 
4 *300:20 *300:22 153.429 
5 *300:22 *300:26 17.7679 
6 *300:26 *1054:DIODE 11.4786 
7 *300:26 *11246:A1 9.72857 
*END

*D_NET *301 0.118991
*CONN
*I *1058:DIODE I *D sky130_fd_sc_hd__diode_2
*I *1061:DIODE I *D sky130_fd_sc_hd__diode_2
*I *1065:DIODE I *D sky130_fd_sc_hd__diode_2
*I *11215:A0 I *D sky130_fd_sc_hd__mux2_2
*I *1057:DIODE I *D sky130_fd_sc_hd__diode_2
*I *1060:DIODE I *D sky130_fd_sc_hd__diode_2
*I *1062:DIODE I *D sky130_fd_sc_hd__diode_2
*I *1064:DIODE I *D sky130_fd_sc_hd__diode_2
*I *1067:DIODE I *D sky130_fd_sc_hd__diode_2
*I *1063:DIODE I *D sky130_fd_sc_hd__diode_2
*I *1059:DIODE I *D sky130_fd_sc_hd__diode_2
*I *11542:DO[0] O *D CF_SRAM_1024x32
*CAP
1 *1058:DIODE 0.000729083
2 *1061:DIODE 0
3 *1065:DIODE 0
4 *11215:A0 0
5 *1057:DIODE 0
6 *1060:DIODE 0
7 *1062:DIODE 0
8 *1064:DIODE 0
9 *1067:DIODE 0.000146114
10 *1063:DIODE 0
11 *1059:DIODE 0.000141497
12 *11542:DO[0] 5.43477e-05
13 *301:71 0.00025677
14 *301:69 0.000221313
15 *301:67 0.000164844
16 *301:65 0.000221348
17 *301:63 0.000509107
18 *301:59 0.000341946
19 *301:45 0.000209184
20 *301:41 0.000156174
21 *301:37 0.00082942
22 *301:29 0.00161792
23 *301:21 0.00796689
24 *301:19 0.0070899
25 *301:17 0.0103474
26 *301:5 0.0111308
27 *1058:DIODE *11542:ScanInDL 0
28 *1058:DIODE *11542:ScanInCC 0
29 *1058:DIODE *11542:DI[0] 0
30 *1059:DIODE *331:71 0.000177545
31 *301:5 *11542:ScanInCC 0
32 *301:5 *11542:DI[0] 0
33 *301:17 *316:19 4.25029e-05
34 *301:17 *316:29 0
35 *301:17 *318:13 4.25029e-05
36 *301:17 *322:26 0
37 *301:17 *325:26 0
38 *301:17 *328:21 0.0108292
39 *301:21 *302:50 0.00225171
40 *301:21 *304:51 0.00326851
41 *301:21 *308:23 5.44456e-05
42 *301:21 *310:23 0.0296561
43 *301:21 *325:36 0
44 *301:21 *329:27 0.00346269
45 *301:29 *1095:DIODE 0.000173804
46 *301:29 *308:27 0.00273748
47 *301:29 *332:31 6.05161e-06
48 *301:37 *323:33 0.00128385
49 *301:37 *363:66 0.000143652
50 *301:41 *323:35 8.87265e-05
51 *301:45 *323:35 0.000104236
52 *301:63 *326:35 7.10751e-05
53 *301:65 *326:35 3.63775e-05
54 *11215:A1 *301:65 0.000251543
55 *11215:S *301:65 0.000157369
56 *11273:S *301:29 2.42516e-05
57 *113:14 *301:21 0.00154555
58 *188:12 *301:21 0.00150152
59 *190:80 *301:21 0.000331509
60 *192:14 *301:21 0.00440072
61 *196:14 *301:21 0.00746628
62 *200:66 *301:37 0.00207796
63 *203:65 *1067:DIODE 6.05161e-06
64 *203:65 *301:65 2.12005e-05
65 *203:65 *301:67 8.95832e-05
66 *203:65 *301:69 8.33274e-05
67 *203:65 *301:71 8.33274e-05
68 *223:22 *301:37 5.38593e-06
69 *224:32 *301:37 0.000767008
70 *269:28 *301:65 0.000140856
71 *269:28 *301:67 0.000140856
72 *298:28 *301:41 0.000182266
73 *298:28 *301:45 0.000198698
74 *299:18 *301:37 3.57063e-05
75 *300:22 *301:29 0.00291508
*RES
1 *11542:DO[0] *301:5 0.883929 
2 *301:5 *301:17 48.5033 
3 *301:17 *301:19 3.41 
4 *301:19 *301:21 48.5839 
5 *301:21 *301:29 46.6868 
6 *301:29 *301:37 37.3036 
7 *301:37 *301:41 7.05357 
8 *301:41 *301:45 7.05357 
9 *301:45 *1059:DIODE 11.0679 
10 *301:45 *1063:DIODE 9.3 
11 *301:41 *301:59 4.5 
12 *301:59 *301:63 3.83929 
13 *301:63 *301:65 4.64286 
14 *301:65 *301:67 1.76786 
15 *301:67 *301:69 1.76786 
16 *301:69 *301:71 1.76786 
17 *301:71 *1067:DIODE 11.0679 
18 *301:71 *1064:DIODE 9.3 
19 *301:69 *1062:DIODE 9.3 
20 *301:67 *1060:DIODE 9.3 
21 *301:65 *1057:DIODE 9.3 
22 *301:63 *11215:A0 9.3 
23 *301:59 *1065:DIODE 9.3 
24 *301:37 *1061:DIODE 9.3 
25 *301:5 *1058:DIODE 20.2464 
*END

*D_NET *302 0.0714905
*CONN
*I *1070:DIODE I *D sky130_fd_sc_hd__diode_2
*I *1074:DIODE I *D sky130_fd_sc_hd__diode_2
*I *1069:DIODE I *D sky130_fd_sc_hd__diode_2
*I *1068:DIODE I *D sky130_fd_sc_hd__diode_2
*I *11251:A0 I *D sky130_fd_sc_hd__mux2_2
*I *1073:DIODE I *D sky130_fd_sc_hd__diode_2
*I *1072:DIODE I *D sky130_fd_sc_hd__diode_2
*I *1071:DIODE I *D sky130_fd_sc_hd__diode_2
*I *11542:DO[10] O *D CF_SRAM_1024x32
*CAP
1 *1070:DIODE 0.000384415
2 *1074:DIODE 0.000168591
3 *1069:DIODE 0
4 *1068:DIODE 0.000224534
5 *11251:A0 5.49521e-05
6 *1073:DIODE 0.000205325
7 *1072:DIODE 0.000170799
8 *1071:DIODE 0
9 *11542:DO[10] 8.64114e-05
10 *302:86 0.000168591
11 *302:64 0.000469612
12 *302:58 0.000233777
13 *302:56 0.000879787
14 *302:50 0.0136136
15 *302:48 0.0176132
16 *302:15 0.000475733
17 *302:11 0.000930007
18 *302:7 0.00495748
19 *1068:DIODE *476:64 0.00012116
20 *1073:DIODE *11542:DI[10] 0.000122279
21 *302:7 *11542:DI[10] 2.95726e-05
22 *302:11 *11542:DI[10] 0.000443076
23 *302:48 *11542:vpwrpc 0.000470284
24 *302:48 *11542:vpwrac 0.000412749
25 *302:48 *308:21 0.000814762
26 *302:48 *318:25 0.00753792
27 *302:48 *327:9 1.90936e-05
28 *302:48 *329:23 1.94879e-05
29 *302:50 *310:23 9.29556e-05
30 *738:DIODE *1070:DIODE 0.000135028
31 *11251:A1 *11251:A0 4.58194e-05
32 *11251:A1 *302:64 0.000139187
33 *146:8 *1074:DIODE 5.33005e-05
34 *146:10 *302:64 5.31158e-05
35 *190:80 *302:50 0.00487185
36 *192:14 *302:50 0.00179316
37 *196:14 *302:50 0.00746628
38 *203:20 *1070:DIODE 6.05161e-06
39 *203:20 *302:56 0.00159785
40 *228:20 *1068:DIODE 6.57032e-05
41 *272:21 *302:56 1.53472e-05
42 *272:21 *302:58 0.000104749
43 *272:21 *302:64 7.73022e-05
44 *294:20 *302:56 0.00163239
45 *294:20 *302:58 5.20383e-05
46 *294:20 *302:64 1.08359e-05
47 *296:36 *11251:A0 1.24368e-05
48 *296:36 *302:64 0.000386262
49 *301:21 *302:50 0.00225171
*RES
1 *11542:DO[10] *302:7 1.72321 
2 *302:7 *302:11 8.76786 
3 *302:11 *302:15 3.625 
4 *302:15 *1071:DIODE 9.3 
5 *302:15 *1072:DIODE 11.0679 
6 *302:11 *1073:DIODE 11.8893 
7 *302:7 *302:48 36.055 
8 *302:48 *302:50 49.3766 
9 *302:50 *302:56 24.7136 
10 *302:56 *302:58 1.49107 
11 *302:58 *302:64 9.35714 
12 *302:64 *11251:A0 10.2464 
13 *302:64 *1068:DIODE 21.3 
14 *302:58 *302:86 4.5 
15 *302:86 *1069:DIODE 9.3 
16 *302:86 *1074:DIODE 11.0679 
17 *302:56 *1070:DIODE 18.8536 
*END

*D_NET *303 0.105415
*CONN
*I *1078:DIODE I *D sky130_fd_sc_hd__diode_2
*I *1075:DIODE I *D sky130_fd_sc_hd__diode_2
*I *11255:A0 I *D sky130_fd_sc_hd__mux2_2
*I *1076:DIODE I *D sky130_fd_sc_hd__diode_2
*I *11542:DO[11] O *D CF_SRAM_1024x32
*CAP
1 *1078:DIODE 0
2 *1075:DIODE 0
3 *11255:A0 0.000181177
4 *1076:DIODE 0.000815827
5 *11542:DO[11] 0.00250703
6 *303:41 0.000304469
7 *303:39 0.00172246
8 *303:33 0.0317105
9 *303:31 0.0318026
10 *1076:DIODE *11542:DI[11] 0
11 *303:31 *11542:DI[11] 0
12 *303:31 *322:26 0.00181505
13 *303:31 *325:26 1.13306e-05
14 *303:31 *327:9 1.94879e-05
15 *303:31 *328:21 0.00474012
16 *303:31 *329:23 1.94879e-05
17 *303:33 *317:29 0.0113414
18 *303:33 *322:32 0.000751233
19 *141:100 *11255:A0 0.000405683
20 *141:100 *303:41 6.97409e-05
21 *271:24 *303:33 0.00130947
22 *282:26 *303:33 0.00181893
23 *283:26 *303:33 0.00226175
24 *286:26 *303:33 0.00344416
25 *288:29 *303:33 0.00433921
26 *290:29 *303:33 0.00402405
*RES
1 *11542:DO[11] *1076:DIODE 20.925 
2 *11542:DO[11] *303:31 27.6898 
3 *303:31 *303:33 58.6012 
4 *303:33 *303:39 35.5082 
5 *303:39 *303:41 1.76786 
6 *303:41 *11255:A0 13.8536 
7 *303:41 *1075:DIODE 9.3 
8 *303:39 *1078:DIODE 9.3 
*END

*D_NET *304 0.0860582
*CONN
*I *1082:DIODE I *D sky130_fd_sc_hd__diode_2
*I *1080:DIODE I *D sky130_fd_sc_hd__diode_2
*I *11258:A0 I *D sky130_fd_sc_hd__mux2_2
*I *1081:DIODE I *D sky130_fd_sc_hd__diode_2
*I *1087:DIODE I *D sky130_fd_sc_hd__diode_2
*I *1079:DIODE I *D sky130_fd_sc_hd__diode_2
*I *1085:DIODE I *D sky130_fd_sc_hd__diode_2
*I *1086:DIODE I *D sky130_fd_sc_hd__diode_2
*I *1084:DIODE I *D sky130_fd_sc_hd__diode_2
*I *1083:DIODE I *D sky130_fd_sc_hd__diode_2
*I *11542:DO[12] O *D CF_SRAM_1024x32
*CAP
1 *1082:DIODE 0
2 *1080:DIODE 0
3 *11258:A0 0
4 *1081:DIODE 9.84518e-05
5 *1087:DIODE 7.37815e-05
6 *1079:DIODE 4.1209e-05
7 *1085:DIODE 0
8 *1086:DIODE 4.43058e-05
9 *1084:DIODE 0.000183085
10 *1083:DIODE 0
11 *11542:DO[12] 0.000185456
12 *304:69 0.000157084
13 *304:65 0.000140545
14 *304:63 0.000265582
15 *304:61 0.000378493
16 *304:59 0.00142881
17 *304:57 0.00249406
18 *304:51 0.00737217
19 *304:49 0.00619402
20 *304:47 0.00293196
21 *304:45 0.00293196
22 *304:17 0.000183085
23 *304:15 7.54668e-05
24 *304:11 0.000725255
25 *304:7 0.00087955
26 *1081:DIODE *476:64 0.000120975
27 *1081:DIODE *630:72 2.59355e-05
28 *1081:DIODE *631:68 0.000112432
29 *1086:DIODE *433:72 0.000202842
30 *1086:DIODE *474:112 0.000194299
31 *304:7 *11542:DI[12] 0
32 *304:11 *11542:DI[12] 7.78749e-05
33 *304:15 *433:72 7.6644e-05
34 *304:15 *474:112 7.83659e-05
35 *304:47 *305:13 0.000802842
36 *304:47 *307:13 0.00185486
37 *304:47 *311:11 0.000247759
38 *304:47 *327:17 0.00218613
39 *304:47 *329:23 0
40 *304:47 *331:49 0.000253363
41 *304:47 *331:51 8.41555e-06
42 *304:47 *374:81 0.000138604
43 *304:51 *310:23 0.00253803
44 *304:51 *329:27 0.0293192
45 *304:57 *329:31 0.00139775
46 *304:57 *331:67 1.00375e-05
47 *304:59 *323:33 0
48 *304:69 *476:64 0.000151333
49 *304:69 *631:68 0.000153047
50 *11258:A1 *304:63 0.000165123
51 *113:14 *304:51 0.00709049
52 *151:16 *304:61 4.85033e-05
53 *151:16 *304:63 0.000116649
54 *188:12 *304:51 0.00800677
55 *192:14 *304:51 0.000277941
56 *194:16 *304:47 0.00016935
57 *226:24 *304:59 0
58 *229:22 *1079:DIODE 5.49544e-05
59 *229:22 *1087:DIODE 8.2607e-05
60 *272:25 *304:63 4.22431e-05
61 *301:21 *304:51 0.00326851
*RES
1 *11542:DO[12] *304:7 2.91964 
2 *304:7 *304:11 10 
3 *304:11 *304:15 5.53571 
4 *304:15 *304:17 4.5 
5 *304:17 *1083:DIODE 9.3 
6 *304:17 *1084:DIODE 11.0679 
7 *304:15 *1086:DIODE 16.3536 
8 *304:11 *1085:DIODE 9.3 
9 *304:7 *304:45 4.5 
10 *304:45 *304:47 83.3036 
11 *304:47 *304:49 4.5 
12 *304:49 *304:51 277.357 
13 *304:51 *304:57 41 
14 *304:57 *304:59 18.6071 
15 *304:59 *304:61 1.76786 
16 *304:61 *304:63 5.05357 
17 *304:63 *304:65 4.5 
18 *304:65 *304:69 6.44643 
19 *304:69 *1079:DIODE 9.83571 
20 *304:69 *1087:DIODE 10.2464 
21 *304:65 *1081:DIODE 15.9786 
22 *304:63 *11258:A0 9.3 
23 *304:61 *1080:DIODE 9.3 
24 *304:59 *1082:DIODE 9.3 
*END

*D_NET *305 0.0664533
*CONN
*I *11261:A0 I *D sky130_fd_sc_hd__mux2_4
*I *11542:DO[13] O *D CF_SRAM_1024x32
*CAP
1 *11261:A0 0.0014916
2 *11542:DO[13] 0.000995022
3 *305:15 0.0164441
4 *305:13 0.0159475
5 *305:13 *11542:DI[13] 0
6 *305:13 *307:13 0.00140278
7 *305:13 *311:11 0.00292005
8 *305:15 *311:15 0.0206238
9 *11261:A1 *11261:A0 9.35228e-06
10 *271:24 *11261:A0 0
11 *273:18 *11261:A0 0.000358971
12 *274:20 *305:15 0.000674846
13 *275:18 *305:15 0
14 *283:26 *305:15 0.000169587
15 *285:26 *305:15 0.00459903
16 *290:29 *305:15 1.38707e-05
17 *304:47 *305:13 0.000802842
*RES
1 *11542:DO[13] *305:13 49.8839 
2 *305:13 *305:15 352.107 
3 *305:15 *11261:A0 44.5321 
*END

*D_NET *306 0.0797925
*CONN
*I *11264:A0 I *D sky130_fd_sc_hd__mux2_2
*I *11542:DO[14] O *D CF_SRAM_1024x32
*CAP
1 *11264:A0 0.000147189
2 *11542:DO[14] 0.000532091
3 *306:42 0.0113823
4 *306:40 0.0112575
5 *306:38 0.00254993
6 *306:36 0.00263601
7 *306:30 0.00187594
8 *306:22 0.00531052
9 *306:20 0.00356542
10 *306:18 0.00486208
11 *306:16 0.00483969
12 *306:14 0.00116807
13 *306:12 0.00170017
14 *306:4 0
15 *306:12 *11542:DI[14] 0
16 *306:14 *11542:BEN[15] 0.000105754
17 *306:14 *405:44 0.00449204
18 *306:14 *463:73 0.00121887
19 *306:14 *467:82 0.000746785
20 *306:14 *558:173 0.000408157
21 *306:14 *558:185 0.000176823
22 *306:22 *11302:A0 0.000188117
23 *306:22 *313:47 0.00067418
24 *306:30 *313:47 0.000104613
25 *306:36 *313:47 3.09814e-05
26 *992:DIODE *306:42 0.000230431
27 *1017:DIODE *306:30 0.000494431
28 *1023:DIODE *306:22 2.65105e-05
29 *1032:DIODE *306:22 0.0012605
30 *1200:DIODE *306:38 0.000184246
31 *1201:DIODE *306:30 0.000142011
32 *11264:A1 *11264:A0 3.27461e-05
33 *3:35 *306:38 0.000267934
34 *3:35 *306:42 0.000747471
35 *113:59 *306:30 0.00156565
36 *141:100 *306:42 0.00247762
37 *141:109 *306:42 0.000169046
38 *141:121 *306:42 0.000120111
39 *149:22 *306:42 0.000276671
40 *166:20 *306:38 0.000268583
41 *166:28 *306:36 0
42 *166:102 *306:22 0.00156275
43 *176:8 *306:38 4.18895e-05
44 *176:10 *306:38 0.000174682
45 *178:35 *306:30 2.61711e-05
46 *178:158 *306:30 7.35585e-06
47 *180:6 *306:22 9.66977e-05
48 *180:13 *306:22 0.000163455
49 *180:20 *306:22 0.000174232
50 *180:27 *306:22 0.000175251
51 *180:34 *306:22 0.000175251
52 *180:41 *306:22 0.000175251
53 *180:50 *306:22 0.000258011
54 *182:6 *306:22 0.000188586
55 *182:13 *306:22 0.000175251
56 *182:20 *306:22 0.000175251
57 *182:27 *306:22 0.000175251
58 *182:34 *306:22 0.000175251
59 *182:41 *306:22 0.000171188
60 *182:48 *306:22 0.000173559
61 *182:55 *306:22 0.000175105
62 *182:62 *306:22 0.000173328
63 *182:79 *306:22 4.27935e-05
64 *184:36 *306:22 0.00263867
65 *284:27 *306:42 0.000644749
66 *284:31 *306:38 0.00277404
67 *292:39 *306:30 0.00084134
*RES
1 *11542:DO[14] *306:4 0.159091 
2 *11542:DO[14] *306:12 12.4286 
3 *306:12 *306:14 55.9821 
4 *306:14 *306:16 4.5 
5 *306:16 *306:18 54.9554 
6 *306:18 *306:20 0.428571 
7 *306:20 *306:22 84.1161 
8 *306:22 *306:30 47.3214 
9 *306:30 *306:36 10.6429 
10 *306:36 *306:38 52.0804 
11 *306:38 *306:40 0.428571 
12 *306:40 *306:42 137.92 
13 *306:42 *11264:A0 20.2464 
*END

*D_NET *307 0.0754259
*CONN
*I *1090:DIODE I *D sky130_fd_sc_hd__diode_2
*I *11267:A0 I *D sky130_fd_sc_hd__mux2_4
*I *11542:DO[15] O *D CF_SRAM_1024x32
*CAP
1 *1090:DIODE 0
2 *11267:A0 0.000116017
3 *11542:DO[15] 0.000743461
4 *307:19 0.00143946
5 *307:15 0.0168465
6 *307:13 0.0162665
7 *307:13 *11542:DI[15] 0
8 *307:13 *374:81 8.85532e-05
9 *307:13 *565:10 0
10 *307:15 *331:55 0.00361283
11 *307:15 *331:59 0.0029484
12 *307:15 *565:6 0.0149152
13 *11267:A1 *11267:A0 0.000178459
14 *11267:S *11267:A0 0.000175493
15 *204:14 *307:15 0.0147581
16 *293:29 *307:15 7.9203e-05
17 *304:47 *307:13 0.00185486
18 *305:13 *307:13 0.00140278
*RES
1 *11542:DO[15] *307:13 35.7768 
2 *307:13 *307:15 368.125 
3 *307:15 *307:19 27.6964 
4 *307:19 *11267:A0 17.8357 
5 *307:19 *1090:DIODE 13.8 
*END

*D_NET *308 0.122723
*CONN
*I *1092:DIODE I *D sky130_fd_sc_hd__diode_2
*I *1098:DIODE I *D sky130_fd_sc_hd__diode_2
*I *1093:DIODE I *D sky130_fd_sc_hd__diode_2
*I *1091:DIODE I *D sky130_fd_sc_hd__diode_2
*I *11270:A0 I *D sky130_fd_sc_hd__mux2_2
*I *1094:DIODE I *D sky130_fd_sc_hd__diode_2
*I *1096:DIODE I *D sky130_fd_sc_hd__diode_2
*I *1097:DIODE I *D sky130_fd_sc_hd__diode_2
*I *1095:DIODE I *D sky130_fd_sc_hd__diode_2
*I *11542:DO[16] O *D CF_SRAM_1024x32
*CAP
1 *1092:DIODE 0.000294074
2 *1098:DIODE 0
3 *1093:DIODE 0
4 *1091:DIODE 9.80379e-05
5 *11270:A0 0
6 *1094:DIODE 0
7 *1096:DIODE 0
8 *1097:DIODE 4.86103e-05
9 *1095:DIODE 0.000167794
10 *11542:DO[16] 6.6544e-05
11 *308:56 0.000102578
12 *308:54 0.000379073
13 *308:50 0.000382594
14 *308:44 0.000221009
15 *308:42 8.39472e-05
16 *308:27 0.00106194
17 *308:23 0.00630457
18 *308:21 0.0125593
19 *308:17 0.00804267
20 *308:7 0.00127286
21 *1091:DIODE *323:33 6.05161e-06
22 *1092:DIODE *11542:ScanInDR 0.0010195
23 *1092:DIODE *11542:DI[16] 0.00124409
24 *1095:DIODE *332:31 0.000130061
25 *1097:DIODE *310:31 0.000178425
26 *308:7 *11542:ScanInDR 9.80108e-05
27 *308:7 *11542:DI[16] 9.60875e-05
28 *308:17 *313:35 0
29 *308:17 *316:19 4.15161e-05
30 *308:17 *318:13 4.15161e-05
31 *308:17 *418:95 0.00112137
32 *308:21 *11542:vpwrpc 2.33124e-05
33 *308:21 *11542:vpwrac 0.00185084
34 *308:21 *310:21 0.0196931
35 *308:21 *318:25 0
36 *308:23 *310:23 0.0296115
37 *308:23 *312:23 0.0281465
38 *308:23 *325:36 0
39 *308:42 *323:33 2.59355e-05
40 *308:44 *323:33 8.55871e-05
41 *308:50 *332:19 0.000175512
42 *308:54 *11276:A0 4.36666e-05
43 *308:54 *310:31 0.000432847
44 *308:56 *310:31 0.000175892
45 *998:DIODE *308:50 3.34295e-05
46 *11270:A1 *308:54 2.59355e-05
47 *11273:S *1095:DIODE 0.000101545
48 *11273:S *308:54 6.26276e-05
49 *3:25 *308:27 0.000111243
50 *141:53 *1097:DIODE 0.000178425
51 *141:53 *308:54 0.00033363
52 *141:53 *308:56 0.000163455
53 *141:60 *308:54 0.00038986
54 *200:66 *1095:DIODE 0.000124723
55 *200:66 *308:27 0.00149478
56 *226:24 *1091:DIODE 0.000175892
57 *226:24 *308:42 4.08637e-05
58 *226:24 *308:44 0.000163455
59 *276:20 *308:50 0.000148903
60 *300:22 *1095:DIODE 2.14474e-05
61 *300:22 *308:27 4.5225e-05
62 *301:21 *308:23 5.44456e-05
63 *301:29 *1095:DIODE 0.000173804
64 *301:29 *308:27 0.00273748
65 *302:48 *308:21 0.000814762
*RES
1 *11542:DO[16] *308:7 1.80357 
2 *308:7 *308:17 15.1543 
3 *308:17 *308:21 43.9397 
4 *308:21 *308:23 46.7822 
5 *308:23 *308:27 39.5082 
6 *308:27 *1095:DIODE 18.7107 
7 *308:27 *308:42 5.03571 
8 *308:42 *308:44 1.76786 
9 *308:44 *308:50 11.25 
10 *308:50 *308:54 8.76786 
11 *308:54 *308:56 1.76786 
12 *308:56 *1097:DIODE 11.0679 
13 *308:56 *1096:DIODE 9.3 
14 *308:54 *1094:DIODE 9.3 
15 *308:50 *11270:A0 9.3 
16 *308:44 *1091:DIODE 11.0679 
17 *308:44 *1093:DIODE 9.3 
18 *308:42 *1098:DIODE 9.3 
19 *308:7 *1092:DIODE 21.3357 
*END

*D_NET *309 0.138531
*CONN
*I *1103:DIODE I *D sky130_fd_sc_hd__diode_2
*I *1102:DIODE I *D sky130_fd_sc_hd__diode_2
*I *1107:DIODE I *D sky130_fd_sc_hd__diode_2
*I *1101:DIODE I *D sky130_fd_sc_hd__diode_2
*I *11273:A0 I *D sky130_fd_sc_hd__mux2_2
*I *1104:DIODE I *D sky130_fd_sc_hd__diode_2
*I *1106:DIODE I *D sky130_fd_sc_hd__diode_2
*I *1108:DIODE I *D sky130_fd_sc_hd__diode_2
*I *1109:DIODE I *D sky130_fd_sc_hd__diode_2
*I *1105:DIODE I *D sky130_fd_sc_hd__diode_2
*I *1099:DIODE I *D sky130_fd_sc_hd__diode_2
*I *11542:DO[17] O *D CF_SRAM_1024x32
*CAP
1 *1103:DIODE 0.0003249
2 *1102:DIODE 0
3 *1107:DIODE 0
4 *1101:DIODE 0.000133714
5 *11273:A0 0
6 *1104:DIODE 0
7 *1106:DIODE 0
8 *1108:DIODE 0
9 *1109:DIODE 0.000138019
10 *1105:DIODE 0
11 *1099:DIODE 0.000127204
12 *11542:DO[17] 7.51772e-05
13 *309:116 0.000984476
14 *309:94 0.000408456
15 *309:63 0.000267098
16 *309:61 0.000259477
17 *309:59 0.000573901
18 *309:57 0.000608505
19 *309:55 0.000629039
20 *309:35 0.000340469
21 *309:33 0.000648928
22 *309:29 0.00186365
23 *309:27 0.00161728
24 *309:25 0.022968
25 *309:23 0.0271247
26 *309:19 0.00428367
27 *309:7 0.000861792
28 *1103:DIODE *422:78 2.72887e-05
29 *1103:DIODE *433:78 3.69697e-05
30 *309:7 *11542:WLBI 2.3643e-05
31 *309:7 *11542:TM 1.24368e-05
32 *309:7 *11542:DI[17] 6.47493e-05
33 *309:7 *422:91 1.33343e-05
34 *309:19 *11542:DI[17] 2.01466e-05
35 *309:19 *316:19 2.06178e-05
36 *309:19 *318:13 1.90936e-05
37 *309:19 *630:96 0.00031602
38 *309:23 *315:25 0.00292877
39 *309:23 *325:26 0.0190997
40 *309:23 *326:21 0.013026
41 *309:25 *326:23 0.029613
42 *309:29 *326:27 0.00136418
43 *309:29 *327:25 0.0051707
44 *309:94 *323:33 7.07155e-06
45 *309:116 *11542:BEN[16] 0
46 *309:116 *11542:WLBI 0.000266497
47 *309:116 *11542:TM 0.000122591
48 *309:116 *11542:DI[17] 0.000117014
49 *309:116 *313:27 0.000146038
50 *309:116 *319:29 0.000147685
51 *11273:A1 *309:59 0.000125355
52 *11273:S *309:57 0.000267281
53 *11273:S *309:59 0.000135028
54 *11542:CLKin *309:19 0.000317959
55 *113:10 *309:55 0
56 *204:10 *309:29 0
57 *204:10 *309:55 0.000203129
58 *225:26 *309:29 0.000347102
59 *226:26 *309:29 0.000332699
*RES
1 *11542:DO[17] *309:7 1.78571 
2 *309:7 *309:19 12.5408 
3 *309:19 *309:23 42.7678 
4 *309:23 *309:25 48.3677 
5 *309:25 *309:27 3.41 
6 *309:27 *309:29 65.5446 
7 *309:29 *309:33 8.32143 
8 *309:33 *309:35 3.41071 
9 *309:35 *1099:DIODE 11.0679 
10 *309:35 *1105:DIODE 9.3 
11 *309:33 *309:55 13.3214 
12 *309:55 *309:57 3.41071 
13 *309:57 *309:59 7.10714 
14 *309:59 *309:61 1.76786 
15 *309:61 *309:63 1.76786 
16 *309:63 *1109:DIODE 11.0679 
17 *309:63 *1108:DIODE 9.3 
18 *309:61 *1106:DIODE 9.3 
19 *309:59 *1104:DIODE 9.3 
20 *309:57 *11273:A0 9.3 
21 *309:55 *309:94 3.82143 
22 *309:94 *1101:DIODE 10.6571 
23 *309:94 *1107:DIODE 9.3 
24 *309:7 *309:116 21.875 
25 *309:116 *1102:DIODE 9.3 
26 *309:116 *1103:DIODE 22.05 
*END

*D_NET *310 0.134862
*CONN
*I *1114:DIODE I *D sky130_fd_sc_hd__diode_2
*I *1113:DIODE I *D sky130_fd_sc_hd__diode_2
*I *11276:A0 I *D sky130_fd_sc_hd__mux2_2
*I *1110:DIODE I *D sky130_fd_sc_hd__diode_2
*I *1112:DIODE I *D sky130_fd_sc_hd__diode_2
*I *11542:DO[18] O *D CF_SRAM_1024x32
*CAP
1 *1114:DIODE 0.000159894
2 *1113:DIODE 0
3 *11276:A0 2.52491e-05
4 *1110:DIODE 0
5 *1112:DIODE 0.000113449
6 *11542:DO[18] 0.000132637
7 *310:52 0.000700376
8 *310:31 0.000578819
9 *310:29 0.00184975
10 *310:23 0.00680626
11 *310:21 0.01006
12 *310:17 0.00559279
13 *310:7 0.00165302
14 *310:7 *11542:BEN[17] 0
15 *310:7 *11542:DI[18] 4.87854e-05
16 *310:7 *427:68 5.96516e-05
17 *310:17 *313:27 1.94879e-05
18 *310:17 *319:29 1.94879e-05
19 *310:17 *427:84 0.00215221
20 *310:21 *317:19 0.0182272
21 *310:21 *321:28 0.00102073
22 *310:23 *312:23 0.000328844
23 *310:52 *11542:BEN[17] 0
24 *310:52 *427:68 0.000414742
25 *1097:DIODE *310:31 0.000178425
26 *11276:A1 *310:31 0.000265981
27 *141:53 *1112:DIODE 8.93791e-05
28 *141:53 *310:31 7.34839e-05
29 *277:40 *310:29 0.000564717
30 *291:22 *310:29 0.000564868
31 *295:28 *310:29 0.000917593
32 *301:21 *310:23 0.0296561
33 *302:50 *310:23 9.29556e-05
34 *304:51 *310:23 0.00253803
35 *308:21 *310:21 0.0196931
36 *308:23 *310:23 0.0296115
37 *308:54 *11276:A0 4.36666e-05
38 *308:54 *310:31 0.000432847
39 *308:56 *310:31 0.000175892
*RES
1 *11542:DO[18] *310:7 2.39286 
2 *310:7 *310:17 15.2111 
3 *310:17 *310:21 47.3487 
4 *310:21 *310:23 47.7191 
5 *310:23 *310:29 45.5261 
6 *310:29 *310:31 9.16071 
7 *310:31 *1112:DIODE 11.0679 
8 *310:31 *1110:DIODE 9.3 
9 *310:29 *11276:A0 9.83571 
10 *310:7 *310:52 9.57143 
11 *310:52 *1113:DIODE 9.3 
12 *310:52 *1114:DIODE 11.0679 
*END

*D_NET *311 0.0749515
*CONN
*I *1116:DIODE I *D sky130_fd_sc_hd__diode_2
*I *1115:DIODE I *D sky130_fd_sc_hd__diode_2
*I *11281:A0 I *D sky130_fd_sc_hd__mux2_4
*I *11542:DO[19] O *D CF_SRAM_1024x32
*CAP
1 *1116:DIODE 0.00057453
2 *1115:DIODE 0
3 *11281:A0 0.000317483
4 *11542:DO[19] 0.000301179
5 *311:19 0.00159519
6 *311:15 0.00673385
7 *311:13 0.00545614
8 *311:11 0.00970583
9 *311:9 0.0105815
10 *1116:DIODE *319:27 2.95451e-05
11 *1116:DIODE *398:54 0
12 *1116:DIODE *398:58 0.000218332
13 *311:9 *11542:BEN[18] 0
14 *311:9 *11542:DI[19] 0
15 *311:9 *398:58 0
16 *311:11 *313:27 0.000298287
17 *311:11 *313:35 0.000321892
18 *311:11 *319:27 0.000180475
19 *311:11 *319:29 0
20 *311:11 *319:41 0.000324275
21 *311:11 *327:9 0
22 *311:11 *331:49 0
23 *311:11 *332:11 0.00292575
24 *311:11 *361:10 0
25 *311:11 *398:54 0
26 *311:11 *422:100 0.000253468
27 *311:11 *565:10 0
28 *1005:DIODE *11281:A0 0.00123671
29 *11281:S *11281:A0 0.0012786
30 *3:35 *11281:A0 0.000270003
31 *281:30 *11281:A0 7.17696e-05
32 *281:30 *311:19 0.000722043
33 *285:26 *311:15 0.00623992
34 *290:29 *311:15 0.0014987
35 *292:37 *11281:A0 2.44318e-05
36 *304:47 *311:11 0.000247759
37 *305:13 *311:11 0.00292005
38 *305:15 *311:15 0.0206238
*RES
1 *11542:DO[19] *311:9 9.35714 
2 *311:9 *311:11 223.25 
3 *311:11 *311:13 4.5 
4 *311:13 *311:15 197.679 
5 *311:15 *311:19 31.3393 
6 *311:19 *11281:A0 28.9964 
7 *311:19 *1115:DIODE 13.8 
8 *311:9 *1116:DIODE 23.4786 
*END

*D_NET *312 0.103407
*CONN
*I *1118:DIODE I *D sky130_fd_sc_hd__diode_2
*I *1117:DIODE I *D sky130_fd_sc_hd__diode_2
*I *11220:A0 I *D sky130_fd_sc_hd__mux2_2
*I *11542:DO[1] O *D CF_SRAM_1024x32
*CAP
1 *1118:DIODE 0.000728291
2 *1117:DIODE 0.000222612
3 *11220:A0 0
4 *11542:DO[1] 5.43477e-05
5 *312:29 0.000303688
6 *312:25 0.00155578
7 *312:23 0.00978044
8 *312:19 0.0116125
9 *312:15 0.00552127
10 *312:5 0.00299711
11 *1118:DIODE *11542:BEN[0] 0
12 *1118:DIODE *11542:DI[1] 0
13 *312:5 *11542:BEN[0] 0
14 *312:5 *11542:DI[1] 0
15 *312:15 *318:13 9.09691e-05
16 *312:15 *319:29 4.80672e-05
17 *312:19 *316:29 0.015162
18 *312:19 *320:22 0.0150678
19 *312:23 *325:36 0
20 *312:23 *330:25 0.00416905
21 *312:25 *328:27 0.00412418
22 *11220:A1 *312:29 5.49544e-05
23 *11220:S *312:29 7.20217e-06
24 *124:8 *1117:DIODE 1.07719e-05
25 *167:74 *312:23 0.00012751
26 *176:83 *312:23 0.00122151
27 *295:28 *312:25 0.0020718
28 *308:23 *312:23 0.0281465
29 *310:23 *312:23 0.000328844
*RES
1 *11542:DO[1] *312:5 0.883929 
2 *312:5 *312:15 18.176 
3 *312:15 *312:19 36.3758 
4 *312:19 *312:23 49.1833 
5 *312:23 *312:25 53.4018 
6 *312:25 *312:29 5.85714 
7 *312:29 *11220:A0 9.3 
8 *312:29 *1117:DIODE 12.3 
9 *312:5 *1118:DIODE 20.2643 
*END

*D_NET *313 0.0797518
*CONN
*I *1120:DIODE I *D sky130_fd_sc_hd__diode_2
*I *1119:DIODE I *D sky130_fd_sc_hd__diode_2
*I *11286:A0 I *D sky130_fd_sc_hd__mux2_4
*I *11542:DO[20] O *D CF_SRAM_1024x32
*CAP
1 *1120:DIODE 0.00044078
2 *1119:DIODE 0
3 *11286:A0 0.000545394
4 *11542:DO[20] 5.65119e-05
5 *313:47 0.00871373
6 *313:39 0.0156609
7 *313:35 0.0116416
8 *313:27 0.00503295
9 *313:5 0.00138122
10 *1120:DIODE *400:54 0.00108123
11 *313:5 *11542:DI[20] 6.88252e-05
12 *313:5 *400:54 2.21586e-05
13 *313:27 *316:17 0.00143643
14 *313:27 *318:13 0.000800195
15 *313:27 *319:27 9.48185e-05
16 *313:27 *319:29 0.000652686
17 *313:27 *422:100 0.000206152
18 *313:27 *427:68 4.00679e-05
19 *313:35 *319:29 0.00101804
20 *313:35 *418:95 0
21 *313:35 *422:100 2.38581e-05
22 *313:39 *324:22 0.0186991
23 *313:47 *11299:A0 0.000128759
24 *313:47 *11302:A0 0.000225341
25 *313:47 *314:29 0.00104548
26 *313:47 *324:30 0.00202349
27 *313:47 *330:25 0.00103072
28 *1023:DIODE *313:47 0.000133967
29 *3:35 *11286:A0 0.000119216
30 *3:35 *313:47 0.000719603
31 *113:68 *313:47 0.000136807
32 *166:28 *11286:A0 0.00108903
33 *166:102 *313:47 0.000160191
34 *166:114 *313:47 0.000209244
35 *171:67 *313:47 2.41253e-05
36 *174:67 *313:47 0.000539777
37 *178:43 *313:47 0.000204584
38 *180:60 *313:47 0.000529344
39 *182:79 *313:47 0.00146151
40 *184:36 *313:47 0.000358079
41 *284:31 *313:47 0.000159553
42 *284:45 *313:47 0.000144856
43 *292:39 *11286:A0 9.59269e-05
44 *306:22 *313:47 0.00067418
45 *306:30 *313:47 0.000104613
46 *306:36 *313:47 3.09814e-05
47 *308:17 *313:35 0
48 *309:116 *313:27 0.000146038
49 *310:17 *313:27 1.94879e-05
50 *311:11 *313:27 0.000298287
51 *311:11 *313:35 0.000321892
*RES
1 *11542:DO[20] *313:5 1.29464 
2 *313:5 *313:27 47.6607 
3 *313:27 *313:35 29.9394 
4 *313:35 *313:39 41.9155 
5 *313:39 *313:47 28.5512 
6 *313:47 *11286:A0 22.0679 
7 *313:47 *1119:DIODE 9.3 
8 *313:5 *1120:DIODE 19.9339 
*END

*D_NET *314 0.0747459
*CONN
*I *1123:DIODE I *D sky130_fd_sc_hd__diode_2
*I *1121:DIODE I *D sky130_fd_sc_hd__diode_2
*I *11290:A0 I *D sky130_fd_sc_hd__mux2_4
*I *11542:DO[21] O *D CF_SRAM_1024x32
*CAP
1 *1123:DIODE 0.000454347
2 *1121:DIODE 0
3 *11290:A0 0.000197127
4 *11542:DO[21] 4.45182e-05
5 *314:29 0.00607714
6 *314:19 0.0163222
7 *314:17 0.0134998
8 *314:7 0.00355656
9 *1123:DIODE *11542:DI[21] 0.00112209
10 *314:7 *11542:DI[21] 9.90367e-05
11 *314:17 *318:11 0.000342026
12 *314:17 *400:72 0
13 *314:17 *402:78 0
14 *314:19 *315:29 0.0165836
15 *314:19 *330:21 0.000116562
16 *314:29 *315:35 0.000265096
17 *314:29 *316:35 0.00989281
18 *314:29 *325:36 0
19 *314:29 *330:25 0
20 *1016:DIODE *11290:A0 0.000185124
21 *1027:DIODE *314:29 0.000128575
22 *113:36 *11290:A0 0.000635364
23 *113:36 *314:29 0.000165025
24 *166:127 *314:29 0.000119237
25 *174:29 *11290:A0 0.00017796
26 *174:36 *11290:A0 0.000105163
27 *174:43 *11290:A0 0.000105163
28 *174:50 *11290:A0 0.00010363
29 *174:57 *11290:A0 7.17136e-05
30 *174:67 *314:29 0.00238712
31 *182:79 *314:29 0.000381095
32 *186:8 *314:29 0.000562338
33 *313:47 *314:29 0.00104548
*RES
1 *11542:DO[21] *314:7 1.10714 
2 *314:7 *314:17 23.5536 
3 *314:17 *314:19 46.6021 
4 *314:19 *314:29 31.6423 
5 *314:29 *11290:A0 20.1036 
6 *314:29 *1121:DIODE 9.3 
7 *314:7 *1123:DIODE 20.1036 
*END

*D_NET *315 0.0805852
*CONN
*I *1125:DIODE I *D sky130_fd_sc_hd__diode_2
*I *1124:DIODE I *D sky130_fd_sc_hd__diode_2
*I *11293:A0 I *D sky130_fd_sc_hd__mux2_4
*I *11542:DO[22] O *D CF_SRAM_1024x32
*CAP
1 *1125:DIODE 0.000644131
2 *1124:DIODE 0.000206414
3 *11293:A0 0.000915845
4 *11542:DO[22] 0.000243744
5 *315:35 0.00576276
6 *315:29 0.00902872
7 *315:25 0.0111949
8 *315:9 0.00769458
9 *1125:DIODE *11542:DI[22] 0.000129375
10 *1125:DIODE *316:17 9.64696e-05
11 *315:9 *11542:BEN[21] 0
12 *315:9 *11542:DI[22] 0
13 *315:25 *11542:DI[22] 1.94879e-05
14 *315:25 *316:17 1.94879e-05
15 *315:25 *318:13 0.000912805
16 *315:25 *325:26 0.00214768
17 *315:25 *405:50 7.96738e-05
18 *315:29 *330:21 0.0100764
19 *315:35 *316:35 0.000849071
20 *315:35 *318:31 0.00662662
21 *315:35 *319:51 9.51343e-06
22 *315:35 *321:38 0.00309065
23 *315:35 *326:23 0
24 *1016:DIODE *1124:DIODE 0
25 *1016:DIODE *315:35 0
26 *11280:A *315:35 0.000190395
27 *11293:A1 *11293:A0 8.29108e-05
28 *113:57 *1124:DIODE 0
29 *113:57 *315:35 0
30 *166:10 *315:35 0
31 *174:67 *11293:A0 0.000181932
32 *176:50 *11293:A0 2.16015e-05
33 *284:45 *11293:A0 0.000483207
34 *284:52 *11293:A0 9.93135e-05
35 *309:23 *315:25 0.00292877
36 *314:19 *315:29 0.0165836
37 *314:29 *315:35 0.000265096
*RES
1 *11542:DO[22] *315:9 8.58929 
2 *315:9 *315:25 36.1556 
3 *315:25 *315:29 37.5477 
4 *315:29 *315:35 26.0288 
5 *315:35 *11293:A0 27.2732 
6 *315:35 *1124:DIODE 16.5054 
7 *315:9 *1125:DIODE 24.7107 
*END

*D_NET *316 0.0884036
*CONN
*I *1127:DIODE I *D sky130_fd_sc_hd__diode_2
*I *1126:DIODE I *D sky130_fd_sc_hd__diode_2
*I *11296:A0 I *D sky130_fd_sc_hd__mux2_4
*I *11542:DO[23] O *D CF_SRAM_1024x32
*CAP
1 *1127:DIODE 0.000379093
2 *1126:DIODE 0
3 *11296:A0 0.00116647
4 *11542:DO[23] 0.000100338
5 *316:35 0.00445777
6 *316:29 0.00916011
7 *316:19 0.00711497
8 *316:17 0.0021591
9 *316:13 0.00126408
10 *316:7 0.000830566
11 *1127:DIODE *407:50 0.00100245
12 *11296:A0 *11299:A0 2.28499e-05
13 *316:7 *11542:DI[23] 9.80173e-05
14 *316:7 *407:50 0.00012615
15 *316:13 *318:11 0.000324917
16 *316:17 *11542:DI[22] 0.000124079
17 *316:17 *318:11 0.00146564
18 *316:17 *318:13 8.73783e-05
19 *316:17 *319:27 0.00230742
20 *316:17 *400:72 7.69776e-06
21 *316:17 *402:76 1.94945e-05
22 *316:19 *11542:TM 0.000182421
23 *316:19 *318:13 0.00195254
24 *316:19 *319:27 1.83086e-05
25 *316:19 *319:29 0.00433298
26 *316:19 *418:93 1.94879e-05
27 *316:19 *427:82 0.000112786
28 *316:29 *319:51 0.0117495
29 *316:29 *320:22 0.000325345
30 *316:35 *1132:DIODE 0.000162575
31 *316:35 *319:51 0.00808949
32 *316:35 *325:36 0
33 *1017:DIODE *11296:A0 0.000362453
34 *1125:DIODE *316:17 9.64696e-05
35 *1221:DIODE *11296:A0 0
36 *11542:CLKin *316:19 0.000117982
37 *11542:R_WB *316:19 0.000303119
38 *166:87 *11296:A0 0.000401639
39 *174:67 *11296:A0 0.000101825
40 *186:8 *316:35 0.000197451
41 *284:45 *11296:A0 0
42 *284:52 *11296:A0 1.55885e-05
43 *285:30 *11296:A0 7.24849e-05
44 *285:30 *316:35 7.05143e-06
45 *285:43 *11296:A0 9.90431e-05
46 *301:17 *316:19 4.25029e-05
47 *301:17 *316:29 0
48 *308:17 *316:19 4.15161e-05
49 *309:19 *316:19 2.06178e-05
50 *312:19 *316:29 0.015162
51 *313:27 *316:17 0.00143643
52 *314:29 *316:35 0.00989281
53 *315:25 *316:17 1.94879e-05
54 *315:35 *316:35 0.000849071
*RES
1 *11542:DO[23] *316:7 2.30357 
2 *316:7 *316:13 13.0982 
3 *316:13 *316:17 40.5357 
4 *316:17 *316:19 55.9821 
5 *316:19 *316:29 48.2953 
6 *316:29 *316:35 21.8586 
7 *316:35 *11296:A0 30.5679 
8 *316:35 *1126:DIODE 13.8 
9 *316:7 *1127:DIODE 18.8714 
*END

*D_NET *317 0.087273
*CONN
*I *1129:DIODE I *D sky130_fd_sc_hd__diode_2
*I *1128:DIODE I *D sky130_fd_sc_hd__diode_2
*I *11299:A0 I *D sky130_fd_sc_hd__mux2_4
*I *11542:DO[24] O *D CF_SRAM_1024x32
*CAP
1 *1129:DIODE 0.000503537
2 *1128:DIODE 0
3 *11299:A0 0.0003367
4 *11542:DO[24] 5.54268e-05
5 *317:31 0.000581287
6 *317:29 0.00467404
7 *317:19 0.00955343
8 *317:17 0.00639724
9 *317:7 0.00183222
10 *1129:DIODE *409:50 0.000305389
11 *317:7 *11542:DI[24] 4.0342e-06
12 *317:7 *409:50 1.82549e-05
13 *317:17 *318:11 0.0001434
14 *317:17 *319:15 0.0001434
15 *317:17 *409:70 0
16 *317:19 *321:28 0.0230832
17 *317:29 *322:32 0.00712985
18 *1021:DIODE *11299:A0 3.17148e-05
19 *11296:A0 *11299:A0 2.28499e-05
20 *166:87 *11299:A0 8.07313e-05
21 *166:102 *11299:A0 0.000116588
22 *180:6 *11299:A0 0.000185118
23 *180:13 *11299:A0 0.000175892
24 *180:20 *11299:A0 0.000186669
25 *180:27 *11299:A0 0.000188586
26 *180:34 *11299:A0 0.000188586
27 *180:41 *11299:A0 0.000188586
28 *180:50 *11299:A0 5.71472e-05
29 *180:163 *11299:A0 0
30 *180:163 *317:31 0
31 *285:43 *11299:A0 0.00139171
32 *286:30 *317:29 0
33 *303:33 *317:29 0.0113414
34 *310:21 *317:19 0.0182272
35 *313:47 *11299:A0 0.000128759
*RES
1 *11542:DO[24] *317:7 1.09226 
2 *317:7 *317:17 16.6569 
3 *317:17 *317:19 47.4543 
4 *317:19 *317:29 48.472 
5 *317:29 *317:31 4.25893 
6 *317:31 *11299:A0 29.1214 
7 *317:31 *1128:DIODE 13.8 
8 *317:7 *1129:DIODE 20.1036 
*END

*D_NET *318 0.0760694
*CONN
*I *1131:DIODE I *D sky130_fd_sc_hd__diode_2
*I *1130:DIODE I *D sky130_fd_sc_hd__diode_2
*I *11302:A0 I *D sky130_fd_sc_hd__mux2_4
*I *11542:DO[25] O *D CF_SRAM_1024x32
*CAP
1 *1131:DIODE 0.000409807
2 *1130:DIODE 0
3 *11302:A0 0.000537281
4 *11542:DO[25] 6.43951e-05
5 *318:31 0.00352881
6 *318:25 0.0100344
7 *318:13 0.0134604
8 *318:11 0.00780659
9 *318:7 0.00138902
10 *318:5 0.000474202
11 *1131:DIODE *411:58 0.00108923
12 *1131:DIODE *629:203 0
13 *11302:A0 *11305:A0 8.5552e-05
14 *318:5 *11542:BEN[24] 0
15 *318:5 *11542:DI[25] 8.63445e-05
16 *318:5 *411:58 2.78278e-05
17 *318:11 *319:15 0.0010127
18 *318:11 *319:23 0.000881492
19 *318:11 *407:64 4.38265e-05
20 *318:11 *409:68 0.000118508
21 *318:11 *629:189 1.94945e-05
22 *318:13 *11542:TM 0.000181645
23 *318:13 *319:29 0.000242727
24 *318:13 *319:41 0.000954764
25 *318:13 *323:13 0.000240553
26 *318:13 *326:21 0.000484128
27 *318:13 *327:9 0.000984054
28 *318:13 *328:21 9.30878e-05
29 *318:13 *400:72 1.90936e-05
30 *318:13 *418:93 1.94879e-05
31 *318:13 *427:82 0.000112786
32 *318:25 *11542:BEN[6] 0
33 *318:25 *330:21 0
34 *318:31 *319:51 0.00111989
35 *318:31 *320:30 0.00590209
36 *318:31 *321:38 0.00139781
37 *318:31 *326:23 0
38 *1023:DIODE *11302:A0 0.000797858
39 *11542:CLKin *318:13 0.000117982
40 *11542:R_WB *318:13 0.000303119
41 *166:114 *11302:A0 0
42 *182:6 *11302:A0 0.000188586
43 *182:13 *11302:A0 0.000188586
44 *182:20 *11302:A0 0.000188586
45 *182:27 *11302:A0 0.000188586
46 *182:34 *11302:A0 0.000188586
47 *182:41 *11302:A0 0.000184522
48 *182:48 *11302:A0 9.99853e-05
49 *301:17 *318:13 4.25029e-05
50 *302:48 *318:25 0.00753792
51 *306:22 *11302:A0 0.000188117
52 *308:17 *318:13 4.15161e-05
53 *308:21 *318:25 0
54 *309:19 *318:13 1.90936e-05
55 *312:15 *318:13 9.09691e-05
56 *313:27 *318:13 0.000800195
57 *313:47 *11302:A0 0.000225341
58 *314:17 *318:11 0.000342026
59 *315:25 *318:13 0.000912805
60 *315:35 *318:31 0.00662662
61 *316:13 *318:11 0.000324917
62 *316:17 *318:11 0.00146564
63 *316:17 *318:13 8.73783e-05
64 *316:19 *318:13 0.00195254
65 *317:17 *318:11 0.0001434
*RES
1 *11542:DO[25] *318:5 1.29464 
2 *318:5 *318:7 4.5 
3 *318:7 *318:11 46.8929 
4 *318:11 *318:13 135.661 
5 *318:13 *318:25 35.1853 
6 *318:25 *318:31 19.5524 
7 *318:31 *11302:A0 32.2643 
8 *318:31 *1130:DIODE 13.8 
9 *318:5 *1131:DIODE 19.8446 
*END

*D_NET *319 0.076682
*CONN
*I *1134:DIODE I *D sky130_fd_sc_hd__diode_2
*I *1132:DIODE I *D sky130_fd_sc_hd__diode_2
*I *11305:A0 I *D sky130_fd_sc_hd__mux2_4
*I *11542:DO[26] O *D CF_SRAM_1024x32
*CAP
1 *1134:DIODE 0.00041077
2 *1132:DIODE 0.000589762
3 *11305:A0 7.5394e-05
4 *11542:DO[26] 4.70419e-05
5 *319:51 0.00727259
6 *319:41 0.0100658
7 *319:29 0.00548768
8 *319:27 0.00301541
9 *319:23 0.00151116
10 *319:15 0.00237232
11 *319:5 0.00230508
12 *1134:DIODE *11542:BEN[25] 0
13 *1134:DIODE *11542:DI[26] 0.0010867
14 *319:5 *11542:BEN[25] 0
15 *319:5 *11542:DI[26] 0.000121929
16 *319:15 *320:20 4.20599e-05
17 *319:15 *321:26 3.16801e-05
18 *319:15 *407:64 4.38265e-05
19 *319:15 *409:68 0.000118508
20 *319:15 *411:72 1.90936e-05
21 *319:15 *629:189 1.94945e-05
22 *319:23 *11542:DI[21] 0.000136951
23 *319:23 *402:76 2.72887e-05
24 *319:27 *398:72 1.94879e-05
25 *319:41 *323:13 0.000240553
26 *319:41 *326:21 1.94945e-05
27 *319:41 *327:9 0.000457138
28 *319:41 *328:21 0.000860826
29 *319:51 *320:30 0.00606607
30 *319:51 *325:36 0
31 *1027:DIODE *1132:DIODE 2.12005e-05
32 *1116:DIODE *319:27 2.95451e-05
33 *11302:A0 *11305:A0 8.5552e-05
34 *287:45 *1132:DIODE 0.000571299
35 *309:116 *319:29 0.000147685
36 *310:17 *319:29 1.94879e-05
37 *311:11 *319:27 0.000180475
38 *311:11 *319:29 0
39 *311:11 *319:41 0.000324275
40 *312:15 *319:29 4.80672e-05
41 *313:27 *319:27 9.48185e-05
42 *313:27 *319:29 0.000652686
43 *313:35 *319:29 0.00101804
44 *315:35 *319:51 9.51343e-06
45 *316:17 *319:27 0.00230742
46 *316:19 *319:27 1.83086e-05
47 *316:19 *319:29 0.00433298
48 *316:29 *319:51 0.0117495
49 *316:35 *1132:DIODE 0.000162575
50 *316:35 *319:51 0.00808949
51 *317:17 *319:15 0.0001434
52 *318:11 *319:15 0.0010127
53 *318:11 *319:23 0.000881492
54 *318:13 *319:29 0.000242727
55 *318:13 *319:41 0.000954764
56 *318:31 *319:51 0.00111989
*RES
1 *11542:DO[26] *319:5 1.29464 
2 *319:5 *319:15 43.3036 
3 *319:15 *319:23 21.3661 
4 *319:23 *319:27 30.2589 
5 *319:27 *319:29 64.375 
6 *319:29 *319:41 47.9172 
7 *319:41 *319:51 47.5151 
8 *319:51 *11305:A0 14.9875 
9 *319:51 *1132:DIODE 22.1393 
10 *319:5 *1134:DIODE 19.8268 
*END

*D_NET *320 0.0669684
*CONN
*I *1136:DIODE I *D sky130_fd_sc_hd__diode_2
*I *1135:DIODE I *D sky130_fd_sc_hd__diode_2
*I *11308:A0 I *D sky130_fd_sc_hd__mux2_4
*I *11542:DO[27] O *D CF_SRAM_1024x32
*CAP
1 *1136:DIODE 0.000462387
2 *1135:DIODE 0
3 *11308:A0 0.000239807
4 *11542:DO[27] 9.25388e-05
5 *320:30 0.00175957
6 *320:22 0.0148388
7 *320:20 0.0153536
8 *320:10 0.00258954
9 *320:4 0
10 *1136:DIODE *11542:DI[27] 5.06736e-05
11 *1136:DIODE *416:82 0.000488341
12 *320:10 *11542:DI[27] 9.0435e-05
13 *320:20 *11542:BEN[27] 0.000315594
14 *320:20 *321:26 0.00251206
15 *320:20 *413:72 8.23597e-06
16 *320:20 *413:74 0.000251851
17 *11311:S *11308:A0 0.000318199
18 *166:127 *11308:A0 7.8195e-05
19 *186:6 *11308:A0 1.00733e-05
20 *186:8 *11308:A0 0.000105163
21 *312:19 *320:22 0.0150678
22 *316:29 *320:22 0.000325345
23 *318:31 *320:30 0.00590209
24 *319:15 *320:20 4.20599e-05
25 *319:51 *320:30 0.00606607
*RES
1 *11542:DO[27] *320:4 0.21875 
2 *11542:DO[27] *320:10 1.76786 
3 *320:10 *320:20 27.6071 
4 *320:20 *320:22 55.4443 
5 *320:22 *320:30 17.3718 
6 *320:30 *11308:A0 20.1393 
7 *320:30 *1135:DIODE 13.8 
8 *320:10 *1136:DIODE 19.2821 
*END

*D_NET *321 0.067374
*CONN
*I *1138:DIODE I *D sky130_fd_sc_hd__diode_2
*I *1137:DIODE I *D sky130_fd_sc_hd__diode_2
*I *11311:A0 I *D sky130_fd_sc_hd__mux2_4
*I *11542:DO[28] O *D CF_SRAM_1024x32
*CAP
1 *1138:DIODE 0.000516495
2 *1137:DIODE 0
3 *11311:A0 0.00022609
4 *11542:DO[28] 4.2982e-05
5 *321:38 0.00243575
6 *321:28 0.0140532
7 *321:26 0.0134389
8 *321:10 0.00215481
9 *321:4 0
10 *1138:DIODE *11542:DI[28] 0.000502166
11 *321:10 *11542:DI[28] 5.06672e-05
12 *321:26 *11542:BEN[27] 0.000646686
13 *321:26 *413:72 1.94945e-05
14 *321:26 *413:74 0.000626333
15 *321:38 *326:23 0.000983312
16 *11311:A1 *11311:A0 5.65955e-05
17 *11311:S *11311:A0 4.78308e-05
18 *186:8 *11311:A0 0.000436524
19 *310:21 *321:28 0.00102073
20 *315:35 *321:38 0.00309065
21 *317:19 *321:28 0.0230832
22 *318:31 *321:38 0.00139781
23 *319:15 *321:26 3.16801e-05
24 *320:20 *321:26 0.00251206
*RES
1 *11542:DO[28] *321:4 0.175 
2 *11542:DO[28] *321:10 0.946429 
3 *321:10 *321:26 35.6046 
4 *321:26 *321:28 55.2313 
5 *321:28 *321:38 23.1167 
6 *321:38 *11311:A0 15.6393 
7 *321:38 *1137:DIODE 9.3 
8 *321:10 *1138:DIODE 20.1036 
*END

*D_NET *322 0.0734149
*CONN
*I *1139:DIODE I *D sky130_fd_sc_hd__diode_2
*I *11314:A0 I *D sky130_fd_sc_hd__mux2_4
*I *1140:DIODE I *D sky130_fd_sc_hd__diode_2
*I *11542:DO[29] O *D CF_SRAM_1024x32
*CAP
1 *1139:DIODE 0
2 *11314:A0 0.000243986
3 *1140:DIODE 0.000448791
4 *11542:DO[29] 3.22793e-05
5 *322:34 0.00237738
6 *322:32 0.00584227
7 *322:26 0.0136764
8 *322:24 0.0102685
9 *322:5 0.000782001
10 *1140:DIODE *11542:DI[29] 0.000612358
11 *322:5 *11542:DI[29] 5.39657e-05
12 *322:24 *324:20 0
13 *322:24 *433:82 9.51739e-05
14 *322:26 *325:26 0.0271895
15 *322:26 *328:21 0.000623642
16 *322:32 *11542:vpwrpc 0
17 *322:32 *11542:vpwrac 0
18 *113:68 *11314:A0 0.00095689
19 *289:33 *322:34 0
20 *292:39 *11314:A0 0.000515569
21 *301:17 *322:26 0
22 *303:31 *322:26 0.00181505
23 *303:33 *322:32 0.000751233
24 *317:29 *322:32 0.00712985
*RES
1 *11542:DO[29] *322:5 0.883929 
2 *322:5 *1140:DIODE 20.2732 
3 *322:5 *322:24 12.7487 
4 *322:24 *322:26 56.0835 
5 *322:26 *322:32 20.884 
6 *322:32 *322:34 31.2411 
7 *322:34 *11314:A0 23.6929 
8 *322:34 *1139:DIODE 13.8 
*END

*D_NET *323 0.0887351
*CONN
*I *1142:DIODE I *D sky130_fd_sc_hd__diode_2
*I *1147:DIODE I *D sky130_fd_sc_hd__diode_2
*I *1145:DIODE I *D sky130_fd_sc_hd__diode_2
*I *1141:DIODE I *D sky130_fd_sc_hd__diode_2
*I *11223:A0 I *D sky130_fd_sc_hd__mux2_2
*I *1143:DIODE I *D sky130_fd_sc_hd__diode_2
*I *1146:DIODE I *D sky130_fd_sc_hd__diode_2
*I *1148:DIODE I *D sky130_fd_sc_hd__diode_2
*I *1149:DIODE I *D sky130_fd_sc_hd__diode_2
*I *11542:DO[2] O *D CF_SRAM_1024x32
*CAP
1 *1142:DIODE 0.000728254
2 *1147:DIODE 0
3 *1145:DIODE 9.51738e-05
4 *1141:DIODE 0
5 *11223:A0 0
6 *1143:DIODE 0
7 *1146:DIODE 9.54845e-05
8 *1148:DIODE 5.27567e-05
9 *1149:DIODE 0.000118686
10 *11542:DO[2] 6.55534e-05
11 *323:99 0.000315341
12 *323:73 0.000513787
13 *323:71 0.000817216
14 *323:67 0.000608465
15 *323:43 0.000270056
16 *323:37 0.000356948
17 *323:35 0.00076915
18 *323:33 0.00121546
19 *323:19 0.00596841
20 *323:17 0.00525315
21 *323:15 0.0178909
22 *323:13 0.0179423
23 *323:7 0.000845186
24 *1142:DIODE *11542:BEN[1] 0
25 *1142:DIODE *11542:DI[2] 0
26 *1148:DIODE *327:60 2.51343e-06
27 *1149:DIODE *327:29 2.84109e-05
28 *1149:DIODE *327:31 6.05161e-06
29 *1149:DIODE *327:60 9.8958e-05
30 *323:7 *11542:BEN[1] 0
31 *323:7 *11542:DI[2] 0
32 *323:19 *332:19 0.00602502
33 *323:33 *329:35 2.17877e-05
34 *323:33 *363:66 0.000251592
35 *1035:DIODE *323:71 6.12335e-05
36 *1091:DIODE *323:33 6.05161e-06
37 *11223:A1 *323:71 8.70594e-05
38 *128:8 *323:71 5.49489e-05
39 *128:8 *323:73 0.000215474
40 *196:26 *323:35 0.000143652
41 *200:66 *1149:DIODE 0.000103428
42 *200:66 *323:33 0.000113887
43 *200:66 *323:35 0.00127467
44 *200:66 *323:37 0.000126439
45 *200:66 *323:43 0.000150297
46 *203:88 *323:73 0.000204032
47 *203:92 *1146:DIODE 0.00017754
48 *203:92 *323:73 0.000339346
49 *226:24 *323:33 5.61559e-05
50 *276:20 *323:19 0.0167757
51 *293:25 *323:19 0
52 *298:22 *323:19 0.00380938
53 *298:28 *1149:DIODE 5.54602e-05
54 *298:28 *323:35 0.000304765
55 *298:28 *323:37 4.06782e-05
56 *298:28 *323:43 8.98303e-05
57 *299:18 *323:33 0.00150789
58 *299:22 *1145:DIODE 0.000177815
59 *299:22 *323:99 0.000426133
60 *301:37 *323:33 0.00128385
61 *301:41 *323:35 8.87265e-05
62 *301:45 *323:35 0.000104236
63 *304:59 *323:33 0
64 *308:42 *323:33 2.59355e-05
65 *308:44 *323:33 8.55871e-05
66 *309:94 *323:33 7.07155e-06
67 *318:13 *323:13 0.000240553
68 *319:41 *323:13 0.000240553
*RES
1 *11542:DO[2] *323:7 1.08104 
2 *323:7 *323:13 10.9189 
3 *323:13 *323:15 50.3495 
4 *323:15 *323:17 3.41 
5 *323:17 *323:19 212.17 
6 *323:19 *323:33 41.8214 
7 *323:33 *323:35 16.5179 
8 *323:35 *323:37 1.64286 
9 *323:37 *323:43 3.21429 
10 *323:43 *1149:DIODE 16.8893 
11 *323:43 *1148:DIODE 14.3357 
12 *323:37 *323:67 6.67857 
13 *323:67 *323:71 6.5 
14 *323:71 *323:73 7.92857 
15 *323:73 *1146:DIODE 11.0679 
16 *323:73 *1143:DIODE 9.3 
17 *323:71 *11223:A0 9.3 
18 *323:67 *1141:DIODE 9.3 
19 *323:35 *323:99 8.73214 
20 *323:99 *1145:DIODE 11.0679 
21 *323:99 *1147:DIODE 9.3 
22 *323:7 *1142:DIODE 20.1036 
*END

*D_NET *324 0.0635768
*CONN
*I *1151:DIODE I *D sky130_fd_sc_hd__diode_2
*I *1150:DIODE I *D sky130_fd_sc_hd__diode_2
*I *11317:A0 I *D sky130_fd_sc_hd__mux2_4
*I *11542:DO[30] O *D CF_SRAM_1024x32
*CAP
1 *1151:DIODE 0.000473832
2 *1150:DIODE 0
3 *11317:A0 0.000220914
4 *11542:DO[30] 4.39316e-05
5 *324:30 0.000819938
6 *324:22 0.0153896
7 *324:20 0.0186129
8 *324:10 0.00433571
9 *324:4 4.32005e-06
10 *1151:DIODE *11542:DI[30] 2.59355e-05
11 *1151:DIODE *456:61 0.000521518
12 *324:4 *11542:DI[30] 7.43578e-06
13 *324:10 *11542:DI[30] 5.33334e-05
14 *324:20 *456:75 0.0001434
15 *324:20 *456:77 0
16 *324:30 *330:25 0.00055741
17 *1037:DIODE *11317:A0 0.000409791
18 *11317:A1 *11317:A0 5.71472e-05
19 *11317:S *11317:A0 0
20 *11320:S *11317:A0 0.00049098
21 *11320:S *324:30 0.000315009
22 *113:68 *11317:A0 4.88637e-05
23 *184:36 *11317:A0 9.54798e-06
24 *184:36 *324:30 2.06112e-05
25 *184:38 *324:30 0.00029213
26 *188:10 *11317:A0 0
27 *313:39 *324:22 0.0186991
28 *313:47 *324:30 0.00202349
29 *322:24 *324:20 0
*RES
1 *11542:DO[30] *324:4 0.125 
2 *11542:DO[30] *324:10 0.946429 
3 *324:10 *324:20 26.9299 
4 *324:20 *324:22 62.369 
5 *324:22 *324:30 10.2787 
6 *324:30 *11317:A0 21.7821 
7 *324:30 *1150:DIODE 13.8 
8 *324:10 *1151:DIODE 20.1036 
*END

*D_NET *325 0.077827
*CONN
*I *1152:DIODE I *D sky130_fd_sc_hd__diode_2
*I *11320:A0 I *D sky130_fd_sc_hd__mux2_4
*I *1153:DIODE I *D sky130_fd_sc_hd__diode_2
*I *11542:DO[31] O *D CF_SRAM_1024x32
*CAP
1 *1152:DIODE 0
2 *11320:A0 0.000264401
3 *1153:DIODE 0.000473939
4 *11542:DO[31] 3.26549e-05
5 *325:36 0.00351256
6 *325:26 0.0121141
7 *325:24 0.0091348
8 *325:5 0.000775448
9 *1153:DIODE *11542:BEN[31] 0
10 *1153:DIODE *11542:DI[31] 0.000310647
11 *1153:DIODE *465:50 8.37135e-05
12 *325:5 *11542:BEN[31] 0
13 *325:5 *11542:DI[31] 3.71173e-05
14 *325:24 *11542:BEN[31] 4.97708e-05
15 *325:26 *326:21 2.33124e-05
16 *325:26 *328:21 0
17 *325:36 *330:25 0.000578809
18 *11320:A1 *11320:A0 3.18676e-05
19 *11320:S *11320:A0 3.48705e-05
20 *184:38 *11320:A0 6.22419e-05
21 *184:38 *325:36 0.000796767
22 *194:8 *11320:A0 0.000186662
23 *194:10 *325:36 0.000874976
24 *301:17 *325:26 0
25 *301:21 *325:36 0
26 *303:31 *325:26 1.13306e-05
27 *308:23 *325:36 0
28 *309:23 *325:26 0.0190997
29 *312:23 *325:36 0
30 *314:29 *325:36 0
31 *315:25 *325:26 0.00214768
32 *316:35 *325:36 0
33 *319:51 *325:36 0
34 *322:26 *325:26 0.0271895
*RES
1 *11542:DO[31] *325:5 0.883929 
2 *325:5 *1153:DIODE 20.3089 
3 *325:5 *325:24 12.6403 
4 *325:24 *325:26 65.1389 
5 *325:26 *325:36 20.3278 
6 *325:36 *11320:A0 14.7821 
7 *325:36 *1152:DIODE 9.3 
*END

*D_NET *326 0.106984
*CONN
*I *1158:DIODE I *D sky130_fd_sc_hd__diode_2
*I *1157:DIODE I *D sky130_fd_sc_hd__diode_2
*I *1156:DIODE I *D sky130_fd_sc_hd__diode_2
*I *1154:DIODE I *D sky130_fd_sc_hd__diode_2
*I *11226:A0 I *D sky130_fd_sc_hd__mux2_2
*I *11542:DO[3] O *D CF_SRAM_1024x32
*CAP
1 *1158:DIODE 0.000136236
2 *1157:DIODE 0
3 *1156:DIODE 0
4 *1154:DIODE 0.000161034
5 *11226:A0 0.000109473
6 *11542:DO[3] 7.0668e-05
7 *326:74 0.000870785
8 *326:58 0.000967927
9 *326:35 0.0020527
10 *326:27 0.00363033
11 *326:25 0.00249399
12 *326:23 0.0132616
13 *326:21 0.019832
14 *326:7 0.00737559
15 *1154:DIODE *555:20 5.33005e-05
16 *326:7 *11542:DI[3] 0
17 *326:21 *329:23 0.00257663
18 *326:35 *331:71 4.33561e-05
19 *326:74 *11542:DI[3] 0
20 *1041:DIODE *11226:A0 0.000135028
21 *11215:S *326:35 0.000294061
22 *11241:A1 *326:58 1.24368e-05
23 *113:10 *326:27 0.00277246
24 *120:8 *326:35 0.000135028
25 *134:8 *11226:A0 9.91086e-05
26 *134:8 *326:35 0.000218734
27 *203:65 *326:35 0.000472064
28 *203:88 *11226:A0 0.000135028
29 *203:92 *11226:A0 9.58126e-05
30 *204:10 *326:27 0
31 *226:26 *326:27 0.00253229
32 *229:32 *11226:A0 0.000100823
33 *229:32 *326:35 0.000211198
34 *229:32 *326:58 0.000158207
35 *229:34 *326:58 0.000249421
36 *294:32 *11226:A0 8.17274e-05
37 *299:22 *326:58 2.42516e-05
38 *301:63 *326:35 7.10751e-05
39 *301:65 *326:35 3.63775e-05
40 *309:23 *326:21 0.013026
41 *309:25 *326:23 0.029613
42 *309:29 *326:27 0.00136418
43 *315:35 *326:23 0
44 *318:13 *326:21 0.000484128
45 *318:31 *326:23 0
46 *319:41 *326:21 1.94945e-05
47 *321:38 *326:23 0.000983312
48 *325:26 *326:21 2.33124e-05
*RES
1 *11542:DO[3] *326:7 1.08036 
2 *326:7 *326:21 42.378 
3 *326:21 *326:23 48.728 
4 *326:23 *326:25 3.41 
5 *326:25 *326:27 84.6696 
6 *326:27 *326:35 29.6429 
7 *326:35 *11226:A0 17.3179 
8 *326:35 *326:58 24.9464 
9 *326:58 *1154:DIODE 11.4964 
10 *326:58 *1156:DIODE 9.3 
11 *326:7 *326:74 10.8036 
12 *326:74 *1157:DIODE 9.3 
13 *326:74 *1158:DIODE 11.0679 
*END

*D_NET *327 0.0894105
*CONN
*I *1160:DIODE I *D sky130_fd_sc_hd__diode_2
*I *11229:A0 I *D sky130_fd_sc_hd__mux2_2
*I *1159:DIODE I *D sky130_fd_sc_hd__diode_2
*I *1161:DIODE I *D sky130_fd_sc_hd__diode_2
*I *1162:DIODE I *D sky130_fd_sc_hd__diode_2
*I *1164:DIODE I *D sky130_fd_sc_hd__diode_2
*I *1167:DIODE I *D sky130_fd_sc_hd__diode_2
*I *1163:DIODE I *D sky130_fd_sc_hd__diode_2
*I *1168:DIODE I *D sky130_fd_sc_hd__diode_2
*I *1165:DIODE I *D sky130_fd_sc_hd__diode_2
*I *11542:DO[4] O *D CF_SRAM_1024x32
*CAP
1 *1160:DIODE 0.000644287
2 *11229:A0 0
3 *1159:DIODE 0
4 *1161:DIODE 0
5 *1162:DIODE 0
6 *1164:DIODE 0
7 *1167:DIODE 0.000149754
8 *1163:DIODE 5.83675e-05
9 *1168:DIODE 0
10 *1165:DIODE 9.64854e-05
11 *11542:DO[4] 6.62035e-05
12 *327:68 0.000285493
13 *327:66 0.000279675
14 *327:64 0.000283049
15 *327:62 0.000320853
16 *327:60 0.00058833
17 *327:45 0.000464956
18 *327:31 0.000187976
19 *327:29 0.000557789
20 *327:25 0.00264595
21 *327:23 0.00217965
22 *327:21 0.0187256
23 *327:19 0.0187256
24 *327:17 0.00124747
25 *327:15 0.0013093
26 *327:9 0.00211856
27 *327:7 0.00205673
28 *327:5 0.000710491
29 *1160:DIODE *11542:DI[4] 0.000180196
30 *327:5 *11542:DI[4] 3.13013e-05
31 *327:9 *11542:BEN[6] 0.000165258
32 *327:9 *11542:BEN[7] 0.000265449
33 *327:9 *328:21 9.30878e-05
34 *327:9 *329:21 0.0011326
35 *327:9 *329:23 0.00204623
36 *327:9 *330:21 1.94945e-05
37 *327:9 *331:49 0.00329496
38 *327:17 *329:23 0.000286707
39 *327:17 *331:51 0.00386941
40 *327:17 *374:81 0.000138604
41 *327:21 *328:23 0.00504164
42 *327:25 *331:67 0.00728341
43 *1043:DIODE *327:60 0.000289001
44 *1043:DIODE *327:62 9.41642e-05
45 *1148:DIODE *327:60 2.51343e-06
46 *1149:DIODE *327:29 2.84109e-05
47 *1149:DIODE *327:31 6.05161e-06
48 *1149:DIODE *327:60 9.8958e-05
49 *11229:S *327:62 5.07619e-05
50 *120:10 *1163:DIODE 8.15939e-05
51 *120:10 *327:60 6.37408e-06
52 *130:8 *327:60 3.32631e-05
53 *200:66 *1163:DIODE 5.5782e-05
54 *200:66 *327:60 1.62461e-05
55 *223:24 *327:25 0.00111115
56 *225:26 *327:25 0.000616273
57 *295:32 *327:62 9.66977e-05
58 *298:28 *327:60 0.00012316
59 *298:30 *1165:DIODE 0.000175892
60 *298:30 *327:31 0.000136682
61 *302:48 *327:9 1.90936e-05
62 *303:31 *327:9 1.94879e-05
63 *304:47 *327:17 0.00218613
64 *309:29 *327:25 0.0051707
65 *311:11 *327:9 0
66 *318:13 *327:9 0.000984054
67 *319:41 *327:9 0.000457138
*RES
1 *11542:DO[4] *327:5 1.29464 
2 *327:5 *327:7 4.5 
3 *327:7 *327:9 81.3929 
4 *327:9 *327:15 10.0357 
5 *327:15 *327:17 55.375 
6 *327:17 *327:19 4.5 
7 *327:19 *327:21 278.179 
8 *327:21 *327:23 4.5 
9 *327:23 *327:25 100 
10 *327:25 *327:29 12.0179 
11 *327:29 *327:31 1.76786 
12 *327:31 *1165:DIODE 11.0679 
13 *327:31 *1168:DIODE 9.3 
14 *327:29 *327:45 4.5 
15 *327:45 *1163:DIODE 15.7464 
16 *327:45 *327:60 11.9107 
17 *327:60 *327:62 3.41071 
18 *327:62 *327:64 1.76786 
19 *327:64 *327:66 1.76786 
20 *327:66 *327:68 1.76786 
21 *327:68 *1167:DIODE 11.0679 
22 *327:68 *1164:DIODE 9.3 
23 *327:66 *1162:DIODE 9.3 
24 *327:64 *1161:DIODE 9.3 
25 *327:62 *1159:DIODE 9.3 
26 *327:60 *11229:A0 9.3 
27 *327:5 *1160:DIODE 19.9071 
*END

*D_NET *328 0.0990743
*CONN
*I *1170:DIODE I *D sky130_fd_sc_hd__diode_2
*I *1169:DIODE I *D sky130_fd_sc_hd__diode_2
*I *11232:A0 I *D sky130_fd_sc_hd__mux2_2
*I *11542:DO[5] O *D CF_SRAM_1024x32
*CAP
1 *1170:DIODE 0.000644528
2 *1169:DIODE 0
3 *11232:A0 0.000284913
4 *11542:DO[5] 5.82779e-05
5 *328:29 0.000284913
6 *328:27 0.00249026
7 *328:25 0.00249026
8 *328:23 0.0261852
9 *328:21 0.0296088
10 *328:7 0.00412642
11 *1170:DIODE *11542:DI[5] 0.000206745
12 *328:7 *11542:DI[5] 2.15245e-05
13 *149:24 *328:27 0.00044403
14 *203:36 *328:27 0.000256931
15 *223:22 *11232:A0 3.68347e-05
16 *269:28 *328:27 0.000573017
17 *278:18 *328:27 0.00467811
18 *291:22 *328:27 0
19 *294:32 *11232:A0 4.38942e-05
20 *295:28 *328:27 0.000233808
21 *301:17 *328:21 0.0108292
22 *303:31 *328:21 0.00474012
23 *312:25 *328:27 0.00412418
24 *318:13 *328:21 9.30878e-05
25 *319:41 *328:21 0.000860826
26 *322:26 *328:21 0.000623642
27 *325:26 *328:21 0
28 *327:9 *328:21 9.30878e-05
29 *327:21 *328:23 0.00504164
*RES
1 *11542:DO[5] *328:7 1.11607 
2 *328:7 *328:21 39.6102 
3 *328:21 *328:23 50.1694 
4 *328:23 *328:25 3.41 
5 *328:25 *328:27 84.6696 
6 *328:27 *328:29 4.5 
7 *328:29 *11232:A0 12.7286 
8 *328:29 *1169:DIODE 9.3 
9 *328:7 *1170:DIODE 20.1036 
*END

*D_NET *329 0.100596
*CONN
*I *1172:DIODE I *D sky130_fd_sc_hd__diode_2
*I *1178:DIODE I *D sky130_fd_sc_hd__diode_2
*I *1175:DIODE I *D sky130_fd_sc_hd__diode_2
*I *1173:DIODE I *D sky130_fd_sc_hd__diode_2
*I *1171:DIODE I *D sky130_fd_sc_hd__diode_2
*I *11235:A0 I *D sky130_fd_sc_hd__mux2_2
*I *1176:DIODE I *D sky130_fd_sc_hd__diode_2
*I *1179:DIODE I *D sky130_fd_sc_hd__diode_2
*I *1174:DIODE I *D sky130_fd_sc_hd__diode_2
*I *11542:DO[6] O *D CF_SRAM_1024x32
*CAP
1 *1172:DIODE 0.000736686
2 *1178:DIODE 0
3 *1175:DIODE 0
4 *1173:DIODE 0
5 *1171:DIODE 0
6 *11235:A0 0.000125126
7 *1176:DIODE 8.61632e-05
8 *1179:DIODE 9.15528e-05
9 *1174:DIODE 5.22569e-05
10 *11542:DO[6] 0.000180598
11 *329:51 0.000203916
12 *329:47 0.000623057
13 *329:43 0.000677922
14 *329:41 0.000358112
15 *329:39 0.000418618
16 *329:37 0.000278428
17 *329:35 0.000886449
18 *329:31 0.00200526
19 *329:29 0.00126072
20 *329:27 0.00896973
21 *329:25 0.00896973
22 *329:23 0.00586181
23 *329:21 0.00649122
24 *329:7 0.00154668
25 *1172:DIODE *11542:DI[6] 0
26 *1176:DIODE *476:64 7.14469e-05
27 *1176:DIODE *631:68 6.34166e-05
28 *329:7 *11542:DI[6] 0
29 *329:21 *11542:BEN[7] 6.05161e-06
30 *329:23 *331:49 7.48679e-06
31 *329:23 *331:51 0.00390469
32 *329:31 *331:67 0.00428367
33 *329:51 *476:64 0.000196565
34 *329:51 *631:68 0.000198219
35 *1048:DIODE *329:47 0.000135028
36 *11235:S *11235:A0 5.33005e-05
37 *113:14 *329:27 4.43256e-05
38 *190:80 *329:27 0.000305808
39 *192:14 *329:27 0.00386163
40 *196:14 *329:27 0.00550792
41 *203:44 *11235:A0 0.000257619
42 *203:44 *329:43 9.77264e-06
43 *224:13 *1176:DIODE 5.33005e-05
44 *224:32 *329:35 0.000455947
45 *224:32 *329:37 0.000163455
46 *224:32 *329:39 0.000165606
47 *224:32 *329:41 0.000378515
48 *224:32 *329:43 5.33005e-05
49 *297:36 *11235:A0 9.55684e-05
50 *297:36 *329:47 0.000216755
51 *301:21 *329:27 0.00346269
52 *302:48 *329:23 1.94879e-05
53 *303:31 *329:23 1.94879e-05
54 *304:47 *329:23 0
55 *304:51 *329:27 0.0293192
56 *304:57 *329:31 0.00139775
57 *323:33 *329:35 2.17877e-05
58 *326:21 *329:23 0.00257663
59 *327:9 *329:21 0.0011326
60 *327:9 *329:23 0.00204623
61 *327:17 *329:23 0.000286707
*RES
1 *11542:DO[6] *329:7 3.02679 
2 *329:7 *329:21 29.3482 
3 *329:21 *329:23 127.777 
4 *329:23 *329:25 4.5 
5 *329:25 *329:27 276.536 
6 *329:27 *329:29 4.5 
7 *329:29 *329:31 52.9464 
8 *329:31 *329:35 15.3036 
9 *329:35 *329:37 1.76786 
10 *329:37 *329:39 1.76786 
11 *329:39 *329:41 3.82143 
12 *329:41 *329:43 0.946429 
13 *329:43 *329:47 10.375 
14 *329:47 *329:51 7.05357 
15 *329:51 *1174:DIODE 9.83571 
16 *329:51 *1179:DIODE 10.2464 
17 *329:47 *1176:DIODE 15.3714 
18 *329:43 *11235:A0 13.0321 
19 *329:41 *1171:DIODE 9.3 
20 *329:39 *1173:DIODE 9.3 
21 *329:37 *1175:DIODE 9.3 
22 *329:35 *1178:DIODE 9.3 
23 *329:7 *1172:DIODE 20.0143 
*END

*D_NET *330 0.0943045
*CONN
*I *1181:DIODE I *D sky130_fd_sc_hd__diode_2
*I *1180:DIODE I *D sky130_fd_sc_hd__diode_2
*I *11238:A0 I *D sky130_fd_sc_hd__mux2_2
*I *11542:DO[7] O *D CF_SRAM_1024x32
*CAP
1 *1181:DIODE 0.000728254
2 *1180:DIODE 0
3 *11238:A0 0.000453431
4 *11542:DO[7] 7.20725e-05
5 *330:39 0.0056031
6 *330:25 0.0177643
7 *330:21 0.0195746
8 *330:7 0.00776026
9 *1181:DIODE *11542:DI[7] 0
10 *330:7 *11542:BEN[6] 0
11 *330:7 *11542:DI[7] 0
12 *330:21 *11542:BEN[6] 1.94945e-05
13 *330:21 *631:84 0.00258905
14 *330:39 *411:38 9.09539e-05
15 *11238:A1 *11238:A0 0.000169395
16 *3:35 *330:25 0.00459531
17 *113:59 *330:25 0.000100473
18 *126:10 *330:39 6.13772e-05
19 *132:10 *330:39 0.000194325
20 *138:10 *330:39 6.13772e-05
21 *142:10 *330:39 0.000228975
22 *153:20 *330:39 0.003695
23 *167:43 *330:25 0.000117142
24 *167:74 *330:25 0.000468315
25 *171:36 *330:25 0.000172674
26 *171:67 *330:25 0.00164056
27 *176:83 *330:25 0.00463007
28 *178:43 *330:25 0.00100927
29 *180:60 *330:25 0.00251695
30 *190:56 *330:25 0.000107883
31 *203:36 *330:39 0.000114398
32 *277:26 *330:39 0.000129529
33 *280:20 *330:39 0.000256441
34 *292:23 *330:25 0.000964561
35 *292:37 *330:25 0.000405207
36 *292:39 *330:25 0.000619683
37 *294:20 *330:39 0.000623316
38 *298:30 *11238:A0 0.000175892
39 *298:30 *330:39 4.25176e-05
40 *312:23 *330:25 0.00416905
41 *313:47 *330:25 0.00103072
42 *314:19 *330:21 0.000116562
43 *314:29 *330:25 0
44 *315:29 *330:21 0.0100764
45 *318:25 *330:21 0
46 *324:30 *330:25 0.00055741
47 *325:36 *330:25 0.000578809
48 *327:9 *330:21 1.94945e-05
*RES
1 *11542:DO[7] *330:7 1.15179 
2 *330:7 *330:21 45.1479 
3 *330:21 *330:25 47.5618 
4 *330:25 *330:39 26.8976 
5 *330:39 *11238:A0 14.7821 
6 *330:39 *1180:DIODE 9.3 
7 *330:7 *1181:DIODE 20.1036 
*END

*D_NET *331 0.094755
*CONN
*I *1183:DIODE I *D sky130_fd_sc_hd__diode_2
*I *1184:DIODE I *D sky130_fd_sc_hd__diode_2
*I *1182:DIODE I *D sky130_fd_sc_hd__diode_2
*I *11241:A0 I *D sky130_fd_sc_hd__mux2_2
*I *1185:DIODE I *D sky130_fd_sc_hd__diode_2
*I *1189:DIODE I *D sky130_fd_sc_hd__diode_2
*I *1187:DIODE I *D sky130_fd_sc_hd__diode_2
*I *1186:DIODE I *D sky130_fd_sc_hd__diode_2
*I *1190:DIODE I *D sky130_fd_sc_hd__diode_2
*I *11542:DO[8] O *D CF_SRAM_1024x32
*CAP
1 *1183:DIODE 0
2 *1184:DIODE 0.000111449
3 *1182:DIODE 5.54804e-05
4 *11241:A0 8.48326e-05
5 *1185:DIODE 0
6 *1189:DIODE 0.000220256
7 *1187:DIODE 0.000167552
8 *1186:DIODE 0
9 *1190:DIODE 0.000390752
10 *11542:DO[8] 0.000138228
11 *331:95 0.00020026
12 *331:82 0.000532977
13 *331:80 0.000577482
14 *331:71 0.00110703
15 *331:67 0.0032935
16 *331:65 0.00234914
17 *331:63 0.00103221
18 *331:61 0.00105459
19 *331:59 0.00243354
20 *331:57 0.00243344
21 *331:55 0.00378554
22 *331:53 0.00376326
23 *331:51 0.000779951
24 *331:49 0.00233664
25 *331:24 0.000418199
26 *331:13 0.000695497
27 *331:11 0.000649449
28 *331:7 0.00207002
29 *1184:DIODE *476:64 0.000198529
30 *1184:DIODE *631:68 0.000189279
31 *1189:DIODE *11542:DI[8] 7.27549e-05
32 *1190:DIODE *463:73 0.000221778
33 *331:7 *11542:DI[8] 4.13001e-05
34 *331:11 *11542:DI[8] 0.000268432
35 *331:95 *476:64 7.6644e-05
36 *331:95 *631:68 7.6644e-05
37 *1059:DIODE *331:71 0.000177545
38 *11241:A1 *11241:A0 1.28239e-05
39 *11241:A1 *331:82 2.33546e-05
40 *138:8 *331:80 0.000122591
41 *138:8 *331:82 0.000383166
42 *204:14 *331:59 0.00823916
43 *204:14 *331:63 0.00327445
44 *279:21 *331:67 0.0019023
45 *292:19 *331:67 2.60261e-05
46 *293:29 *331:59 0.00334023
47 *293:29 *331:63 0.00601244
48 *293:35 *331:59 0.00298922
49 *293:37 *331:55 0.00320293
50 *293:37 *331:59 0.00246761
51 *299:22 *331:71 0.00122069
52 *299:22 *331:80 1.38323e-05
53 *304:47 *331:49 0.000253363
54 *304:47 *331:51 8.41555e-06
55 *304:57 *331:67 1.00375e-05
56 *307:15 *331:55 0.00361283
57 *307:15 *331:59 0.0029484
58 *311:11 *331:49 0
59 *326:35 *331:71 4.33561e-05
60 *327:9 *331:49 0.00329496
61 *327:17 *331:51 0.00386941
62 *327:25 *331:67 0.00728341
63 *329:23 *331:49 7.48679e-06
64 *329:23 *331:51 0.00390469
65 *329:31 *331:67 0.00428367
*RES
1 *11542:DO[8] *331:7 2.58036 
2 *331:7 *331:11 7.94643 
3 *331:11 *331:13 1.03571 
4 *331:13 *1190:DIODE 14.4429 
5 *331:13 *331:24 2.58929 
6 *331:24 *1186:DIODE 9.3 
7 *331:24 *1187:DIODE 11.0679 
8 *331:11 *1189:DIODE 11.8893 
9 *331:7 *331:49 47.6161 
10 *331:49 *331:51 48.5446 
11 *331:51 *331:53 4.5 
12 *331:53 *331:55 91.0982 
13 *331:55 *331:57 0.428571 
14 *331:57 *331:59 129.5 
15 *331:59 *331:61 0.428571 
16 *331:61 *331:63 57.0089 
17 *331:63 *331:65 4.5 
18 *331:65 *331:67 99.6964 
19 *331:67 *331:71 21.875 
20 *331:71 *1185:DIODE 9.3 
21 *331:71 *331:80 2.19643 
22 *331:80 *331:82 5.05357 
23 *331:82 *11241:A0 10.5679 
24 *331:82 *331:95 5.53571 
25 *331:95 *1182:DIODE 14.3357 
26 *331:95 *1184:DIODE 16.8893 
27 *331:80 *1183:DIODE 9.3 
*END

*D_NET *332 0.0631837
*CONN
*I *1192:DIODE I *D sky130_fd_sc_hd__diode_2
*I *1197:DIODE I *D sky130_fd_sc_hd__diode_2
*I *1195:DIODE I *D sky130_fd_sc_hd__diode_2
*I *1193:DIODE I *D sky130_fd_sc_hd__diode_2
*I *1191:DIODE I *D sky130_fd_sc_hd__diode_2
*I *1196:DIODE I *D sky130_fd_sc_hd__diode_2
*I *1194:DIODE I *D sky130_fd_sc_hd__diode_2
*I *1198:DIODE I *D sky130_fd_sc_hd__diode_2
*I *11246:A0 I *D sky130_fd_sc_hd__mux2_2
*I *11542:DO[9] O *D CF_SRAM_1024x32
*CAP
1 *1192:DIODE 0.000574805
2 *1197:DIODE 0
3 *1195:DIODE 0
4 *1193:DIODE 0
5 *1191:DIODE 0
6 *1196:DIODE 0
7 *1194:DIODE 0.000163231
8 *1198:DIODE 0.000533536
9 *11246:A0 3.04135e-05
10 *11542:DO[9] 0.000275788
11 *332:65 0.000368607
12 *332:50 0.000851929
13 *332:39 0.000300985
14 *332:37 0.000345169
15 *332:35 0.000274275
16 *332:33 0.000185047
17 *332:31 0.000377915
18 *332:19 0.0019181
19 *332:17 0.00163857
20 *332:15 0.0154006
21 *332:13 0.0154006
22 *332:11 0.0020346
23 *332:9 0.0020346
24 *332:7 0.000850593
25 *1192:DIODE *11542:BEN[8] 0
26 *1192:DIODE *11542:DI[9] 0
27 *1192:DIODE *416:76 4.0342e-06
28 *1194:DIODE *11515:DI[28] 1.58163e-05
29 *332:7 *11542:BEN[8] 0
30 *332:7 *11542:DI[9] 0
31 *332:11 *361:10 0.00162673
32 *332:11 *565:10 0
33 *998:DIODE *332:19 2.49484e-05
34 *1095:DIODE *332:31 0.000130061
35 *11273:S *332:31 0.0001619
36 *3:25 *332:19 0.000209694
37 *142:8 *332:39 0.000135028
38 *225:11 *1194:DIODE 2.5868e-05
39 *225:11 *332:65 2.47753e-05
40 *225:24 *332:65 1.90303e-05
41 *276:20 *332:19 2.14474e-05
42 *297:36 *1198:DIODE 0.000197623
43 *297:36 *332:50 0.000146316
44 *298:22 *332:19 0.00628502
45 *300:22 *332:31 0.000171368
46 *300:26 *11246:A0 5.33005e-05
47 *300:26 *332:31 0.000204318
48 *300:26 *332:33 0.000163455
49 *300:26 *332:35 0.000167284
50 *300:26 *332:37 0.000377013
51 *300:26 *332:39 0.00032691
52 *301:29 *332:31 6.05161e-06
53 *308:50 *332:19 0.000175512
54 *311:11 *332:11 0.00292575
55 *323:19 *332:19 0.00602502
*RES
1 *11542:DO[9] *332:7 4.41964 
2 *332:7 *332:9 4.5 
3 *332:9 *332:11 70.25 
4 *332:11 *332:13 4.5 
5 *332:13 *332:15 289.679 
6 *332:15 *332:17 4.5 
7 *332:17 *332:19 79.9643 
8 *332:19 *332:31 19.6964 
9 *332:31 *332:33 1.76786 
10 *332:33 *332:35 1.76786 
11 *332:35 *332:37 3.82143 
12 *332:37 *332:39 3.41071 
13 *332:39 *11246:A0 9.83571 
14 *332:39 *332:50 6.44643 
15 *332:50 *1198:DIODE 20.175 
16 *332:50 *332:65 6.67857 
17 *332:65 *1194:DIODE 11.0679 
18 *332:65 *1196:DIODE 9.3 
19 *332:37 *1191:DIODE 9.3 
20 *332:35 *1193:DIODE 9.3 
21 *332:33 *1195:DIODE 9.3 
22 *332:31 *1197:DIODE 9.3 
23 *332:7 *1192:DIODE 16.8179 
*END

*D_NET *337 0.00460153
*CONN
*I *11323:A I *D sky130_fd_sc_hd__inv_2
*I *11551:X O *D sky130_fd_sc_hd__buf_1
*CAP
1 *11323:A 0.00182342
2 *11551:X 0.000466362
3 *337:10 0.00228978
4 wbs_ack_o *337:10 0
5 *11551:A *337:10 2.19684e-05
*RES
1 *11551:X *337:10 26.6214 
2 *337:10 *11323:A 38.9964 
*END

*D_NET *338 0.030213
*CONN
*I *11334:A I *D sky130_fd_sc_hd__buf_12
*I *11552:X O *D sky130_fd_sc_hd__buf_12
*CAP
1 *11334:A 0.000858293
2 *11552:X 0.000249102
3 *338:38 0.00183037
4 *338:28 0.00456331
5 *338:26 0.00418608
6 *338:12 0.001793
7 *338:10 0.00144725
8 *11334:A *11336:A 0.000186669
9 *11334:A *581:12 0.000255109
10 *338:10 *626:16 0.000312743
11 *338:12 *575:30 0.000725495
12 *338:12 *575:36 0.00210711
13 *338:12 *600:18 0.00171323
14 *338:26 *11328:A 0.000139087
15 *338:26 *567:16 0.000226068
16 *338:28 *371:30 2.13481e-06
17 *338:28 *584:56 7.62834e-05
18 *338:28 *584:64 7.49387e-06
19 *338:28 *589:14 9.55178e-05
20 *338:28 *608:12 5.52302e-05
21 *338:38 *11417:A 0.000218019
22 *338:38 *371:42 0.000121707
23 *338:38 *371:44 0.0005218
24 *338:38 *584:64 0.00250352
25 *11211:A *338:26 0.00045003
26 *11214:A *338:12 0.000126639
27 *11292:A1 *338:28 0.00044468
28 *11397:A *338:26 0.000390994
29 *11397:A *338:28 4.35336e-05
30 *11484:A *338:26 5.33005e-05
31 *110:14 *338:10 3.25078e-05
32 *115:30 *338:38 0.00113496
33 *117:12 *338:12 0.000198352
34 *117:12 *338:26 3.88131e-05
35 *117:65 *338:26 8.43535e-06
36 *117:65 *338:28 0.000175725
37 *165:22 *338:28 0.00043891
38 *165:34 *338:28 0.00169917
39 *167:166 *338:38 5.76004e-05
40 *170:18 *338:28 2.87555e-06
41 *172:34 *338:28 0.000140483
42 *199:26 *338:12 0.000137983
43 *201:18 *338:12 0.000443325
44 *202:16 *338:38 0
*RES
1 *11552:X *338:10 23.2821 
2 *338:10 *338:12 48.1786 
3 *338:12 *338:26 23.2679 
4 *338:26 *338:28 49.8214 
5 *338:28 *338:38 41.3929 
6 *338:38 *11334:A 24.6393 
*END

*D_NET *339 0.002604
*CONN
*I *11524:WLBI I *D CF_SRAM_1024x32
*I *11525:LO O *D sky130_fd_sc_hd__conb_1
*CAP
1 *11524:WLBI 0.000407517
2 *11525:LO 0.000407517
3 *11524:WLBI *11524:TM 0.000745374
4 *245:10 *11524:WLBI 9.60875e-05
5 *245:96 *11524:WLBI 0.000880067
6 *245:120 *11524:WLBI 6.74397e-05
*RES
1 *11525:LO *11524:WLBI 21.5902 
*END

*D_NET *340 0.00130855
*CONN
*I *11533:SM I *D CF_SRAM_1024x32
*I *11534:LO O *D sky130_fd_sc_hd__conb_1
*CAP
1 *11533:SM 0.000652378
2 *11534:LO 0.000652378
3 *11533:SM *11533:ScanInDR 3.79334e-06
*RES
1 *11534:LO *11533:SM 20.8848 
*END

*D_NET *341 0.00207042
*CONN
*I *11533:ScanInCC I *D CF_SRAM_1024x32
*I *11535:LO O *D sky130_fd_sc_hd__conb_1
*CAP
1 *11533:ScanInCC 0.000577683
2 *11535:LO 0.000577683
3 *11533:ScanInCC *11533:AD[3] 0.000915057
4 *11533:ScanInCC *11533:AD[9] 0
5 *269:9 *11533:ScanInCC 0
*RES
1 *11535:LO *11533:ScanInCC 21.3268 
*END

*D_NET *342 0.00216792
*CONN
*I *11533:ScanInDL I *D CF_SRAM_1024x32
*I *11536:LO O *D sky130_fd_sc_hd__conb_1
*CAP
1 *11533:ScanInDL 0.000543437
2 *11536:LO 0.000543437
3 *11533:ScanInDL *11533:DI[0] 0.00108105
*RES
1 *11536:LO *11533:ScanInDL 21.9339 
*END

*D_NET *343 0.00207973
*CONN
*I *11533:ScanInDR I *D CF_SRAM_1024x32
*I *11537:LO O *D sky130_fd_sc_hd__conb_1
*CAP
1 *11533:ScanInDR 0.000465109
2 *11537:LO 0.000465109
3 *11533:SM *11533:ScanInDR 3.79334e-06
4 *276:9 *11533:ScanInDR 0.00114571
*RES
1 *11537:LO *11533:ScanInDR 22.175 
*END

*D_NET *344 0.00218349
*CONN
*I *11533:TM I *D CF_SRAM_1024x32
*I *11538:LO O *D sky130_fd_sc_hd__conb_1
*CAP
1 *11533:TM 0.000465961
2 *11538:LO 0.000465961
3 *11533:TM *11533:BEN[16] 0
4 *11533:TM *11533:WLBI 0.000389183
5 *11533:TM *11533:DI[17] 0.000665419
6 *277:15 *11533:TM 0.000196968
*RES
1 *11538:LO *11533:TM 31.5054 
*END

*D_NET *345 0.00227122
*CONN
*I *11533:WLBI I *D CF_SRAM_1024x32
*I *11539:LO O *D sky130_fd_sc_hd__conb_1
*CAP
1 *11533:WLBI 0.000695816
2 *11539:LO 0.000695816
3 *11533:TM *11533:WLBI 0.000389183
4 *277:15 *11533:WLBI 0.00049041
*RES
1 *11539:LO *11533:WLBI 24.0545 
*END

*D_NET *346 0.00146848
*CONN
*I *11542:SM I *D CF_SRAM_1024x32
*I *11543:LO O *D sky130_fd_sc_hd__conb_1
*CAP
1 *11542:SM 0.000732785
2 *11543:LO 0.000732785
3 *11542:SM *11542:ScanInDR 2.91371e-06
*RES
1 *11543:LO *11542:SM 20.8848 
*END

*D_NET *347 0.00169028
*CONN
*I *11542:ScanInCC I *D CF_SRAM_1024x32
*I *11544:LO O *D sky130_fd_sc_hd__conb_1
*CAP
1 *11542:ScanInCC 0.000656124
2 *11544:LO 0.000656124
3 *11542:ScanInCC *11542:AD[3] 0.000378033
4 *1058:DIODE *11542:ScanInCC 0
5 *301:5 *11542:ScanInCC 0
*RES
1 *11544:LO *11542:ScanInCC 21.3268 
*END

*D_NET *348 0.00213536
*CONN
*I *11542:ScanInDL I *D CF_SRAM_1024x32
*I *11545:LO O *D sky130_fd_sc_hd__conb_1
*CAP
1 *11542:ScanInDL 0.000616673
2 *11545:LO 0.000616673
3 *11542:ScanInDL *11542:DI[0] 0.000902011
4 *1058:DIODE *11542:ScanInDL 0
*RES
1 *11545:LO *11542:ScanInDL 21.9339 
*END

*D_NET *349 0.0334997
*CONN
*I *11332:A I *D sky130_fd_sc_hd__buf_12
*I *11553:X O *D sky130_fd_sc_hd__buf_12
*CAP
1 *11332:A 0.00051549
2 *11553:X 0.00022174
3 *349:12 0.0102536
4 *349:10 0.0099599
5 *11332:A *448:28 0.000311894
6 *11332:A *559:12 9.83736e-05
7 *11332:A *583:24 0.000306333
8 *349:10 *11385:A 2.84494e-05
9 *349:12 *11474:A 9.48865e-05
10 *349:12 *11476:A 7.88857e-05
11 *349:12 *448:16 0.000492943
12 *349:12 *599:12 0.00824344
13 *11307:A1 *11332:A 7.69776e-06
14 *117:102 *349:12 0.000467422
15 *122:93 *349:12 0.00217869
16 *223:32 *11332:A 0.000239878
*RES
1 *11553:X *349:10 21.7643 
2 *349:10 *349:12 137.714 
3 *349:12 *11332:A 30.2286 
*END

*D_NET *350 0.00223117
*CONN
*I *11542:ScanInDR I *D CF_SRAM_1024x32
*I *11546:LO O *D sky130_fd_sc_hd__conb_1
*CAP
1 *11542:ScanInDR 0.000555373
2 *11546:LO 0.000555373
3 *1092:DIODE *11542:ScanInDR 0.0010195
4 *11542:SM *11542:ScanInDR 2.91371e-06
5 *308:7 *11542:ScanInDR 9.80108e-05
*RES
1 *11546:LO *11542:ScanInDR 22.175 
*END

*D_NET *351 0.00235324
*CONN
*I *11542:TM I *D CF_SRAM_1024x32
*I *11547:LO O *D sky130_fd_sc_hd__conb_1
*CAP
1 *11542:TM 0.000411328
2 *11547:LO 0.000411328
3 *11542:TM *11542:BEN[16] 2.48721e-05
4 *11542:TM *11542:WLBI 0.000542068
5 *11542:TM *11542:DI[17] 3.97677e-05
6 *11542:TM *422:78 0.000424782
7 *309:7 *11542:TM 1.24368e-05
8 *309:116 *11542:TM 0.000122591
9 *316:19 *11542:TM 0.000182421
10 *318:13 *11542:TM 0.000181645
*RES
1 *11547:LO *11542:TM 31.5054 
*END

*D_NET *352 0.00223166
*CONN
*I *11542:WLBI I *D CF_SRAM_1024x32
*I *11548:LO O *D sky130_fd_sc_hd__conb_1
*CAP
1 *11542:WLBI 0.000684837
2 *11548:LO 0.000684837
3 *11542:WLBI *11542:BEN[16] 0
4 *11542:WLBI *422:78 2.97829e-05
5 *11542:TM *11542:WLBI 0.000542068
6 *309:7 *11542:WLBI 2.3643e-05
7 *309:116 *11542:WLBI 0.000266497
*RES
1 *11548:LO *11542:WLBI 23.6437 
*END

*D_NET *353 0.0381933
*CONN
*I *11515:vpwrac I *D CF_SRAM_1024x32
*I *11516:HI O *D sky130_fd_sc_hd__conb_1
*CAP
1 *11515:vpwrac 0.00425572
2 *11516:HI 0.000262843
3 *353:10 0.00744134
4 *353:8 0.00344847
5 *11515:vpwrac *11515:vpwrpc 0
6 *353:8 *354:8 0.000423607
7 *353:8 *394:58 0.000149031
8 *353:10 *367:28 0.000101148
9 *353:10 *376:46 0.000741525
10 *353:10 *376:48 0.00135081
11 *353:10 *385:81 0.0012401
12 *353:10 *387:58 0.000814343
13 *353:10 *389:36 0.000199841
14 *353:10 *478:42 0.00112137
15 *353:10 *558:47 0.000453122
16 *353:10 *558:57 0.000668151
17 *353:10 *558:69 0.000845825
18 *353:10 *558:81 0.000918788
19 *353:10 *558:93 0.000765526
20 *353:10 *558:107 0.000714508
21 *353:10 *590:14 0.00835737
22 *353:10 *631:24 0.000657628
23 *353:10 *631:36 0.000940776
24 *353:10 *631:50 0.000767045
25 *205:29 *11515:vpwrac 0.00023986
26 *233:17 *353:10 0.00121046
27 *235:19 *11515:vpwrac 0.000104053
*RES
1 *11516:HI *353:8 19.2643 
2 *353:8 *353:10 154.491 
3 *353:10 *11515:vpwrac 24.0759 
*END

*D_NET *354 0.0375637
*CONN
*I *11515:vpwrpc I *D CF_SRAM_1024x32
*I *11517:HI O *D sky130_fd_sc_hd__conb_1
*CAP
1 *11515:vpwrpc 0.00194041
2 *11517:HI 0.000321215
3 *354:10 0.00463286
4 *354:8 0.00301367
5 *354:8 *11515:AD[2] 9.20635e-06
6 *354:10 *376:48 0.00451585
7 *354:10 *391:88 0.000103363
8 *354:10 *590:14 0.000254049
9 *11515:vpwrac *11515:vpwrpc 0
10 *144:10 *354:10 2.14474e-05
11 *147:18 *354:10 0.00817093
12 *154:10 *354:10 0.00838147
13 *155:16 *354:10 0.000175556
14 *157:16 *354:10 0.00443133
15 *205:21 *11515:vpwrpc 0.000752151
16 *205:29 *11515:vpwrpc 2.6631e-05
17 *209:25 *354:10 0.000389916
18 *353:8 *354:8 0.000423607
*RES
1 *11517:HI *354:8 19.2643 
2 *354:8 *354:10 166.33 
3 *354:10 *11515:vpwrpc 20.0527 
*END

*D_NET *355 0.0329696
*CONN
*I *11524:vpwrac I *D CF_SRAM_1024x32
*I *11526:HI O *D sky130_fd_sc_hd__conb_1
*CAP
1 *11524:vpwrac 0.00397555
2 *11526:HI 0.000303698
3 *355:34 0.00454666
4 *355:20 0.00148692
5 *355:10 0.00222384
6 *355:8 0.00161173
7 *11524:vpwrac *11524:vpwrpc 0.000750473
8 *11524:vpwrac *363:26 0.00199773
9 *355:8 *356:8 0.000393715
10 *355:8 *422:32 0.000103977
11 *355:10 *422:36 5.71124e-05
12 *355:10 *570:26 0.000102262
13 *355:20 *548:32 0.0020474
14 *355:20 *570:26 0.000564153
15 *355:20 *571:26 1.24368e-05
16 *355:34 *356:16 6.05161e-06
17 *355:34 *537:16 0.00189864
18 *355:34 *571:16 0.000333532
19 *11309:A0 *355:20 0.000761092
20 *184:56 *355:20 0.000111874
21 *184:62 *355:20 3.27461e-05
22 *186:12 *355:20 8.40006e-06
23 *187:38 *355:34 0.000335185
24 *188:16 *355:10 0.0020105
25 *188:16 *355:20 0.000799507
26 *192:16 *355:34 0.000121549
27 *194:18 *355:10 0.00199477
28 *194:32 *355:20 0.00111762
29 *195:10 *355:20 0.000348784
30 *195:10 *355:34 0.00189864
31 *238:11 *355:34 6.57032e-05
32 *239:63 *11524:vpwrac 0.000349218
33 *251:21 *11524:vpwrac 0.000598141
*RES
1 *11526:HI *355:8 20.0857 
2 *355:8 *355:10 49.8661 
3 *355:10 *355:20 46.6518 
4 *355:20 *355:34 46.2939 
5 *355:34 *11524:vpwrac 25.3251 
*END

*D_NET *356 0.0375268
*CONN
*I *11524:vpwrpc I *D CF_SRAM_1024x32
*I *11527:HI O *D sky130_fd_sc_hd__conb_1
*CAP
1 *11524:vpwrpc 0.00151704
2 *11527:HI 0.000228915
3 *356:18 0.00231257
4 *356:16 0.000882055
5 *356:10 0.0023009
6 *356:8 0.00244329
7 *11524:vpwrpc *11524:DI[15] 0.00104073
8 *11524:vpwrpc *558:367 0.001039
9 *356:8 *422:32 0.000266057
10 *356:10 *560:16 0.00451718
11 *356:10 *573:16 0.0064702
12 *356:10 *574:16 0.000222389
13 *356:16 *363:38 0
14 *356:18 *537:16 0.00420971
15 *11524:vpwrac *11524:vpwrpc 0.000750473
16 *186:12 *356:10 0.00253855
17 *192:16 *356:10 0.00129892
18 *195:10 *356:18 0.00421143
19 *238:11 *356:16 2.47753e-05
20 *256:19 *356:10 0.0008528
21 *355:8 *356:8 0.000393715
22 *355:34 *356:16 6.05161e-06
*RES
1 *11527:HI *356:8 18.8536 
2 *356:8 *356:10 114.268 
3 *356:10 *356:16 10.3571 
4 *356:16 *356:18 52.1875 
5 *356:18 *11524:vpwrpc 20.5831 
*END

*D_NET *357 0.0300879
*CONN
*I *11533:vpwrac I *D CF_SRAM_1024x32
*I *11540:HI O *D sky130_fd_sc_hd__conb_1
*CAP
1 *11533:vpwrac 0.00215532
2 *11540:HI 0.000256303
3 *357:10 0.00652076
4 *357:8 0.00462174
5 *11533:vpwrac *11533:vpwrpc 0.00183038
6 *357:8 *11533:AD[1] 8.47289e-06
7 *357:8 *11533:AD[2] 0.000132871
8 *357:8 *358:8 0.000662458
9 *357:10 *11533:BEN[0] 0
10 *357:10 *11533:DI[12] 0.00182433
11 *357:10 *358:10 0.00606719
12 *357:10 *376:48 0.0018135
13 *357:10 *383:72 0.00104467
14 *357:10 *385:81 0
15 *357:10 *391:88 0.00215274
16 *357:10 *394:68 0
17 *357:10 *463:36 0
18 *357:10 *467:24 0
19 *357:10 *472:24 0
20 *271:14 *357:10 0.000975725
21 *271:24 *11533:vpwrac 2.14455e-05
*RES
1 *11540:HI *357:8 21.3179 
2 *357:8 *357:10 159.045 
3 *357:10 *11533:vpwrac 21.588 
*END

*D_NET *358 0.0286482
*CONN
*I *11533:vpwrpc I *D CF_SRAM_1024x32
*I *11541:HI O *D sky130_fd_sc_hd__conb_1
*CAP
1 *11533:vpwrpc 0.00153292
2 *11541:HI 0.000307949
3 *358:10 0.00628105
4 *358:8 0.00505608
5 *358:8 *11533:AD[2] 2.15245e-05
6 *358:10 *11533:DI[12] 0.00202007
7 *358:10 *11533:DI[11] 0.00153637
8 *358:10 *369:41 0.0012107
9 *358:10 *380:42 0
10 *358:10 *391:88 0.00211204
11 *11533:vpwrac *11533:vpwrpc 0.00183038
12 *271:24 *11533:vpwrpc 9.50261e-06
13 *357:8 *358:8 0.000662458
14 *357:10 *358:10 0.00606719
*RES
1 *11541:HI *358:8 20.9071 
2 *358:8 *358:10 161.17 
3 *358:10 *11533:vpwrpc 20.7232 
*END

*D_NET *359 0.0383503
*CONN
*I *11542:vpwrac I *D CF_SRAM_1024x32
*I *11549:HI O *D sky130_fd_sc_hd__conb_1
*CAP
1 *11542:vpwrac 0.00239558
2 *11549:HI 0.000268472
3 *359:10 0.00475482
4 *359:8 0.00262772
5 *11542:vpwrac *11542:vpwrpc 0.000808257
6 *359:8 *361:8 0.00051756
7 *359:10 *361:10 0.012358
8 *359:10 *565:10 0.0123563
9 *302:48 *11542:vpwrac 0.000412749
10 *308:21 *11542:vpwrac 0.00185084
11 *322:32 *11542:vpwrac 0
*RES
1 *11549:HI *359:8 18.8536 
2 *359:8 *359:10 153.277 
3 *359:10 *11542:vpwrac 22.8664 
*END

*D_NET *360 0.0282992
*CONN
*I *11330:A I *D sky130_fd_sc_hd__buf_12
*I *11554:X O *D sky130_fd_sc_hd__buf_12
*CAP
1 *11330:A 0.00132239
2 *11554:X 5.56332e-05
3 *360:18 0.00295287
4 *360:14 0.00362954
5 *360:10 0.00317584
6 *360:6 0.0012324
7 *11330:A *11363:A 0.000153486
8 *11330:A *11470:A 0.00012378
9 *11330:A *11567:A 0.00014285
10 *11330:A *448:28 0.000308595
11 *11330:A *474:26 0.000197977
12 *11330:A *609:16 1.57414e-05
13 *11330:A *614:16 0.000188102
14 *360:10 *11555:A 5.47047e-05
15 *360:10 *404:18 0.000151061
16 *360:10 *536:16 0.000340015
17 *360:10 *598:14 0.00453389
18 *360:10 *628:22 0.000918161
19 *360:14 *11584:A 7.8195e-05
20 *360:14 *11611:A 0.000242294
21 *360:14 *11612:A 0.000459943
22 *360:14 *598:14 0.000140528
23 *360:18 *11340:A 8.25843e-06
24 *360:18 *11462:A 9.35114e-06
25 *360:18 *11466:A 1.82549e-05
26 *360:18 *11613:A 0.000985873
27 *360:18 *11614:A 0.00022459
28 *360:18 *609:16 0.00296134
29 wbs_dat_o[11] *360:10 0.000151071
30 wbs_dat_o[12] *360:14 0.000269
31 wbs_dat_o[13] *360:14 0.00027068
32 wbs_dat_o[14] *360:14 0.000301016
33 wbs_dat_o[15] *360:18 7.20784e-05
34 wbs_dat_o[16] *360:18 0.000115587
35 wbs_dat_o[17] *360:18 0.000146533
36 wbs_dat_o[9] *360:10 0.000122159
37 *11307:A1 *11330:A 1.01417e-05
38 *11307:B2 *11330:A 0.000125811
39 *11322:C1 *11330:A 0.000282243
40 *11355:A *360:18 5.33433e-05
41 *11357:A *360:18 5.33433e-05
42 *11361:A *11330:A 0.000610051
43 *11419:A *360:14 0.000230482
44 *11423:A *360:14 0.000575099
45 *11473:A *360:14 0.000142856
46 *117:131 *11330:A 0.000142085
47 *224:48 *11330:A 0
*RES
1 *11554:X *360:6 10.0321 
2 *360:6 *360:10 44.9018 
3 *360:10 *360:14 37.9196 
4 *360:14 *360:18 41.8214 
5 *360:18 *11330:A 45.7643 
*END

*D_NET *361 0.0325059
*CONN
*I *11542:vpwrpc I *D CF_SRAM_1024x32
*I *11550:HI O *D sky130_fd_sc_hd__conb_1
*CAP
1 *11542:vpwrpc 0.00137774
2 *11550:HI 0.000256929
3 *361:10 0.00640552
4 *361:8 0.00528471
5 *11542:vpwrpc *374:83 0.000295627
6 *11542:vpwrpc *558:159 0.00228555
7 *361:8 *11542:AD[2] 0.000234916
8 *361:10 *565:10 0.000560795
9 *11542:vpwrac *11542:vpwrpc 0.000808257
10 *302:48 *11542:vpwrpc 0.000470284
11 *308:21 *11542:vpwrpc 2.33124e-05
12 *311:11 *361:10 0
13 *322:32 *11542:vpwrpc 0
14 *332:11 *361:10 0.00162673
15 *359:8 *361:8 0.00051756
16 *359:10 *361:10 0.012358
*RES
1 *11550:HI *361:8 20.4964 
2 *361:8 *361:10 165.723 
3 *361:10 *11542:vpwrpc 20.2751 
*END

*D_NET *362 0.000133673
*CONN
*I *11485:A I *D sky130_fd_sc_hd__dlygate4sd3_1
*I *11328:X O *D sky130_fd_sc_hd__dlygate4sd3_1
*CAP
1 *11485:A 1.16062e-05
2 *11328:X 1.16062e-05
3 *11485:A *11328:A 5.52302e-05
4 *11485:A *448:10 5.52302e-05
*RES
1 *11328:X *11485:A 19.1357 
*END

*D_NET *363 0.197743
*CONN
*I *11515:DI[10] I *D CF_SRAM_1024x32
*I *11533:DI[10] I *D CF_SRAM_1024x32
*I *11542:DI[10] I *D CF_SRAM_1024x32
*I *11524:DI[10] I *D CF_SRAM_1024x32
*I *11427:X O *D sky130_fd_sc_hd__buf_12
*CAP
1 *11515:DI[10] 0.00274863
2 *11533:DI[10] 0.00226103
3 *11542:DI[10] 0.00203682
4 *11524:DI[10] 0.00015599
5 *11427:X 0.00197518
6 *363:66 0.023385
7 *363:64 0.0212299
8 *363:60 0.0139981
9 *363:40 0.016851
10 *363:38 0.0167822
11 *363:26 0.00897766
12 *363:16 0.0199725
13 *11515:DI[10] *11515:BEN[10] 0
14 *11533:DI[10] *629:74 1.05524e-05
15 *11533:DI[10] *631:68 1.94879e-05
16 *363:16 *365:18 0.00318257
17 *363:16 *463:18 0.00578316
18 *363:26 *548:20 2.92969e-05
19 *363:40 *369:81 0
20 *363:60 *365:18 0.000113793
21 *363:60 *463:18 0.000225295
22 *675:DIODE *363:38 5.96516e-05
23 *765:DIODE *363:38 0.000301016
24 *1073:DIODE *11542:DI[10] 0.000122279
25 *11524:vpwrac *363:26 0.00199773
26 *3:25 *363:66 0.00583552
27 *139:16 *11515:DI[10] 0.000136951
28 *195:18 *363:16 1.21955e-05
29 *196:26 *363:66 0.0143059
30 *200:66 *363:66 0.000762496
31 *204:10 *363:66 0.000849626
32 *206:9 *11515:DI[10] 0.000249065
33 *222:28 *11515:DI[10] 6.87203e-05
34 *222:28 *363:66 0.00194196
35 *224:32 *363:66 0.000160692
36 *224:36 *363:66 0.00145703
37 *225:36 *363:16 2.06178e-05
38 *229:71 *363:16 0
39 *238:11 *363:38 0
40 *239:63 *363:26 0
41 *239:63 *363:60 0
42 *239:63 *363:64 0
43 *239:71 *363:66 0.000123605
44 *244:19 *363:66 0.000457352
45 *246:69 *11515:DI[10] 6.87203e-05
46 *246:69 *363:66 0.000232309
47 *247:15 *363:26 9.36119e-05
48 *255:22 *363:40 0.00170319
49 *257:22 *363:40 0.0170342
50 *261:22 *363:40 0.000941502
51 *262:19 *363:66 0.000251371
52 *263:19 *363:66 0.000110498
53 *270:7 *11533:DI[10] 0.000225044
54 *283:22 *363:66 0.00113383
55 *286:22 *363:66 0.000998459
56 *288:25 *363:66 0.000852947
57 *290:25 *363:66 0.000788445
58 *293:25 *363:66 0.000728657
59 *298:22 *363:66 0.000797311
60 *299:18 *363:66 0.00179079
61 *300:22 *363:66 0.00052395
62 *301:37 *363:66 0.000143652
63 *302:7 *11542:DI[10] 2.95726e-05
64 *302:11 *11542:DI[10] 0.000443076
65 *323:33 *363:66 0.000251592
66 *356:16 *363:38 0
*RES
1 *11427:X *363:16 34.1304 
2 *363:16 *363:26 32.6971 
3 *363:26 *11524:DI[10] 2.49107 
4 *363:26 *363:38 34.1964 
5 *363:38 *363:40 393.25 
6 *363:40 *11542:DI[10] 36.5446 
7 *363:16 *363:60 33.4414 
8 *363:60 *363:64 3.63717 
9 *363:64 *363:66 68.8675 
10 *363:66 *11533:DI[10] 26.8597 
11 *363:60 *11515:DI[10] 40.2493 
*END

*D_NET *364 0.00117481
*CONN
*I *11489:A I *D sky130_fd_sc_hd__dlygate4sd3_1
*I *11438:X O *D sky130_fd_sc_hd__dlygate4sd3_1
*CAP
1 *11489:A 8.83689e-05
2 *11438:X 8.83689e-05
3 *11489:A *580:12 2.44318e-05
4 *11489:A *580:24 0.000134617
5 *11489:A *584:28 0.000579959
6 *11213:A *11489:A 5.71472e-05
7 *11214:A *11489:A 0.00010096
8 *201:18 *11489:A 0.00010096
*RES
1 *11438:X *11489:A 24.0643 
*END

*D_NET *365 0.216407
*CONN
*I *11542:DI[9] I *D CF_SRAM_1024x32
*I *11524:DI[9] I *D CF_SRAM_1024x32
*I *11533:DI[9] I *D CF_SRAM_1024x32
*I *11515:DI[9] I *D CF_SRAM_1024x32
*I *11449:X O *D sky130_fd_sc_hd__buf_12
*CAP
1 *11542:DI[9] 0.00248322
2 *11524:DI[9] 4.43045e-05
3 *11533:DI[9] 4.01504e-05
4 *11515:DI[9] 0.000194046
5 *11449:X 0.00440555
6 *365:80 0.0137776
7 *365:78 0.0132853
8 *365:68 0.0134282
9 *365:48 0.0141737
10 *365:46 0.0144538
11 *365:28 0.000963887
12 *365:26 0.018033
13 *365:18 0.033382
14 *11515:DI[9] *11515:BEN[9] 0
15 *11542:DI[9] *11542:BEN[9] 0
16 *365:18 *463:18 0.000144361
17 *365:26 *378:81 0.000337325
18 *365:26 *387:50 0.000330767
19 *365:26 *476:26 0.00010794
20 *365:28 *11515:BEN[9] 0
21 *365:46 *367:40 1.56e-05
22 *365:48 *367:42 0.0307042
23 *365:68 *11524:BEN[9] 0
24 *365:78 *570:24 0.000135028
25 *365:80 *367:76 0.0303837
26 *365:80 *400:10 0.0100864
27 *365:80 *416:10 0.00307637
28 *365:80 *461:68 0
29 *1192:DIODE *11542:DI[9] 0
30 *135:10 *365:46 0.000954357
31 *139:10 *365:46 2.47753e-05
32 *156:10 *365:46 0.000954357
33 *195:18 *365:18 0.000433668
34 *202:24 *365:26 0.00268791
35 *202:137 *365:26 5.92283e-05
36 *227:21 *365:48 0.000901404
37 *235:7 *365:46 7.60969e-06
38 *236:9 *11515:DI[9] 8.52174e-05
39 *236:9 *365:28 0.000205748
40 *238:69 *365:68 0.000135306
41 *247:15 *365:68 0.00026556
42 *249:29 *365:18 4.54213e-06
43 *260:22 *365:80 0
44 *268:74 *365:78 0
45 *274:24 *365:48 0.00237359
46 *300:11 *11533:DI[9] 3.09541e-05
47 *332:7 *11542:DI[9] 0
48 *363:16 *365:18 0.00318257
49 *363:60 *365:18 0.000113793
*RES
1 *11449:X *365:18 41.2898 
2 *365:18 *365:26 45.1507 
3 *365:26 *365:28 7.10714 
4 *365:28 *11515:DI[9] 3.54464 
5 *365:28 *365:46 27.2321 
6 *365:46 *365:48 381.625 
7 *365:48 *11533:DI[9] 5.38393 
8 *365:18 *365:68 33.7897 
9 *365:68 *11524:DI[9] 0.848214 
10 *365:68 *365:78 32.1429 
11 *365:78 *365:80 392.339 
12 *365:80 *11542:DI[9] 33.6339 
*END

*D_NET *366 0.00132033
*CONN
*I *11487:A I *D sky130_fd_sc_hd__dlygate4sd3_1
*I *11460:X O *D sky130_fd_sc_hd__dlygate4sd3_1
*CAP
1 *11487:A 0.000384156
2 *11460:X 0.000384156
3 *11487:A *371:18 0
4 *11487:A *597:14 0.000145812
5 wbs_dat_o[8] *11487:A 0.000143651
6 *11392:A *11487:A 0.000120816
7 *11488:A *11487:A 0.000141734
*RES
1 *11460:X *11487:A 36.4036 
*END

*D_NET *367 0.225288
*CONN
*I *11542:DI[8] I *D CF_SRAM_1024x32
*I *11524:DI[8] I *D CF_SRAM_1024x32
*I *11533:DI[8] I *D CF_SRAM_1024x32
*I *11515:DI[8] I *D CF_SRAM_1024x32
*I *11471:X O *D sky130_fd_sc_hd__buf_12
*CAP
1 *11542:DI[8] 0.0018588
2 *11524:DI[8] 4.52372e-05
3 *11533:DI[8] 0.000124353
4 *11515:DI[8] 0.000127072
5 *11471:X 0.00216539
6 *367:76 0.00941352
7 *367:74 0.00953074
8 *367:64 0.0109401
9 *367:42 0.00660251
10 *367:40 0.00657585
11 *367:28 0.0138297
12 *367:18 0.0248845
13 *367:18 *11617:A 5.16106e-05
14 *367:18 *369:18 0.00736814
15 *367:18 *472:18 0.00736414
16 *367:28 *11515:BEN[8] 0
17 *367:28 *389:36 0.000189711
18 *367:28 *558:123 0
19 *367:42 *372:41 0.0299531
20 *367:42 *549:44 0.000699004
21 *367:42 *549:62 0.000449321
22 *367:76 *369:81 0.000404568
23 *367:76 *372:73 0.0295305
24 *975:DIODE *367:74 0.000261799
25 *1189:DIODE *11542:DI[8] 7.27549e-05
26 *135:10 *367:42 4.96435e-05
27 *137:10 *367:42 0.000256766
28 *139:10 *367:28 0.000189404
29 *139:10 *367:40 1.24368e-05
30 *226:34 *367:18 0.000152584
31 *235:7 *367:40 7.1412e-05
32 *235:9 *367:42 1.71788e-05
33 *247:15 *367:64 0.000118506
34 *260:22 *367:76 0.00034658
35 *267:5 *367:74 0
36 *267:9 *367:74 0
37 *267:47 *367:28 0
38 *267:47 *367:64 0
39 *268:23 *367:64 0.000116612
40 *299:7 *11533:DI[8] 0
41 *331:7 *11542:DI[8] 4.13001e-05
42 *331:11 *11542:DI[8] 0.000268432
43 *353:10 *367:28 0.000101148
44 *365:46 *367:40 1.56e-05
45 *365:48 *367:42 0.0307042
46 *365:80 *367:76 0.0303837
*RES
1 *11471:X *367:18 40.843 
2 *367:18 *367:28 49.8886 
3 *367:28 *11515:DI[8] 0.5625 
4 *11515:DI[8] *367:40 7.47321 
5 *367:40 *367:42 391.125 
6 *367:42 *11533:DI[8] 6.75893 
7 *367:18 *367:64 33.6979 
8 *367:64 *11524:DI[8] 0.866071 
9 *367:64 *367:74 32.5536 
10 *367:74 *367:76 392.946 
11 *367:76 *11542:DI[8] 33.4554 
*END

*D_NET *368 0.000730579
*CONN
*I *11491:A I *D sky130_fd_sc_hd__dlygate4sd3_1
*I *11482:X O *D sky130_fd_sc_hd__dlygate4sd3_1
*CAP
1 *11491:A 0.000175106
2 *11482:X 0.000175106
3 *11491:A *11553:A 0.000171624
4 *11491:A *583:10 6.42007e-05
5 *11491:A *598:14 9.41642e-05
6 *11491:A *599:12 5.03772e-05
*RES
1 *11482:X *11491:A 31.4393 
*END

*D_NET *369 0.21688
*CONN
*I *11542:DI[7] I *D CF_SRAM_1024x32
*I *11524:DI[7] I *D CF_SRAM_1024x32
*I *11533:DI[7] I *D CF_SRAM_1024x32
*I *11515:DI[7] I *D CF_SRAM_1024x32
*I *11493:X O *D sky130_fd_sc_hd__buf_12
*CAP
1 *11542:DI[7] 0.00257362
2 *11524:DI[7] 0.000107531
3 *11533:DI[7] 0.000240868
4 *11515:DI[7] 0.000145989
5 *11493:X 0.00216457
6 *369:81 0.0125461
7 *369:79 0.0113666
8 *369:63 0.00701749
9 *369:41 0.00688815
10 *369:39 0.00664728
11 *369:28 0.00970806
12 *369:18 0.0172425
13 *11542:DI[7] *11542:BEN[7] 1.05901e-05
14 *369:18 *11511:A 0.000105582
15 *369:18 *467:18 0
16 *369:18 *472:18 0.000566516
17 *369:18 *504:12 0
18 *369:28 *372:28 0
19 *369:28 *389:36 4.49292e-05
20 *369:28 *549:32 0
21 *369:28 *549:97 0
22 *369:28 *549:101 0.002784
23 *369:41 *11533:DI[12] 1.09232e-05
24 *369:41 *11533:DI[11] 0.00286636
25 *369:41 *372:41 0.00066106
26 *369:41 *380:42 0.0291564
27 *369:41 *383:64 0.00106939
28 *369:41 *387:74 0.00396356
29 *369:41 *389:44 0.0155743
30 *369:41 *549:62 0.000535131
31 *369:63 *549:101 0.0015624
32 *369:81 *372:73 0.0302478
33 *965:DIODE *369:79 0.000181996
34 *1181:DIODE *11542:DI[7] 0
35 *11321:A0 *369:79 0.00022296
36 *11321:A1 *369:79 4.44369e-05
37 *11321:S *369:79 2.79421e-05
38 *135:10 *369:41 0.000452487
39 *156:10 *369:41 0.000822765
40 *174:77 *369:18 2.07592e-05
41 *178:45 *369:18 0.00751716
42 *195:8 *369:79 0.000587484
43 *197:18 *369:41 0.000541868
44 *205:21 *369:41 4.33002e-05
45 *216:21 *369:41 4.33002e-05
46 *226:34 *369:18 0.000306869
47 *227:21 *369:41 4.33002e-05
48 *230:23 *369:41 1.90936e-05
49 *231:11 *369:41 0.000130758
50 *231:13 *369:41 0.000750544
51 *232:21 *369:28 4.35849e-05
52 *234:17 *11515:DI[7] 0.000262491
53 *234:17 *369:28 0.000584528
54 *247:15 *369:63 1.90936e-05
55 *260:22 *369:81 0.0188681
56 *261:22 *369:81 0.000405381
57 *261:26 *369:79 0.000433757
58 *264:29 *369:28 0
59 *266:13 *11524:DI[7] 0.000136951
60 *266:13 *369:63 1.90936e-05
61 *266:13 *369:79 5.33005e-05
62 *266:83 *369:79 0.000509515
63 *268:23 *369:63 2.63501e-05
64 *268:29 *369:28 0.00377066
65 *268:29 *369:63 0.00519896
66 *298:11 *11533:DI[7] 0
67 *330:7 *11542:DI[7] 0
68 *358:10 *369:41 0.0012107
69 *363:40 *369:81 0
70 *367:18 *369:18 0.00736814
71 *367:76 *369:81 0.000404568
*RES
1 *11493:X *369:18 45.4446 
2 *369:18 *369:28 46.0136 
3 *369:28 *11515:DI[7] 3 
4 *369:28 *369:39 4.5 
5 *369:39 *369:41 391.429 
6 *369:41 *11533:DI[7] 8.61607 
7 *369:18 *369:63 30.5572 
8 *369:63 *11524:DI[7] 2.11607 
9 *369:63 *369:79 32.6964 
10 *369:79 *369:81 390.518 
11 *369:81 *11542:DI[7] 34.9018 
*END

*D_NET *370 0.00154056
*CONN
*I *11494:A I *D sky130_fd_sc_hd__dlygate4sd3_1
*I *11504:X O *D sky130_fd_sc_hd__dlygate4sd3_1
*CAP
1 *11494:A 0.000307255
2 *11504:X 0.000307255
3 *11494:A *11552:A 0.000150618
4 *11494:A *580:12 5.04705e-05
5 *11494:A *582:10 0
6 *11494:A *601:12 0.000142856
7 *11494:A *626:16 0.000576056
8 *110:8 *11494:A 6.05161e-06
*RES
1 *11504:X *11494:A 36.3679 
*END

*D_NET *371 0.031328
*CONN
*I *11511:A I *D sky130_fd_sc_hd__buf_12
*I *11555:X O *D sky130_fd_sc_hd__buf_12
*CAP
1 *11511:A 0.000291567
2 *11555:X 0.001442
3 *371:44 0.00169265
4 *371:42 0.0017035
5 *371:38 0.000969997
6 *371:30 0.00213373
7 *371:18 0.00290814
8 *11511:A *504:12 0.000259676
9 *371:18 *11438:A 0.000626899
10 *371:18 *11460:A 0
11 *371:18 *11510:A 3.32232e-05
12 *371:18 *11555:A 2.80881e-05
13 *371:18 *11562:A 4.59075e-05
14 *371:18 *11591:A 6.94952e-05
15 *371:18 *584:28 0.00029892
16 *371:18 *584:40 0.000169096
17 *371:18 *601:22 1.21289e-05
18 *371:30 *578:10 7.09632e-05
19 *371:30 *584:56 0.000316184
20 *371:38 *404:20 0.000622588
21 *371:38 *605:6 0.00387387
22 *371:44 *614:16 0.000950035
23 *11298:A1 *371:44 0.000397496
24 *11397:A *371:30 0.000146474
25 *11487:A *371:18 0
26 *115:30 *371:44 0.00145184
27 *115:37 *371:44 0.000871015
28 *117:65 *371:30 0.00141447
29 *118:43 *371:18 0.000488071
30 *122:52 *371:18 0.000569201
31 *165:34 *371:30 0.000121573
32 *169:28 *371:38 0.00271474
33 *172:34 *371:44 0.000832913
34 *181:22 *371:44 0.00294839
35 *226:34 *11511:A 9.26565e-05
36 *226:51 *11511:A 9.25014e-06
37 *338:28 *371:30 2.13481e-06
38 *338:38 *371:42 0.000121707
39 *338:38 *371:44 0.0005218
40 *369:18 *11511:A 0.000105582
*RES
1 *11555:X *371:18 48.2821 
2 *371:18 *371:30 35.2679 
3 *371:30 *371:38 47.0179 
4 *371:38 *371:42 3.83929 
5 *371:42 *371:44 50.2321 
6 *371:44 *11511:A 25.4071 
*END

*D_NET *372 0.229841
*CONN
*I *11542:DI[6] I *D CF_SRAM_1024x32
*I *11524:DI[6] I *D CF_SRAM_1024x32
*I *11533:DI[6] I *D CF_SRAM_1024x32
*I *11515:DI[6] I *D CF_SRAM_1024x32
*I *11329:X O *D sky130_fd_sc_hd__buf_12
*CAP
1 *11542:DI[6] 0.00254157
2 *11524:DI[6] 0.00726967
3 *11533:DI[6] 0.00016967
4 *11515:DI[6] 8.91683e-05
5 *11329:X 0.00352379
6 *372:73 0.0103178
7 *372:71 0.00922082
8 *372:41 0.00678176
9 *372:39 0.00661209
10 *372:28 0.0073019
11 *372:18 0.0165616
12 *11524:DI[6] *549:127 4.28968e-05
13 *11533:DI[6] *11533:BEN[6] 2.09869e-05
14 *11542:DI[6] *631:110 0
15 *372:18 *376:18 0.00108752
16 *372:18 *448:28 0.000177227
17 *372:18 *476:26 5.28259e-05
18 *372:28 *378:89 0.000173562
19 *372:28 *389:36 0.000334421
20 *372:41 *380:42 0.0299458
21 *372:41 *549:62 0.000328026
22 *957:DIODE *372:71 0.000180355
23 *1172:DIODE *11542:DI[6] 0
24 *11312:A0 *372:71 0.000920927
25 *11312:A1 *372:71 6.44554e-05
26 *11312:S *372:71 4.13496e-05
27 *144:8 *372:28 0.000112823
28 *156:8 *372:28 0.00054662
29 *168:43 *372:18 0.000163481
30 *174:69 *372:18 0.00880795
31 *189:8 *372:71 0.000750939
32 *228:32 *372:18 6.80212e-05
33 *233:17 *11515:DI[6] 9.31011e-05
34 *233:17 *372:28 5.96516e-05
35 *247:15 *11524:DI[6] 0.000214674
36 *257:26 *372:71 0.000467037
37 *264:29 *11524:DI[6] 0.00194978
38 *264:29 *372:28 0.00419151
39 *265:11 *11524:DI[6] 0.000107064
40 *265:11 *372:71 0.000180348
41 *265:17 *11524:DI[6] 2.11419e-05
42 *265:53 *11524:DI[6] 0.00848811
43 *265:53 *372:28 0.00931178
44 *265:63 *372:28 0.000154511
45 *268:29 *11524:DI[6] 0
46 *297:9 *11533:DI[6] 0
47 *329:7 *11542:DI[6] 0
48 *367:42 *372:41 0.0299531
49 *367:76 *372:73 0.0295305
50 *369:28 *372:28 0
51 *369:41 *372:41 0.00066106
52 *369:81 *372:73 0.0302478
*RES
1 *11329:X *372:18 46.5099 
2 *372:18 *372:28 48.1717 
3 *372:28 *11515:DI[6] 1.76786 
4 *372:28 *372:39 4.5 
5 *372:39 *372:41 391.429 
6 *372:41 *11533:DI[6] 7.8125 
7 *372:18 *11524:DI[6] 37.8509 
8 *11524:DI[6] *372:71 33.7054 
9 *372:71 *372:73 390.821 
10 *372:73 *11542:DI[6] 34.5089 
*END

*D_NET *373 0.00181636
*CONN
*I *11469:A I *D sky130_fd_sc_hd__dlygate4sd3_1
*I *11340:X O *D sky130_fd_sc_hd__dlygate4sd3_1
*CAP
1 *11469:A 0.000412685
2 *11340:X 0.000412685
3 *11469:A *11340:A 9.99853e-05
4 *11469:A *11564:A 0.000326816
5 *11469:A *448:16 0.000267731
6 *11469:A *460:12 9.11048e-06
7 *11469:A *609:12 1.96149e-05
8 *122:93 *11469:A 0.000267731
*RES
1 *11340:X *11469:A 37.2429 
*END

*D_NET *374 0.175898
*CONN
*I *11533:DI[15] I *D CF_SRAM_1024x32
*I *11542:DI[15] I *D CF_SRAM_1024x32
*I *11524:DI[15] I *D CF_SRAM_1024x32
*I *11515:DI[15] I *D CF_SRAM_1024x32
*I *11351:X O *D sky130_fd_sc_hd__buf_12
*CAP
1 *11533:DI[15] 0.000674509
2 *11542:DI[15] 0.001889
3 *11524:DI[15] 0.00517369
4 *11515:DI[15] 0.000584241
5 *11351:X 0.00116562
6 *374:83 0.0205118
7 *374:81 0.0199445
8 *374:60 0.0137948
9 *374:58 0.0135204
10 *374:24 0.0111714
11 *374:18 0.015419
12 *11515:DI[15] *11515:BEN[15] 0
13 *11515:DI[15] *558:35 6.05161e-06
14 *11524:DI[15] *11524:BEN[15] 0
15 *11524:DI[15] *558:359 0.00294095
16 *11524:DI[15] *558:367 0.000903273
17 *11533:DI[15] *389:66 4.1019e-05
18 *11542:DI[15] *11542:BEN[15] 0
19 *374:24 *558:359 0.0255475
20 *374:60 *376:97 0.00707044
21 *374:60 *378:41 0
22 *374:60 *387:114 0
23 *374:60 *396:52 0.00440788
24 *374:60 *400:50 0.0137414
25 *374:60 *402:10 0.0102313
26 *374:60 *409:10 0
27 *374:60 *577:12 0.00418336
28 *374:83 *558:159 0
29 *826:DIODE *374:58 0.000513031
30 *11524:vpwrpc *11524:DI[15] 0.00104073
31 *11542:vpwrpc *374:83 0.000295627
32 *147:28 *374:24 0.000118028
33 *210:11 *374:24 0.000116612
34 *211:13 *11515:DI[15] 0
35 *243:5 *374:58 7.4402e-05
36 *247:21 *11524:DI[15] 1.94879e-05
37 *252:29 *374:18 4.70487e-05
38 *253:29 *374:18 1.1192e-05
39 *254:23 *11524:DI[15] 1.94879e-05
40 *275:18 *11533:DI[15] 0.000354099
41 *304:47 *374:81 0.000138604
42 *307:13 *11542:DI[15] 0
43 *307:13 *374:81 8.85532e-05
44 *327:17 *374:81 0.000138604
*RES
1 *11351:X *374:18 28.6501 
2 *374:18 *374:24 45.7018 
3 *374:24 *11515:DI[15] 12.9554 
4 *374:18 *11524:DI[15] 24.3263 
5 *11524:DI[15] *374:58 25.3482 
6 *374:58 *374:60 391.125 
7 *374:60 *11542:DI[15] 26.5446 
8 *11542:DI[15] *374:81 11.8832 
9 *374:81 *374:83 53.9889 
10 *374:83 *11533:DI[15] 13.954 
*END

*D_NET *375 7.58312e-05
*CONN
*I *11496:A I *D sky130_fd_sc_hd__dlygate4sd3_1
*I *11362:X O *D sky130_fd_sc_hd__dlygate4sd3_1
*CAP
1 *11496:A 2.19818e-05
2 *11362:X 2.19818e-05
3 *11496:A *599:12 3.18676e-05
*RES
1 *11362:X *11496:A 19.1357 
*END

*D_NET *376 0.217222
*CONN
*I *11542:DI[5] I *D CF_SRAM_1024x32
*I *11524:DI[5] I *D CF_SRAM_1024x32
*I *11533:DI[5] I *D CF_SRAM_1024x32
*I *11515:DI[5] I *D CF_SRAM_1024x32
*I *11373:X O *D sky130_fd_sc_hd__buf_12
*CAP
1 *11542:DI[5] 0.00148494
2 *11524:DI[5] 0.000139047
3 *11533:DI[5] 0.00025692
4 *11515:DI[5] 0.000437659
5 *11373:X 0.00659166
6 *376:97 0.00880573
7 *376:95 0.00892365
8 *376:87 0.00237285
9 *376:79 0.00124291
10 *376:67 0.0126129
11 *376:48 0.0087813
12 *376:46 0.00878827
13 *376:28 0.0149359
14 *376:18 0.0328269
15 *11533:DI[5] *11533:BEN[5] 0
16 *376:28 *11524:DI[4] 0
17 *376:28 *380:28 0
18 *376:46 *380:28 6.7619e-05
19 *376:46 *387:58 0.000741525
20 *376:48 *383:64 0
21 *376:48 *383:72 0.000191144
22 *376:48 *385:81 0.0270292
23 *376:48 *387:66 0
24 *376:48 *555:41 0.000524754
25 *376:48 *590:14 0.000629308
26 *376:67 *11524:DI[4] 0
27 *376:67 *549:143 6.3494e-05
28 *376:79 *11447:A 0
29 *376:87 *11478:A 3.14163e-05
30 *376:87 *398:10 0.00296595
31 *376:87 *576:8 0.00304022
32 *376:95 *394:106 2.09897e-05
33 *376:95 *398:10 0.00120969
34 *376:95 *418:30 0.000351244
35 *376:95 *422:32 0.000101595
36 *376:95 *463:71 0.000654699
37 *376:95 *465:10 0.00138393
38 *376:97 *391:44 0.00112626
39 *376:97 *394:108 0.00596094
40 *376:97 *400:50 0.00290661
41 *376:97 *402:10 0.00500716
42 *376:97 *422:74 0.0239228
43 *740:DIODE *376:48 0.000106403
44 *748:DIODE *376:28 9.63133e-05
45 *801:DIODE *376:28 5.33005e-05
46 *1170:DIODE *11542:DI[5] 0.000206745
47 *150:12 *376:28 6.33321e-05
48 *153:20 *376:28 7.59402e-06
49 *155:16 *376:48 6.8646e-06
50 *157:16 *376:48 0.00658927
51 *158:10 *376:46 6.57032e-05
52 *174:69 *376:18 0
53 *201:167 *376:28 6.13772e-05
54 *229:22 *376:48 0.00155291
55 *232:7 *11515:DI[5] 0.000354816
56 *232:7 *376:28 0.0001283
57 *241:72 *376:28 4.08637e-05
58 *247:15 *376:67 8.7326e-06
59 *264:5 *11524:DI[5] 8.59671e-05
60 *264:19 *376:67 4.06508e-05
61 *264:61 *11524:DI[5] 1.98839e-05
62 *264:61 *376:79 0.000386791
63 *271:14 *376:48 0.00440095
64 *296:9 *11533:DI[5] 0.000212961
65 *328:7 *11542:DI[5] 2.15245e-05
66 *353:10 *376:46 0.000741525
67 *353:10 *376:48 0.00135081
68 *354:10 *376:48 0.00451585
69 *357:10 *376:48 0.0018135
70 *372:18 *376:18 0.00108752
71 *374:60 *376:97 0.00707044
*RES
1 *11373:X *376:18 46.5132 
2 *376:18 *376:28 42.3031 
3 *376:28 *11515:DI[5] 7.83036 
4 *376:28 *376:46 24.3929 
5 *376:46 *376:48 382.929 
6 *376:48 *11533:DI[5] 10.375 
7 *376:18 *376:67 33.812 
8 *376:67 *11524:DI[5] 2.49107 
9 *376:67 *376:79 12.4286 
10 *376:79 *376:87 47.7143 
11 *376:87 *376:95 45 
12 *376:95 *376:97 327.982 
13 *376:97 *11542:DI[5] 23.9286 
*END

*D_NET *377 0.00217891
*CONN
*I *11474:A I *D sky130_fd_sc_hd__dlygate4sd3_1
*I *11384:X O *D sky130_fd_sc_hd__dlygate4sd3_1
*CAP
1 *11474:A 0.000485801
2 *11384:X 0.000485801
3 *11474:A *11384:A 0.000183726
4 *11474:A *11563:A 0.000326627
5 *11474:A *11613:A 0.000174322
6 *11474:A *448:16 0.000302665
7 *11474:A *449:14 9.11048e-06
8 *11474:A *607:16 0.000115969
9 *349:12 *11474:A 9.48865e-05
*RES
1 *11384:X *11474:A 37.9571 
*END

*D_NET *378 0.215834
*CONN
*I *11533:DI[14] I *D CF_SRAM_1024x32
*I *11515:DI[14] I *D CF_SRAM_1024x32
*I *11542:DI[14] I *D CF_SRAM_1024x32
*I *11524:DI[14] I *D CF_SRAM_1024x32
*I *11395:X O *D sky130_fd_sc_hd__buf_12
*CAP
1 *11533:DI[14] 0.000743416
2 *11515:DI[14] 0.000862937
3 *11542:DI[14] 0.00151459
4 *11524:DI[14] 0.00659797
5 *11395:X 0.00226406
6 *378:89 0.00771484
7 *378:87 0.00700949
8 *378:81 0.00125619
9 *378:79 0.00158186
10 *378:59 0.0117744
11 *378:41 0.0126176
12 *378:39 0.0121327
13 *378:16 0.0183801
14 *11524:DI[14] *11524:BEN[14] 0
15 *11533:DI[14] *11533:BEN[14] 0
16 *11542:DI[14] *11542:BEN[14] 7.90353e-05
17 *378:41 *380:72 0.000235597
18 *378:41 *385:40 0.00462223
19 *378:41 *387:114 0.0289862
20 *378:41 *389:104 0
21 *378:41 *420:10 0.013038
22 *378:59 *11524:DI[13] 0
23 *378:59 *383:28 0
24 *378:81 *387:50 0.000545384
25 *378:81 *389:36 8.46259e-06
26 *378:81 *558:127 1.88933e-05
27 *378:89 *11515:AD[1] 0.000163857
28 *378:89 *11515:AD[2] 4.30573e-05
29 *378:89 *11515:ScanInDR 0.000101233
30 *378:89 *11515:AD[8] 0
31 *378:89 *11515:DI[3] 1.90936e-05
32 *378:89 *11515:DI[17] 1.94879e-05
33 *378:89 *380:28 0.000351133
34 *378:89 *385:79 0.00247338
35 *378:89 *389:36 0.00053404
36 *378:89 *391:86 0.00240863
37 *378:89 *394:54 0.000439978
38 *378:89 *461:36 0.000781483
39 *378:89 *463:36 0
40 *378:89 *467:24 1.27348e-05
41 *378:89 *472:24 0.00071914
42 *378:89 *474:78 0.00122146
43 *378:89 *474:80 0.0167865
44 *378:89 *478:42 0
45 *378:89 *478:48 0.0167003
46 *378:89 *549:78 0.000437457
47 *378:89 *558:127 0.000627212
48 *378:89 *558:129 0
49 *820:DIODE *378:39 0.000163455
50 *152:14 *11515:DI[14] 0.000120065
51 *152:14 *378:79 0.000270503
52 *168:86 *378:16 4.86429e-05
53 *182:81 *378:16 0
54 *182:81 *378:59 0
55 *201:167 *11515:DI[14] 0.000117977
56 *201:167 *378:79 0.000278323
57 *206:11 *378:81 0.00269016
58 *210:7 *11515:DI[14] 0.000746189
59 *213:18 *378:89 0.000235837
60 *232:21 *378:81 0.000436071
61 *232:21 *378:89 0.00149558
62 *232:23 *378:81 2.33251e-05
63 *233:19 *378:81 0.00458372
64 *234:17 *378:81 0.000898073
65 *242:5 *378:39 9.13501e-05
66 *242:13 *11524:DI[14] 0.00320759
67 *242:13 *378:59 0.0226384
68 *242:114 *378:39 0.0010715
69 *242:155 *378:39 0.000163455
70 *243:11 *11524:DI[14] 1.94879e-05
71 *252:29 *378:16 4.70487e-05
72 *254:13 *11524:DI[14] 1.94879e-05
73 *265:37 *378:41 0.000132585
74 *274:10 *11533:DI[14] 0
75 *306:12 *11542:DI[14] 0
76 *365:26 *378:81 0.000337325
77 *372:28 *378:89 0.000173562
78 *374:60 *378:41 0
*RES
1 *11395:X *378:16 27.3707 
2 *378:16 *11524:DI[14] 26.7513 
3 *11524:DI[14] *378:39 23.1696 
4 *378:39 *378:41 390.821 
5 *378:41 *11542:DI[14] 23.6875 
6 *378:16 *378:59 46.0039 
7 *378:59 *11515:DI[14] 19.3214 
8 *378:59 *378:79 16.0268 
9 *378:79 *378:81 63.875 
10 *378:81 *378:87 9.73214 
11 *378:87 *378:89 321.607 
12 *378:89 *11533:DI[14] 15.0625 
*END

*D_NET *379 0.000104357
*CONN
*I *11498:A I *D sky130_fd_sc_hd__dlygate4sd3_1
*I *11406:X O *D sky130_fd_sc_hd__dlygate4sd3_1
*CAP
1 *11498:A 7.67105e-06
2 *11406:X 7.67105e-06
3 *11498:A *592:24 5.71472e-05
4 *11498:A *599:12 3.18676e-05
*RES
1 *11406:X *11498:A 19.1357 
*END

*D_NET *380 0.219906
*CONN
*I *11542:DI[4] I *D CF_SRAM_1024x32
*I *11524:DI[4] I *D CF_SRAM_1024x32
*I *11533:DI[4] I *D CF_SRAM_1024x32
*I *11515:DI[4] I *D CF_SRAM_1024x32
*I *11417:X O *D sky130_fd_sc_hd__buf_12
*CAP
1 *11542:DI[4] 0.00123322
2 *11524:DI[4] 0.0109868
3 *11533:DI[4] 9.73666e-05
4 *11515:DI[4] 0.000156115
5 *11417:X 0.00420151
6 *380:72 0.011031
7 *380:70 0.0108817
8 *380:42 0.00727276
9 *380:40 0.00717539
10 *380:28 0.0109745
11 *380:18 0.0249229
12 *11524:DI[4] *11524:BEN[4] 1.15292e-05
13 *11524:DI[4] *549:143 0.000140979
14 *11524:DI[4] *549:157 0.000119454
15 *380:18 *11615:A 9.60337e-06
16 *380:18 *478:18 0.00019643
17 *380:18 *483:18 0.0099645
18 *380:28 *389:36 0.000131375
19 *380:28 *549:78 9.36619e-05
20 *380:72 *385:40 0.0297628
21 *380:72 *389:104 0.025098
22 *746:DIODE *380:28 0
23 *941:DIODE *380:70 0.000509902
24 *1160:DIODE *11542:DI[4] 0.000180196
25 *153:20 *380:28 4.65519e-05
26 *158:10 *380:28 7.08853e-05
27 *170:89 *380:18 0
28 *171:69 *380:18 0
29 *202:16 *380:18 0.00336986
30 *221:32 *380:18 8.50795e-06
31 *231:11 *11515:DI[4] 3.43463e-05
32 *231:11 *380:28 1.0878e-05
33 *238:81 *380:28 0.00102693
34 *247:15 *11524:DI[4] 0.000265447
35 *263:7 *380:70 6.95411e-05
36 *295:9 *11533:DI[4] 6.3927e-05
37 *327:5 *11542:DI[4] 3.13013e-05
38 *358:10 *380:42 0
39 *369:41 *380:42 0.0291564
40 *372:41 *380:42 0.0299458
41 *376:28 *11524:DI[4] 0
42 *376:28 *380:28 0
43 *376:46 *380:28 6.7619e-05
44 *376:67 *11524:DI[4] 0
45 *378:41 *380:72 0.000235597
46 *378:89 *380:28 0.000351133
*RES
1 *11417:X *380:18 47.3415 
2 *380:18 *380:28 46.2412 
3 *380:28 *11515:DI[4] 2.63393 
4 *380:28 *380:40 4.5 
5 *380:40 *380:42 393.25 
6 *380:42 *11533:DI[4] 6.61607 
7 *380:18 *11524:DI[4] 40.6558 
8 *11524:DI[4] *380:70 21.7589 
9 *380:70 *380:72 392.339 
10 *380:72 *11542:DI[4] 20.9911 
*END

*D_NET *381 0.00171795
*CONN
*I *11476:A I *D sky130_fd_sc_hd__dlygate4sd3_1
*I *11426:X O *D sky130_fd_sc_hd__dlygate4sd3_1
*CAP
1 *11476:A 0.000401902
2 *11426:X 0.000401902
3 *11476:A *11426:A 0.000497573
4 *11476:A *11561:A 0.000103924
5 *11476:A *11612:A 0
6 *11476:A *448:16 0.000227713
7 *11476:A *599:12 6.05161e-06
8 *349:12 *11476:A 7.88857e-05
*RES
1 *11426:X *11476:A 37.6536 
*END

*D_NET *382 0.0277466
*CONN
*I *11204:C I *D sky130_fd_sc_hd__and4b_2
*I *11200:A I *D sky130_fd_sc_hd__nand2_2
*I *11556:X O *D sky130_fd_sc_hd__clkbuf_2
*CAP
1 *11204:C 0.000589626
2 *11200:A 8.62857e-05
3 *11556:X 0.000228506
4 *382:51 0.00170992
5 *382:47 0.00181602
6 *382:20 0.00119425
7 *382:16 0.00252394
8 *382:14 0.00234021
9 *11200:A *575:22 0.000181796
10 *11200:A *591:28 0.00022459
11 *11200:A *591:51 6.76256e-05
12 *11200:A *601:12 1.24368e-05
13 *11204:C *591:57 0.000586458
14 *382:16 *586:28 0.00250114
15 *382:16 *591:12 0.00219524
16 *382:16 *595:16 4.7812e-05
17 *382:16 *627:16 0.000624093
18 *382:20 *11585:A 1.21384e-05
19 *382:20 *579:10 5.7599e-05
20 *382:20 *598:12 0.000304225
21 *382:47 *575:26 2.06178e-05
22 *382:47 *579:10 7.25114e-05
23 *382:47 *598:12 0.000282469
24 *382:47 *601:10 3.43367e-05
25 *382:47 *625:22 0.000915064
26 *382:47 *628:10 0.00211502
27 *382:51 *591:51 0.000386734
28 *382:51 *591:57 9.00926e-05
29 wbs_dat_o[3] *382:20 0.000601636
30 *11266:A1 *382:47 0.000547218
31 *11414:A *382:20 0
32 *11556:A *382:14 4.79842e-05
33 *11597:A *382:14 0
34 *112:8 *11204:C 3.80953e-06
35 *123:16 *382:47 6.12668e-05
36 *148:38 *382:51 8.70387e-05
37 *201:46 *382:47 9.65816e-05
38 *206:11 *382:51 0.00263143
39 *210:11 *382:51 0
40 *233:19 *382:51 0.00244885
*RES
1 *11556:X *382:14 22.6482 
2 *382:14 *382:16 67.2768 
3 *382:16 *382:20 14.6429 
4 *382:20 *11200:A 16.8179 
5 *382:20 *382:47 41.1368 
6 *382:47 *382:51 45.6071 
7 *382:51 *11204:C 16.4071 
*END

*D_NET *383 0.209896
*CONN
*I *11542:DI[13] I *D CF_SRAM_1024x32
*I *11524:DI[13] I *D CF_SRAM_1024x32
*I *11533:DI[13] I *D CF_SRAM_1024x32
*I *11515:DI[13] I *D CF_SRAM_1024x32
*I *11428:X O *D sky130_fd_sc_hd__buf_12
*CAP
1 *11542:DI[13] 0.0013199
2 *11524:DI[13] 0.00780044
3 *11533:DI[13] 7.41517e-05
4 *11515:DI[13] 0.00102836
5 *11428:X 0.00140752
6 *383:100 0.0157052
7 *383:98 0.0153253
8 *383:72 0.00114756
9 *383:64 0.00653296
10 *383:62 0.00680152
11 *383:54 0.00204044
12 *383:48 0.00179912
13 *383:46 0.00110065
14 *383:28 0.0200611
15 *383:18 0.0273007
16 *11515:DI[13] *558:57 4.41767e-05
17 *11524:DI[13] *11524:BEN[13] 0
18 *11542:DI[13] *11542:BEN[13] 7.17435e-05
19 *383:18 *11428:A 1.90936e-05
20 *383:18 *11432:A 2.06178e-05
21 *383:18 *387:18 0.00321245
22 *383:28 *387:18 9.57462e-05
23 *383:28 *474:26 0.000206079
24 *383:48 *549:32 4.58835e-05
25 *383:48 *558:123 7.05143e-06
26 *383:48 *558:127 1.5942e-05
27 *383:48 *588:22 0.00431571
28 *383:54 *558:123 7.39203e-06
29 *383:54 *558:127 0.00215363
30 *383:62 *11515:DI[2] 4.9452e-05
31 *383:62 *558:127 8.05808e-05
32 *383:62 *558:129 0.000919769
33 *383:62 *631:12 0.000688095
34 *383:64 *387:66 0.00741118
35 *383:64 *387:74 0.00230011
36 *383:64 *389:44 0.0155708
37 *383:64 *391:88 0.00212409
38 *383:64 *629:44 0.000988064
39 *383:72 *11533:DI[12] 0.000132806
40 *383:72 *387:74 0
41 *383:72 *389:66 0.00164721
42 *383:72 *391:88 0.000453074
43 *383:100 *389:104 0.0288623
44 *383:100 *405:8 0.0106326
45 *383:100 *478:80 0
46 *804:DIODE *383:98 0.000163455
47 *971:DIODE *383:48 0.00020212
48 *972:DIODE *383:48 6.98302e-05
49 *150:12 *383:54 0
50 *150:12 *383:62 0.000410308
51 *152:12 *383:54 0.00208444
52 *152:14 *383:48 0.00017345
53 *180:62 *383:18 0.00133445
54 *180:62 *383:28 0.000310859
55 *197:18 *383:64 0.00322472
56 *201:167 *383:62 0
57 *205:21 *383:64 4.33002e-05
58 *208:11 *11515:DI[13] 4.26825e-05
59 *209:17 *11515:DI[13] 7.05511e-05
60 *216:21 *383:64 4.33002e-05
61 *227:21 *383:64 4.33002e-05
62 *234:19 *383:48 0.0037408
63 *241:5 *383:98 7.49185e-05
64 *241:9 *383:98 0.00108484
65 *242:13 *11524:DI[13] 0
66 *243:11 *11524:DI[13] 0.000162032
67 *243:13 *383:28 0
68 *254:13 *11524:DI[13] 0.000162032
69 *271:14 *383:72 0.00262863
70 *273:12 *383:72 0
71 *305:13 *11542:DI[13] 0
72 *357:10 *383:72 0.00104467
73 *369:41 *383:64 0.00106939
74 *376:48 *383:64 0
75 *376:48 *383:72 0.000191144
76 *378:59 *11524:DI[13] 0
77 *378:59 *383:28 0
*RES
1 *11428:X *383:18 32.3579 
2 *383:18 *383:28 43.8858 
3 *383:28 *11515:DI[13] 17.2842 
4 *383:28 *383:46 3.41 
5 *383:46 *383:48 55.375 
6 *383:48 *383:54 29.3393 
7 *383:54 *383:62 40.2768 
8 *383:62 *383:64 248.295 
9 *383:64 *383:72 48.6339 
10 *383:72 *11533:DI[13] 1.41964 
11 *383:18 *11524:DI[13] 29.1411 
12 *11524:DI[13] *383:98 21.0982 
13 *383:98 *383:100 390.821 
14 *383:100 *11542:DI[13] 21.6518 
*END

*D_NET *384 0.00258798
*CONN
*I *11502:A I *D sky130_fd_sc_hd__dlygate4sd3_1
*I *11429:X O *D sky130_fd_sc_hd__dlygate4sd3_1
*CAP
1 *11502:A 0.000455543
2 *11429:X 0.000455543
3 *11502:A *11429:A 5.49544e-05
4 *11502:A *575:22 0.000488025
5 *11502:A *591:28 0.000225616
6 *11502:A *595:12 0.000162295
7 *11502:A *623:8 8.42191e-05
8 *11324:D *11502:A 9.24234e-05
9 *11381:A *11502:A 0.00056936
*RES
1 *11429:X *11502:A 41.8321 
*END

*D_NET *385 0.218346
*CONN
*I *11533:DI[3] I *D CF_SRAM_1024x32
*I *11515:DI[3] I *D CF_SRAM_1024x32
*I *11542:DI[3] I *D CF_SRAM_1024x32
*I *11524:DI[3] I *D CF_SRAM_1024x32
*I *11430:X O *D sky130_fd_sc_hd__buf_12
*CAP
1 *11533:DI[3] 0.000434343
2 *11515:DI[3] 0.000413944
3 *11542:DI[3] 0.00128438
4 *11524:DI[3] 0.0117264
5 *11430:X 0.0050711
6 *385:81 0.00744907
7 *385:79 0.00778255
8 *385:58 0.00871092
9 *385:40 0.0120877
10 *385:38 0.0118837
11 *385:16 0.0232463
12 *11515:DI[3] *11413:A 2.12805e-05
13 *11515:DI[3] *389:36 9.14771e-06
14 *11524:DI[3] *11524:BEN[3] 0
15 *11524:DI[3] *571:34 0
16 *11533:DI[3] *11533:BEN[3] 0
17 *385:16 *11614:A 0
18 *385:16 *391:20 0.000445064
19 *385:16 *485:16 0.010982
20 *385:38 *11456:A 0
21 *385:40 *387:114 0.000478884
22 *385:40 *391:44 0
23 *385:40 *420:10 0.013038
24 *385:58 *391:20 2.55526e-05
25 *385:58 *485:16 0.000225295
26 *385:79 *11515:ScanInCC 6.14834e-05
27 *385:79 *11515:DI[1] 9.22459e-05
28 *385:79 *387:64 0.00013921
29 *385:79 *389:36 0.00124625
30 *385:81 *389:56 0.00235745
31 *385:81 *394:60 0.0141638
32 *385:81 *394:66 3.81817e-05
33 *385:81 *394:68 0.010597
34 *385:81 *478:42 2.07414e-05
35 *699:DIODE *385:79 4.02038e-05
36 *743:DIODE *11515:DI[3] 0.000584089
37 *939:DIODE *385:38 0.000531012
38 *11298:B2 *385:16 0.000135127
39 *230:7 *11515:DI[3] 0.000291951
40 *247:15 *11524:DI[3] 6.87181e-05
41 *262:7 *385:38 7.11447e-05
42 *262:15 *11524:DI[3] 0
43 *262:15 *385:58 0.00744456
44 *263:15 *11524:DI[3] 0
45 *294:9 *11533:DI[3] 0
46 *326:7 *11542:DI[3] 0
47 *326:74 *11542:DI[3] 0
48 *353:10 *385:81 0.0012401
49 *357:10 *385:81 0
50 *376:48 *385:81 0.0270292
51 *378:41 *385:40 0.00462223
52 *378:89 *11515:DI[3] 1.90936e-05
53 *378:89 *385:79 0.00247338
54 *380:72 *385:40 0.0297628
*RES
1 *11430:X *385:16 46.4081 
2 *385:16 *11524:DI[3] 43.6729 
3 *11524:DI[3] *385:38 22.1518 
4 *385:38 *385:40 391.125 
5 *385:40 *11542:DI[3] 22.7589 
6 *385:16 *385:58 32.3833 
7 *385:58 *11515:DI[3] 13.5268 
8 *385:58 *385:79 42.8304 
9 *385:79 *385:81 360.464 
10 *385:81 *11533:DI[3] 12.0804 
*END

*D_NET *386 0.000682415
*CONN
*I *11480:A I *D sky130_fd_sc_hd__dlygate4sd3_1
*I *11431:X O *D sky130_fd_sc_hd__dlygate4sd3_1
*CAP
1 *11480:A 0.000299753
2 *11431:X 0.000299753
3 *11480:A *11560:A 0
4 *11480:A *11595:A 2.57618e-05
5 *11480:A *601:24 5.71472e-05
6 *11423:A *11480:A 0
7 *11475:A *11480:A 0
*RES
1 *11431:X *11480:A 32.2071 
*END

*D_NET *387 0.219046
*CONN
*I *11542:DI[12] I *D CF_SRAM_1024x32
*I *11524:DI[12] I *D CF_SRAM_1024x32
*I *11533:DI[12] I *D CF_SRAM_1024x32
*I *11515:DI[12] I *D CF_SRAM_1024x32
*I *11432:X O *D sky130_fd_sc_hd__buf_12
*CAP
1 *11542:DI[12] 0.00154899
2 *11524:DI[12] 0.000138966
3 *11533:DI[12] 0.000915599
4 *11515:DI[12] 0.000722565
5 *11432:X 0.00263957
6 *387:114 0.0120313
7 *387:112 0.01163
8 *387:100 0.00520962
9 *387:74 0.00193221
10 *387:72 0.00112515
11 *387:66 0.00373937
12 *387:64 0.00377731
13 *387:58 0.00162401
14 *387:56 0.00162089
15 *387:50 0.0011176
16 *387:28 0.0116748
17 *387:18 0.0165405
18 *11515:DI[12] *389:24 0
19 *11515:DI[12] *558:69 0.000164527
20 *11533:DI[12] *11533:DI[11] 2.39964e-05
21 *11533:DI[12] *389:66 2.46553e-05
22 *11533:DI[12] *391:88 0.000354218
23 *11542:DI[12] *11542:BEN[12] 0
24 *387:18 *11432:A 1.41706e-05
25 *387:28 *389:24 0
26 *387:50 *558:123 0.000746143
27 *387:50 *588:22 0.000224789
28 *387:56 *549:32 0.000131614
29 *387:58 *389:36 0.00583107
30 *387:58 *631:24 0.000657628
31 *387:58 *631:36 0.000949887
32 *387:58 *631:50 0.000776156
33 *387:64 *11515:ScanInCC 1.57547e-05
34 *387:66 *391:88 0.00310326
35 *387:66 *629:44 0.000988064
36 *387:74 *389:66 0
37 *387:74 *391:88 0.000188732
38 *387:100 *548:20 4.64488e-06
39 *387:114 *391:44 0.022847
40 *387:114 *402:10 0
41 *699:DIODE *387:64 0.000175673
42 *796:DIODE *387:112 0.000164334
43 *149:22 *387:72 0
44 *155:16 *387:66 0.0154391
45 *178:91 *387:18 0
46 *180:62 *387:18 8.6992e-05
47 *180:62 *387:28 0.000276285
48 *197:18 *387:66 0.00143945
49 *206:11 *387:50 0.00138876
50 *208:11 *11515:DI[12] 0.00073952
51 *232:23 *11515:DI[12] 6.86409e-05
52 *233:17 *387:58 0.00113974
53 *234:17 *387:50 0.000546444
54 *236:11 *387:50 0.00217971
55 *240:10 *11524:DI[12] 0
56 *240:18 *387:28 0.0209749
57 *240:18 *387:100 0.00276486
58 *240:90 *387:112 0
59 *240:94 *387:112 0.000259273
60 *241:49 *387:28 5.93692e-05
61 *241:49 *387:100 0.00192997
62 *243:13 *387:100 0
63 *247:15 *387:100 1.94879e-05
64 *249:29 *387:18 2.80925e-05
65 *272:10 *11533:DI[12] 0
66 *275:18 *387:74 0.0012456
67 *304:7 *11542:DI[12] 0
68 *304:11 *11542:DI[12] 7.78749e-05
69 *353:10 *387:58 0.000814343
70 *357:10 *11533:DI[12] 0.00182433
71 *358:10 *11533:DI[12] 0.00202007
72 *365:26 *387:50 0.000330767
73 *369:41 *11533:DI[12] 1.09232e-05
74 *369:41 *387:74 0.00396356
75 *374:60 *387:114 0
76 *376:46 *387:58 0.000741525
77 *376:48 *387:66 0
78 *378:41 *387:114 0.0289862
79 *378:81 *387:50 0.000545384
80 *383:18 *387:18 0.00321245
81 *383:28 *387:18 9.57462e-05
82 *383:64 *387:66 0.00741118
83 *383:64 *387:74 0.00230011
84 *383:72 *11533:DI[12] 0.000132806
85 *383:72 *387:74 0
86 *385:40 *387:114 0.000478884
87 *385:79 *387:64 0.00013921
*RES
1 *11432:X *387:18 34.9787 
2 *387:18 *387:28 44.1396 
3 *387:28 *11515:DI[12] 18.3715 
4 *387:28 *387:50 46.1868 
5 *387:50 *387:56 11.5893 
6 *387:56 *387:58 73.8929 
7 *387:58 *387:64 12.4107 
8 *387:64 *387:66 196.991 
9 *387:66 *387:72 7.0832 
10 *387:72 *387:74 49.9107 
11 *387:74 *11533:DI[12] 38.1607 
12 *387:18 *387:100 24.9172 
13 *387:100 *11524:DI[12] 2.15179 
14 *387:100 *387:112 21.4643 
15 *387:112 *387:114 392.339 
16 *387:114 *11542:DI[12] 24.1339 
*END

*D_NET *388 0.00174765
*CONN
*I *11483:A I *D sky130_fd_sc_hd__dlygate4sd3_1
*I *11433:X O *D sky130_fd_sc_hd__dlygate4sd3_1
*CAP
1 *11483:A 0.000540828
2 *11433:X 0.000540828
3 *11483:A *578:10 3.78803e-05
4 *11483:A *589:14 0.000439629
5 *11483:A *601:24 2.84109e-05
6 wbs_dat_o[12] *11483:A 0
7 *11479:A *11483:A 0.000160072
*RES
1 *11433:X *11483:A 36.7429 
*END

*D_NET *389 0.209753
*CONN
*I *11542:DI[11] I *D CF_SRAM_1024x32
*I *11524:DI[11] I *D CF_SRAM_1024x32
*I *11533:DI[11] I *D CF_SRAM_1024x32
*I *11515:DI[11] I *D CF_SRAM_1024x32
*I *11434:X O *D sky130_fd_sc_hd__buf_12
*CAP
1 *11542:DI[11] 0.00136456
2 *11524:DI[11] 0.00762856
3 *11533:DI[11] 0.00096226
4 *11515:DI[11] 0.000450918
5 *11434:X 0.00231651
6 *389:104 0.0114587
7 *389:102 0.0110111
8 *389:66 0.00153814
9 *389:56 0.00169507
10 *389:44 0.00410097
11 *389:42 0.00328993
12 *389:36 0.0028638
13 *389:24 0.0170563
14 *389:18 0.0230779
15 *11524:DI[11] *11524:BEN[11] 0
16 *11524:DI[11] *548:20 8.62441e-05
17 *11533:DI[11] *391:88 0.000348183
18 *11542:DI[11] *11542:BEN[11] 0
19 *389:24 *558:81 8.8089e-05
20 *389:36 *11515:DI[1] 9.36619e-05
21 *389:36 *478:42 6.6334e-05
22 *389:36 *549:78 0.000940539
23 *389:36 *558:81 0.000294178
24 *389:36 *558:93 0.00040147
25 *389:36 *558:107 0.000371626
26 *389:42 *11515:AD[3] 3.30107e-05
27 *389:42 *11515:AD[9] 0.000104759
28 *389:42 *478:28 8.24593e-06
29 *389:44 *391:88 0.00212298
30 *389:56 *394:66 0.00235745
31 *389:66 *391:88 0.000296678
32 *781:DIODE *389:102 0.000163455
33 *894:DIODE *389:18 0
34 *1076:DIODE *11542:DI[11] 0
35 *11515:DI[3] *389:36 9.14771e-06
36 *11515:DI[12] *389:24 0
37 *11533:DI[12] *11533:DI[11] 2.39964e-05
38 *11533:DI[12] *389:66 2.46553e-05
39 *11533:DI[15] *389:66 4.1019e-05
40 *178:55 *389:18 0.000228516
41 *180:62 *389:18 0.00494903
42 *207:15 *11515:DI[11] 0.000399709
43 *232:21 *389:36 0.000184135
44 *232:23 *389:24 0.000165345
45 *232:23 *389:36 0.00277976
46 *233:17 *389:36 3.3986e-05
47 *239:5 *389:102 0.000103964
48 *239:9 *389:102 0.00104622
49 *239:43 *389:102 0.000163455
50 *239:63 *11524:DI[11] 0
51 *239:63 *389:24 0
52 *240:18 *11524:DI[11] 0
53 *247:15 *11524:DI[11] 0.00026556
54 *249:29 *389:18 4.54213e-06
55 *265:37 *389:104 0.000134692
56 *271:10 *11533:DI[11] 0
57 *274:20 *389:56 6.81459e-05
58 *275:18 *389:66 0.00050317
59 *303:31 *11542:DI[11] 0
60 *353:10 *389:36 0.000199841
61 *358:10 *11533:DI[11] 0.00153637
62 *367:28 *389:36 0.000189711
63 *369:28 *389:36 4.49292e-05
64 *369:41 *11533:DI[11] 0.00286636
65 *369:41 *389:44 0.0155743
66 *372:28 *389:36 0.000334421
67 *378:41 *389:104 0
68 *378:81 *389:36 8.46259e-06
69 *378:89 *389:36 0.00053404
70 *380:28 *389:36 0.000131375
71 *380:72 *389:104 0.025098
72 *383:64 *389:44 0.0155708
73 *383:72 *389:66 0.00164721
74 *383:100 *389:104 0.0288623
75 *385:79 *389:36 0.00124625
76 *385:81 *389:56 0.00235745
77 *387:28 *389:24 0
78 *387:58 *389:36 0.00583107
79 *387:74 *389:66 0
*RES
1 *11434:X *389:18 36.1819 
2 *389:18 *389:24 41.8408 
3 *389:24 *11515:DI[11] 12.6339 
4 *389:24 *389:36 112.446 
5 *389:36 *389:42 14.0536 
6 *389:42 *389:44 193.196 
7 *389:44 *389:56 49.9821 
8 *389:56 *389:66 35.7321 
9 *389:66 *11533:DI[11] 44.5982 
10 *389:18 *11524:DI[11] 31.9705 
11 *11524:DI[11] *389:102 21.4732 
12 *389:102 *389:104 390.821 
13 *389:104 *11542:DI[11] 22.0982 
*END

*D_NET *390 0.000538516
*CONN
*I *11513:A I *D sky130_fd_sc_hd__dlygate4sd3_1
*I *11435:X O *D sky130_fd_sc_hd__dlygate4sd3_1
*CAP
1 *11513:A 0.000130316
2 *11435:X 0.000130316
3 *11513:A *600:12 5.85008e-05
4 *11513:A *626:8 9.60939e-05
5 *11231:B2 *11513:A 0.000123288
*RES
1 *11435:X *11513:A 30.1893 
*END

*D_NET *391 0.230897
*CONN
*I *11533:DI[2] I *D CF_SRAM_1024x32
*I *11515:DI[2] I *D CF_SRAM_1024x32
*I *11542:DI[2] I *D CF_SRAM_1024x32
*I *11524:DI[2] I *D CF_SRAM_1024x32
*I *11436:X O *D sky130_fd_sc_hd__buf_12
*CAP
1 *11533:DI[2] 0.000447216
2 *11515:DI[2] 0.000531192
3 *11542:DI[2] 0.00137198
4 *11524:DI[2] 0.000111436
5 *11436:X 0.00756685
6 *391:88 0.0267407
7 *391:86 0.027601
8 *391:68 0.00923622
9 *391:44 0.0113107
10 *391:42 0.0110013
11 *391:30 0.00753244
12 *391:20 0.0213228
13 *11542:DI[2] *11542:BEN[2] 0
14 *391:20 *11343:A 0.000107625
15 *391:20 *485:16 0
16 *391:20 *491:18 0.000891855
17 *391:20 *491:22 0.000580488
18 *391:20 *622:24 9.00983e-05
19 *391:44 *394:108 0.00588687
20 *391:44 *402:10 0.00101371
21 *391:44 *422:74 0.0261255
22 *391:68 *11524:DI[1] 0
23 *391:68 *394:24 0
24 *391:68 *485:16 0
25 *391:68 *491:22 2.32908e-05
26 *391:68 *558:129 5.76465e-05
27 *391:86 *11515:AD[9] 0.000132237
28 *391:86 *461:36 0.000278759
29 *391:86 *463:22 4.13107e-06
30 *391:86 *467:22 6.44294e-06
31 *391:86 *472:22 4.0758e-05
32 *391:86 *558:129 0.000607377
33 *391:88 *555:41 0.000118315
34 *391:88 *629:44 0.000183248
35 *736:DIODE *11515:DI[2] 0.000331866
36 *736:DIODE *391:68 0.000122101
37 *932:DIODE *391:42 7.95355e-05
38 *1142:DIODE *11542:DI[2] 0
39 *11533:DI[12] *391:88 0.000354218
40 *11533:DI[11] *391:88 0.000348183
41 *143:10 *391:20 0.000147853
42 *155:16 *391:88 0.00335096
43 *157:16 *391:88 0.0028409
44 *197:18 *391:88 0.000143349
45 *201:167 *391:68 8.56346e-05
46 *202:137 *391:30 0.00300031
47 *227:7 *11515:DI[2] 0.000155729
48 *229:22 *391:88 0.000258066
49 *237:13 *391:30 4.35849e-05
50 *237:15 *391:30 0
51 *237:15 *391:68 0
52 *247:15 *391:30 4.38243e-05
53 *259:7 *11524:DI[2] 6.86693e-05
54 *259:7 *391:42 6.05161e-06
55 *259:15 *391:30 0.0101469
56 *259:15 *391:68 0.00711698
57 *259:64 *391:42 0.000525917
58 *259:71 *391:42 8.86413e-05
59 *259:78 *391:42 7.95355e-05
60 *271:14 *391:88 0.000893487
61 *275:18 *391:88 0.000183372
62 *291:11 *11533:DI[2] 0
63 *323:7 *11542:DI[2] 0
64 *354:10 *391:88 0.000103363
65 *357:10 *391:88 0.00215274
66 *358:10 *391:88 0.00211204
67 *376:97 *391:44 0.00112626
68 *378:89 *391:86 0.00240863
69 *383:62 *11515:DI[2] 4.9452e-05
70 *383:64 *391:88 0.00212409
71 *383:72 *391:88 0.000453074
72 *385:16 *391:20 0.000445064
73 *385:40 *391:44 0
74 *385:58 *391:20 2.55526e-05
75 *387:66 *391:88 0.00310326
76 *387:74 *391:88 0.000188732
77 *387:114 *391:44 0.022847
78 *389:44 *391:88 0.00212298
79 *389:66 *391:88 0.000296678
*RES
1 *11436:X *391:20 48.1698 
2 *391:20 *391:30 41.0263 
3 *391:30 *11524:DI[2] 2.02679 
4 *391:30 *391:42 21.875 
5 *391:42 *391:44 391.125 
6 *391:44 *11542:DI[2] 24.4196 
7 *391:20 *391:68 40.4177 
8 *391:68 *11515:DI[2] 10.2411 
9 *391:68 *391:86 42.7576 
10 *391:86 *391:88 63.3278 
11 *391:88 *11533:DI[2] 14.6945 
*END

*D_NET *392 0.00123347
*CONN
*I *11338:A I *D sky130_fd_sc_hd__dlygate4sd3_1
*I *11437:X O *D sky130_fd_sc_hd__dlygate4sd3_1
*CAP
1 *11338:A 0.00043817
2 *11437:X 0.00043817
3 *11338:A *11569:A 0
4 *11338:A *11618:A 0
5 *11338:A *592:12 9.23883e-05
6 *11324:RESET_B *11338:A 0.000239693
7 *11337:A *11338:A 2.50479e-05
*RES
1 *11437:X *11338:A 36.2071 
*END

*D_NET *393 0.0444361
*CONN
*I *11441:A I *D sky130_fd_sc_hd__buf_12
*I *11557:X O *D sky130_fd_sc_hd__buf_12
*CAP
1 *11441:A 0.000115535
2 *11557:X 0.00119844
3 *393:16 0.00636903
4 *393:14 0.00627588
5 *393:12 0.00426277
6 *393:10 0.00543882
7 *11441:A *396:18 0
8 *393:10 *11440:A 0
9 *393:10 *11557:A 0.000129868
10 wbs_dat_o[0] *393:10 2.82057e-05
11 *3:23 *393:12 0.000358079
12 *127:14 *393:12 0.00117845
13 *145:41 *393:16 0.000282188
14 *197:28 *393:12 0.00217487
15 *225:30 *393:16 0.00956314
16 *227:27 *393:12 0.000212909
17 *228:26 *393:12 0.00190321
18 *228:26 *393:16 0.000187823
19 *233:23 *393:12 0.00475686
*RES
1 *11557:X *393:10 39.675 
2 *393:10 *393:12 93.9732 
3 *393:12 *393:14 0.428571 
4 *393:14 *393:16 93.5625 
5 *393:16 *11441:A 20.2464 
*END

*D_NET *394 0.238931
*CONN
*I *11542:DI[1] I *D CF_SRAM_1024x32
*I *11524:DI[1] I *D CF_SRAM_1024x32
*I *11533:DI[1] I *D CF_SRAM_1024x32
*I *11515:DI[1] I *D CF_SRAM_1024x32
*I *11439:X O *D sky130_fd_sc_hd__buf_12
*CAP
1 *11542:DI[1] 0.0015905
2 *11524:DI[1] 0.0127686
3 *11533:DI[1] 0.0004449
4 *11515:DI[1] 0.000771954
5 *11439:X 0.0113211
6 *394:108 0.0224913
7 *394:106 0.0222481
8 *394:68 0.00369848
9 *394:66 0.00403144
10 *394:60 0.00459386
11 *394:58 0.00394951
12 *394:54 0.001016
13 *394:37 0
14 *394:24 0.0101792
15 *394:18 0.0199461
16 *394:16 0.0113211
17 *11542:DI[1] *11542:BEN[0] 2.09826e-05
18 *11542:DI[1] *427:64 1.94879e-05
19 *394:54 *11515:AD[4] 5.21937e-05
20 *394:54 *11515:AD[5] 9.58126e-05
21 *394:54 *11515:DI[0] 0.000163079
22 *394:54 *396:102 0.000743674
23 *394:54 *461:36 0.00042923
24 *394:54 *558:129 0.000292176
25 *394:54 *631:66 0.00130509
26 *394:58 *11515:AD[2] 0.000107946
27 *394:60 *11515:DI[29] 9.36685e-05
28 *394:60 *11515:DI[31] 4.49358e-05
29 *394:60 *463:36 0.00257336
30 *394:60 *478:42 0.00201049
31 *394:60 *552:84 0.000903532
32 *394:60 *555:41 0.000372228
33 *394:60 *555:53 0.000665705
34 *394:60 *555:70 0.00084028
35 *394:60 *629:10 0.000661515
36 *394:60 *629:30 0.000457481
37 *394:60 *630:10 0.000612783
38 *394:60 *630:22 0.000765526
39 *394:60 *630:36 0.000648749
40 *394:66 *463:36 0.0024568
41 *394:68 *11533:BEN[8] 0.000644056
42 *394:68 *11533:BEN[0] 0.000363117
43 *394:68 *463:36 0.00106013
44 *394:68 *558:289 0.000777014
45 *394:68 *558:301 0.000765547
46 *394:68 *558:313 0.000872433
47 *394:68 *558:325 0.000796956
48 *394:68 *631:211 0.000784078
49 *394:68 *631:223 0.000677502
50 *394:68 *631:235 0.000765547
51 *394:68 *631:248 0.00074125
52 *394:68 *631:265 0.000677502
53 *394:106 *418:30 1.94945e-05
54 *394:106 *422:24 0.000136958
55 *394:108 *396:52 0.032528
56 *394:108 *422:74 0.00548512
57 *710:DIODE *11515:DI[1] 0.000268422
58 *1118:DIODE *11542:DI[1] 0
59 *11295:B2 *394:16 0.000135373
60 *141:24 *394:60 0.000190175
61 *141:34 *394:60 0.000399894
62 *167:86 *394:16 8.69554e-05
63 *197:16 *394:58 1.22236e-05
64 *201:167 *394:54 0.000318774
65 *216:7 *11515:DI[1] 0.000155729
66 *222:17 *394:60 0.000566428
67 *237:13 *11524:DI[1] 0.000189711
68 *247:15 *11524:DI[1] 0.000193187
69 *248:7 *394:106 7.11447e-05
70 *248:21 *11524:DI[1] 0
71 *248:61 *394:106 0.000487466
72 *259:15 *11524:DI[1] 0
73 *274:20 *394:68 0.002252
74 *280:9 *11533:DI[1] 0
75 *312:5 *11542:DI[1] 0
76 *353:8 *394:58 0.000149031
77 *357:10 *394:68 0
78 *376:95 *394:106 2.09897e-05
79 *376:97 *394:108 0.00596094
80 *378:89 *394:54 0.000439978
81 *385:79 *11515:DI[1] 9.22459e-05
82 *385:81 *394:60 0.0141638
83 *385:81 *394:66 3.81817e-05
84 *385:81 *394:68 0.010597
85 *389:36 *11515:DI[1] 9.36619e-05
86 *389:56 *394:66 0.00235745
87 *391:44 *394:108 0.00588687
88 *391:68 *11524:DI[1] 0
89 *391:68 *394:24 0
*RES
1 *11439:X *394:16 49.6762 
2 *394:16 *394:18 3.41 
3 *394:18 *394:24 22.9438 
4 *394:24 *11515:DI[1] 18.0603 
5 *11515:DI[1] *394:37 0.194444 
6 *394:24 *394:54 48.6332 
7 *394:54 *394:58 7.5 
8 *394:58 *394:60 179.08 
9 *394:60 *394:66 32.7679 
10 *394:66 *394:68 152.973 
11 *394:68 *11533:DI[1] 12.5268 
12 *394:18 *11524:DI[1] 43.6749 
13 *11524:DI[1] *394:106 24.5044 
14 *394:106 *394:108 68.6545 
15 *394:108 *11542:DI[1] 23.5249 
*END

*D_NET *395 0.000578875
*CONN
*I *11345:A I *D sky130_fd_sc_hd__dlygate4sd3_1
*I *11440:X O *D sky130_fd_sc_hd__dlygate4sd3_1
*CAP
1 *11345:A 0.000275394
2 *11440:X 0.000275394
3 *11345:A *11440:A 2.80881e-05
*RES
1 *11440:X *11345:A 31.0107 
*END

*D_NET *396 0.253696
*CONN
*I *11533:DI[0] I *D CF_SRAM_1024x32
*I *11515:DI[0] I *D CF_SRAM_1024x32
*I *11542:DI[0] I *D CF_SRAM_1024x32
*I *11524:DI[0] I *D CF_SRAM_1024x32
*I *11441:X O *D sky130_fd_sc_hd__buf_12
*CAP
1 *11533:DI[0] 0.000414594
2 *11515:DI[0] 0.00075122
3 *11542:DI[0] 0.00153048
4 *11524:DI[0] 7.49738e-05
5 *11441:X 0.00867768
6 *396:104 0.00752966
7 *396:102 0.00791766
8 *396:78 0.00683981
9 *396:52 0.0157407
10 *396:50 0.0156189
11 *396:35 0
12 *396:30 0.0113463
13 *396:20 0.0169122
14 *396:18 0.0104413
15 *11515:DI[0] *11515:ScanInDL 0
16 *11515:DI[0] *478:28 5.32507e-05
17 *11542:DI[0] *405:44 3.38518e-05
18 *11542:DI[0] *427:64 4.6075e-05
19 *396:30 *478:28 0.00117847
20 *396:30 *478:66 0.00426885
21 *396:50 *422:32 8.23597e-06
22 *396:52 *400:50 0.00510467
23 *396:52 *402:10 0.00122504
24 *396:52 *402:58 0.00415414
25 *396:52 *407:10 0.000950329
26 *396:52 *407:46 0.00313295
27 *396:52 *409:10 0.00113146
28 *396:52 *409:46 0.00301144
29 *396:52 *411:54 0.00268604
30 *396:52 *413:54 0.00268604
31 *396:78 *478:28 0.0123526
32 *396:102 *11515:DI[16] 0.000457035
33 *396:102 *478:28 9.30878e-05
34 *396:102 *491:44 0.000105625
35 *396:102 *631:66 9.99931e-06
36 *396:102 *631:68 0.00152178
37 *396:104 *461:36 0.0283625
38 *396:104 *483:44 0.00606233
39 *396:104 *558:129 0.0128694
40 *396:104 *629:72 1.721e-05
41 *396:104 *629:74 0.0154557
42 *699:DIODE *11515:DI[0] 0.000444183
43 *1058:DIODE *11542:DI[0] 0
44 *11441:A *396:18 0
45 *11533:ScanInDL *11533:DI[0] 0.00108105
46 *11542:ScanInDL *11542:DI[0] 0.000902011
47 *167:76 *396:18 0
48 *167:76 *396:20 0
49 *167:76 *396:78 0
50 *167:86 *396:18 0
51 *201:167 *11515:DI[0] 6.11664e-05
52 *201:167 *396:102 0.00133254
53 *205:7 *11515:DI[0] 0.000155729
54 *212:12 *396:102 0.000221212
55 *218:32 *396:18 0
56 *228:22 *396:102 0.000226993
57 *237:7 *11524:DI[0] 6.86693e-05
58 *237:7 *396:50 2.59355e-05
59 *237:13 *396:30 4.35849e-05
60 *237:57 *396:50 0.000366846
61 *247:15 *396:30 4.38243e-05
62 *256:19 *396:50 2.09897e-05
63 *269:9 *11533:DI[0] 8.45906e-05
64 *301:5 *11542:DI[0] 0
65 *374:60 *396:52 0.00440788
66 *394:54 *11515:DI[0] 0.000163079
67 *394:54 *396:102 0.000743674
68 *394:108 *396:52 0.032528
*RES
1 *11441:X *396:18 49.0894 
2 *396:18 *396:20 5.55227 
3 *396:20 *396:30 45.2061 
4 *396:30 *11524:DI[0] 1.35714 
5 *11524:DI[0] *396:35 0.159091 
6 *396:30 *396:50 21.0714 
7 *396:50 *396:52 68.6545 
8 *396:52 *11542:DI[0] 23.9553 
9 *396:20 *396:78 27.1569 
10 *396:78 *11515:DI[0] 19.2679 
11 *396:78 *396:102 42.1696 
12 *396:102 *396:104 359.554 
13 *396:104 *11533:DI[0] 15.6339 
*END

*D_NET *397 0.000866158
*CONN
*I *11347:A I *D sky130_fd_sc_hd__dlygate4sd3_1
*I *11442:X O *D sky130_fd_sc_hd__dlygate4sd3_1
*CAP
1 *11347:A 0.00035921
2 *11442:X 0.00035921
3 *11347:A *504:12 0
4 *11347:A *610:28 5.20692e-05
5 *11347:A *617:10 5.99616e-05
6 wbs_dat_o[19] *11347:A 3.5707e-05
*RES
1 *11442:X *11347:A 33.4393 
*END

*D_NET *398 0.176186
*CONN
*I *11533:DI[19] I *D CF_SRAM_1024x32
*I *11542:DI[19] I *D CF_SRAM_1024x32
*I *11524:DI[19] I *D CF_SRAM_1024x32
*I *11515:DI[19] I *D CF_SRAM_1024x32
*I *11443:X O *D sky130_fd_sc_hd__buf_12
*CAP
1 *11533:DI[19] 0.000392531
2 *11542:DI[19] 0.000218834
3 *11524:DI[19] 0.000243101
4 *11515:DI[19] 0.00102371
5 *11443:X 0.000201002
6 *398:74 0.022157
7 *398:72 0.0217808
8 *398:58 0.000425379
9 *398:54 0.00841501
10 *398:52 0.00852832
11 *398:40 0.000576188
12 *398:22 0.0203296
13 *398:20 0.0193059
14 *398:18 0.00144651
15 *398:16 0.00176181
16 *398:10 0.00181913
17 *398:8 0.00167531
18 *11515:DI[19] *476:62 1.90936e-05
19 *11515:DI[19] *631:68 2.04825e-05
20 *11533:DI[19] *629:74 0
21 *398:8 *11443:A 9.60875e-05
22 *398:10 *418:30 0.000308247
23 *398:10 *422:32 0.0011423
24 *398:10 *572:24 0.0030172
25 *398:10 *576:8 0.000527073
26 *398:16 *461:66 0.000182471
27 *398:16 *478:78 0.000238645
28 *398:18 *11524:AD[2] 0.000187358
29 *398:18 *11524:AD[6] 4.26392e-06
30 *398:18 *422:52 4.3588e-05
31 *398:18 *461:54 6.35275e-05
32 *398:18 *463:55 1.15313e-05
33 *398:18 *467:58 6.27272e-06
34 *398:22 *400:32 0
35 *398:54 *405:24 0.000450998
36 *398:54 *405:44 0.0288273
37 *398:54 *467:82 0.00215111
38 *398:54 *565:10 0.00865621
39 *1116:DIODE *398:54 0
40 *1116:DIODE *398:58 0.000218332
41 *186:12 *398:54 0.00624453
42 *192:16 *398:54 0.00141215
43 *202:139 *398:18 0.0015356
44 *215:11 *11515:DI[19] 0
45 *246:63 *398:18 0.00193148
46 *247:11 *398:18 0.000759283
47 *247:15 *398:18 0
48 *252:11 *398:18 0.000538502
49 *252:11 *398:40 8.26979e-05
50 *256:19 *398:54 0.000855968
51 *258:14 *398:18 0.00157118
52 *258:14 *398:40 4.66499e-05
53 *279:9 *11533:DI[19] 0.000534526
54 *279:15 *11533:DI[19] 5.7903e-06
55 *311:9 *11542:DI[19] 0
56 *311:9 *398:58 0
57 *311:11 *398:54 0
58 *319:27 *398:72 1.94879e-05
59 *376:87 *398:10 0.00296595
60 *376:95 *398:10 0.00120969
*RES
1 *11443:X *398:8 16.8 
2 *398:8 *398:10 64.7857 
3 *398:10 *398:16 16.5179 
4 *398:16 *398:18 58.2589 
5 *398:18 *398:20 3.41 
6 *398:20 *398:22 53.1601 
7 *398:22 *11515:DI[19] 21.2582 
8 *398:18 *398:40 5.6875 
9 *398:40 *11524:DI[19] 4.125 
10 *398:40 *398:52 9.14286 
11 *398:52 *398:54 390.821 
12 *398:54 *398:58 9.14286 
13 *398:58 *11542:DI[19] 3.33929 
14 *398:58 *398:72 8.18679 
15 *398:72 *398:74 53.7367 
16 *398:74 *11533:DI[19] 18.0975 
*END

*D_NET *399 0.000666053
*CONN
*I *11352:A I *D sky130_fd_sc_hd__dlygate4sd3_1
*I *11444:X O *D sky130_fd_sc_hd__dlygate4sd3_1
*CAP
1 *11352:A 0.00022661
2 *11444:X 0.00022661
3 *11352:A *11570:A 2.80881e-05
4 *11352:A *426:22 0
5 *11352:A *620:12 0.000184745
*RES
1 *11444:X *11352:A 31.6179 
*END

*D_NET *400 0.188375
*CONN
*I *11533:DI[20] I *D CF_SRAM_1024x32
*I *11542:DI[20] I *D CF_SRAM_1024x32
*I *11515:DI[20] I *D CF_SRAM_1024x32
*I *11524:DI[20] I *D CF_SRAM_1024x32
*I *11445:X O *D sky130_fd_sc_hd__buf_12
*CAP
1 *11533:DI[20] 0.000544028
2 *11542:DI[20] 8.61939e-05
3 *11515:DI[20] 0.000857143
4 *11524:DI[20] 0.000102988
5 *11445:X 0.000750012
6 *400:78 0.0165239
7 *400:72 0.0190777
8 *400:54 0.0042068
9 *400:50 0.0113202
10 *400:48 0.0102974
11 *400:32 0.0200919
12 *400:30 0.0193232
13 *400:16 0.00181861
14 *400:14 0.00229171
15 *400:10 0.00349647
16 *400:8 0.0035819
17 *11515:DI[20] *476:62 0.000210276
18 *11515:DI[20] *631:68 0.00021236
19 *400:10 *411:10 0.000421937
20 *400:10 *416:10 0.00739305
21 *400:50 *402:18 0.000226021
22 *400:50 *402:58 0.0303557
23 *400:50 *409:10 0
24 *400:50 *422:74 0
25 *886:DIODE *11524:DI[20] 1.36635e-05
26 *886:DIODE *400:16 9.38795e-05
27 *1120:DIODE *400:54 0.00108123
28 *217:11 *11515:DI[20] 0.000459504
29 *217:20 *11515:DI[20] 1.07719e-05
30 *249:19 *400:30 1.94879e-05
31 *249:19 *400:32 0.000327141
32 *252:11 *400:30 0.000118148
33 *254:13 *400:30 0.000113864
34 *281:9 *11533:DI[20] 0.000716037
35 *281:18 *11533:DI[20] 5.33334e-05
36 *281:18 *400:78 0.000197888
37 *292:11 *400:78 2.31704e-05
38 *313:5 *11542:DI[20] 6.88252e-05
39 *313:5 *400:54 2.21586e-05
40 *314:17 *400:72 0
41 *316:17 *400:72 7.69776e-06
42 *318:13 *400:72 1.90936e-05
43 *365:80 *400:10 0.0100864
44 *374:60 *400:50 0.0137414
45 *376:97 *400:50 0.00290661
46 *396:52 *400:50 0.00510467
47 *398:22 *400:32 0
*RES
1 *11445:X *400:8 25.0143 
2 *400:8 *400:10 127.018 
3 *400:10 *400:14 11.1964 
4 *400:14 *400:16 19.4286 
5 *400:16 *11524:DI[20] 1.78571 
6 *400:16 *400:30 10.9189 
7 *400:30 *400:32 52.9439 
8 *400:32 *11515:DI[20] 23.7939 
9 *400:14 *400:48 4.5 
10 *400:48 *400:50 392.643 
11 *400:50 *400:54 24.3393 
12 *400:54 *11542:DI[20] 1.71429 
13 *400:54 *400:72 16.7831 
14 *400:72 *400:78 48.698 
15 *400:78 *11533:DI[20] 18.125 
*END

*D_NET *401 0.000530942
*CONN
*I *11354:A I *D sky130_fd_sc_hd__dlygate4sd3_1
*I *11446:X O *D sky130_fd_sc_hd__dlygate4sd3_1
*CAP
1 *11354:A 0.000215369
2 *11446:X 0.000215369
3 *11354:A *11434:A 0.000100204
4 *11354:A *537:10 0
*RES
1 *11446:X *11354:A 31.6714 
*END

*D_NET *402 0.19292
*CONN
*I *11533:DI[21] I *D CF_SRAM_1024x32
*I *11542:DI[21] I *D CF_SRAM_1024x32
*I *11515:DI[21] I *D CF_SRAM_1024x32
*I *11524:DI[21] I *D CF_SRAM_1024x32
*I *11447:X O *D sky130_fd_sc_hd__buf_12
*CAP
1 *11533:DI[21] 0.000495426
2 *11542:DI[21] 0.00126352
3 *11515:DI[21] 0.000917277
4 *11524:DI[21] 0.000112561
5 *11447:X 0.000254563
6 *402:78 0.0195977
7 *402:76 0.0192777
8 *402:58 0.00882356
9 *402:53 7.46181e-06
10 *402:38 0.0205714
11 *402:36 0.0196747
12 *402:22 0.00178931
13 *402:18 0.00958211
14 *402:10 0.00343026
15 *402:8 0.00350181
16 *11515:DI[21] *476:62 1.90936e-05
17 *11515:DI[21] *631:68 2.04825e-05
18 *11533:DI[21] *629:74 0
19 *402:18 *409:10 8.36642e-05
20 *402:58 *409:10 0.000843367
21 *402:58 *409:46 0.000250638
22 *402:58 *411:18 0.000108111
23 *402:58 *411:54 0.0280524
24 *402:78 *405:50 0
25 *890:DIODE *11524:DI[21] 1.22954e-05
26 *890:DIODE *402:22 9.4281e-05
27 *1123:DIODE *11542:DI[21] 0.00112209
28 *218:11 *11515:DI[21] 0.000264749
29 *218:20 *11515:DI[21] 4.76891e-06
30 *250:19 *402:38 0.000137163
31 *251:17 *402:36 1.94945e-05
32 *251:17 *402:38 0
33 *252:11 *402:36 8.23597e-06
34 *282:11 *11533:DI[21] 8.41481e-05
35 *314:7 *11542:DI[21] 9.90367e-05
36 *314:17 *402:78 0
37 *316:17 *402:76 1.94945e-05
38 *319:23 *11542:DI[21] 0.000136951
39 *319:23 *402:76 2.72887e-05
40 *374:60 *402:10 0.0102313
41 *376:97 *402:10 0.00500716
42 *387:114 *402:10 0
43 *391:44 *402:10 0.00101371
44 *396:52 *402:10 0.00122504
45 *396:52 *402:58 0.00415414
46 *400:50 *402:18 0.000226021
47 *400:50 *402:58 0.0303557
*RES
1 *11447:X *402:8 17.6214 
2 *402:8 *402:10 129.143 
3 *402:10 *402:18 13.2143 
4 *402:18 *402:22 24.3393 
5 *402:22 *11524:DI[21] 1.80357 
6 *402:22 *402:36 8.18679 
7 *402:36 *402:38 52.9439 
8 *402:38 *11515:DI[21] 21.1868 
9 *11515:DI[21] *402:53 0.142857 
10 *402:18 *402:58 392.643 
11 *402:58 *11542:DI[21] 26.3571 
12 *11542:DI[21] *402:76 11.2225 
13 *402:76 *402:78 53.7367 
14 *402:78 *11533:DI[21] 17.7939 
*END

*D_NET *403 0.00217016
*CONN
*I *11360:A I *D sky130_fd_sc_hd__dlygate4sd3_1
*I *11448:X O *D sky130_fd_sc_hd__dlygate4sd3_1
*CAP
1 *11360:A 0.000898482
2 *11448:X 0.000898482
3 *11360:A *11351:A 0
4 *11360:A *11451:A 0
5 *11360:A *11623:A 2.84026e-05
6 *11360:A *617:16 0.000187483
7 wbs_dat_o[22] *11360:A 0.000157311
*RES
1 *11448:X *11360:A 39.5286 
*END

*D_NET *404 0.0246461
*CONN
*I *11427:A I *D sky130_fd_sc_hd__buf_12
*I *11558:X O *D sky130_fd_sc_hd__buf_12
*CAP
1 *11427:A 2.89677e-05
2 *11558:X 0.000706954
3 *404:24 0.00167108
4 *404:22 0.00168035
5 *404:20 0.00188131
6 *404:18 0.00255002
7 *404:18 *11328:A 0.000161748
8 *404:18 *11558:A 2.64941e-05
9 *404:18 *536:16 0.000154027
10 *404:18 *567:16 0.000146474
11 *404:20 *605:6 1.02936e-05
12 *404:24 *11471:A 0.00104427
13 *404:24 *585:22 0.000378565
14 *404:24 *605:6 0.00344527
15 *11247:A *404:24 8.40933e-05
16 *11397:A *404:18 6.59766e-05
17 *115:16 *404:20 0.00174101
18 *115:16 *404:24 0.000548449
19 *117:131 *404:24 0.00116668
20 *118:43 *404:18 7.6644e-05
21 *118:81 *404:24 0.000855863
22 *122:52 *404:18 0
23 *169:28 *404:20 0.00451698
24 *191:32 *11427:A 5.85917e-05
25 *191:32 *404:24 0.000872283
26 *360:10 *404:18 0.000151061
27 *371:38 *404:20 0.000622588
*RES
1 *11558:X *404:18 32.6393 
2 *404:18 *404:20 54.3393 
3 *404:20 *404:22 0.732143 
4 *404:22 *404:24 58.8571 
5 *404:24 *11427:A 10.0321 
*END

*D_NET *405 0.187904
*CONN
*I *11542:DI[22] I *D CF_SRAM_1024x32
*I *11533:DI[22] I *D CF_SRAM_1024x32
*I *11515:DI[22] I *D CF_SRAM_1024x32
*I *11524:DI[22] I *D CF_SRAM_1024x32
*I *11450:X O *D sky130_fd_sc_hd__buf_12
*CAP
1 *11542:DI[22] 0.000392692
2 *11533:DI[22] 0.000750492
3 *11515:DI[22] 0.0010532
4 *11524:DI[22] 0.000384255
5 *11450:X 0
6 *405:50 0.0195172
7 *405:48 0.0195348
8 *405:44 0.00930958
9 *405:28 0.0235025
10 *405:26 0.0224493
11 *405:24 0.00907247
12 *405:12 0.00118628
13 *405:8 0.00811415
14 *405:6 0.00745041
15 *11515:DI[22] *11515:BEN[22] 5.99305e-05
16 *11515:DI[22] *476:62 0.000294658
17 *11515:DI[22] *630:54 1.64113e-05
18 *11515:DI[22] *631:68 0.000296613
19 *405:28 *407:30 0.00612605
20 *405:44 *11524:BEN[31] 0.000299961
21 *405:44 *11542:BEN[16] 9.66725e-05
22 *405:44 *11542:AD[0] 0
23 *405:44 *11542:BEN[8] 0.000227763
24 *405:44 *11542:AD[4] 0
25 *405:44 *11542:AD[6] 4.70623e-05
26 *405:44 *11542:AD[7] 4.38987e-05
27 *405:44 *11542:BEN[0] 0.000321748
28 *405:44 *427:64 0
29 *405:44 *463:73 0
30 *405:44 *467:82 0.00317999
31 *405:44 *555:124 1.78353e-05
32 *405:44 *555:137 0.000335362
33 *405:44 *555:149 0.000307873
34 *405:44 *555:161 0.00027156
35 *405:44 *555:173 0.000303777
36 *405:44 *558:185 0.000179617
37 *405:44 *558:197 0.000254534
38 *405:44 *558:209 0.00028731
39 *405:44 *558:221 0.00031171
40 *405:44 *558:233 0.000331785
41 *405:44 *630:110 0.000198171
42 *405:44 *630:122 0.000255092
43 *405:44 *630:134 0.000289621
44 *405:44 *630:146 0.000311701
45 *405:44 *630:159 0.000310104
46 *405:44 *630:172 2.75651e-06
47 *405:44 *631:110 0.000314537
48 *405:44 *631:122 0.00031171
49 *405:44 *631:134 0.000267235
50 *405:44 *631:146 0.000307405
51 *405:44 *631:159 0.000261522
52 *405:48 *11542:BEN[21] 0.00021057
53 *893:DIODE *11524:DI[22] 0.000358225
54 *893:DIODE *405:12 0.000215517
55 *1125:DIODE *11542:DI[22] 0.000129375
56 *11542:DI[0] *405:44 3.38518e-05
57 *219:11 *11515:DI[22] 0
58 *251:7 *11524:DI[22] 4.87854e-05
59 *256:19 *405:24 0.00023469
60 *256:19 *405:44 0.00168476
61 *283:11 *11533:DI[22] 0.00101784
62 *283:20 *11533:DI[22] 5.33334e-05
63 *292:11 *11533:DI[22] 0.000131592
64 *306:14 *405:44 0.00449204
65 *315:9 *11542:DI[22] 0
66 *315:25 *11542:DI[22] 1.94879e-05
67 *315:25 *405:50 7.96738e-05
68 *316:17 *11542:DI[22] 0.000124079
69 *383:100 *405:8 0.0106326
70 *398:54 *405:24 0.000450998
71 *398:54 *405:44 0.0288273
72 *402:78 *405:50 0
*RES
1 *11450:X *405:6 13.8 
2 *405:6 *405:8 136.732 
3 *405:8 *405:12 12.4286 
4 *405:12 *11524:DI[22] 7.98214 
5 *405:12 *405:24 10.2411 
6 *405:24 *405:26 3.41 
7 *405:26 *405:28 54.0249 
8 *405:28 *11515:DI[22] 25.7582 
9 *405:24 *405:44 382.625 
10 *405:44 *405:48 4.3218 
11 *405:48 *405:50 53.0881 
12 *405:50 *11533:DI[22] 26.0975 
13 *405:48 *11542:DI[22] 15.8296 
*END

*D_NET *406 0.00148581
*CONN
*I *11365:A I *D sky130_fd_sc_hd__dlygate4sd3_1
*I *11451:X O *D sky130_fd_sc_hd__dlygate4sd3_1
*CAP
1 *11365:A 0.000602669
2 *11451:X 0.000602669
3 *11365:A *11451:A 0.000164747
4 *11365:A *620:12 0.000115723
*RES
1 *11451:X *11365:A 35.5286 
*END

*D_NET *407 0.193517
*CONN
*I *11533:DI[23] I *D CF_SRAM_1024x32
*I *11542:DI[23] I *D CF_SRAM_1024x32
*I *11515:DI[23] I *D CF_SRAM_1024x32
*I *11524:DI[23] I *D CF_SRAM_1024x32
*I *11452:X O *D sky130_fd_sc_hd__buf_12
*CAP
1 *11533:DI[23] 0.000619257
2 *11542:DI[23] 8.72999e-05
3 *11515:DI[23] 0.000808799
4 *11524:DI[23] 7.53791e-05
5 *11452:X 0.000448008
6 *407:66 0.0197341
7 *407:64 0.0191309
8 *407:50 0.00125709
9 *407:46 0.00978608
10 *407:30 0.0171028
11 *407:28 0.0163397
12 *407:14 0.00183629
13 *407:10 0.0140483
14 *407:8 0.00414878
15 *11515:DI[23] *476:62 7.07702e-05
16 *407:10 *409:10 0.0108525
17 *407:10 *418:74 0.00530324
18 *407:10 *461:68 0.0012176
19 *407:10 *577:12 0.000121259
20 *407:46 *409:10 0.000774768
21 *407:46 *409:46 0.0303833
22 *407:46 *418:74 0.0258093
23 *896:DIODE *407:14 0.00050197
24 *1018:DIODE *11533:DI[23] 1.07719e-05
25 *1127:DIODE *407:50 0.00100245
26 *220:11 *11515:DI[23] 0.000806473
27 *220:20 *11515:DI[23] 1.90303e-05
28 *228:22 *11515:DI[23] 6.87181e-05
29 *252:7 *11524:DI[23] 4.87854e-05
30 *252:7 *407:14 6.7224e-05
31 *252:11 *407:28 1.31511e-05
32 *254:13 *407:28 9.11899e-05
33 *258:14 *407:28 0
34 *284:11 *11533:DI[23] 0.00040319
35 *292:11 *11533:DI[23] 6.91215e-06
36 *316:7 *11542:DI[23] 9.80173e-05
37 *316:7 *407:50 0.00012615
38 *318:11 *407:64 4.38265e-05
39 *319:15 *407:64 4.38265e-05
40 *396:52 *407:10 0.000950329
41 *396:52 *407:46 0.00313295
42 *405:28 *407:30 0.00612605
*RES
1 *11452:X *407:8 20.4964 
2 *407:8 *407:10 141.589 
3 *407:10 *407:14 26.3929 
4 *407:14 *11524:DI[23] 1.42857 
5 *407:14 *407:28 9.0975 
6 *407:28 *407:30 52.7998 
7 *407:30 *11515:DI[23] 22.4368 
8 *407:10 *407:46 392.643 
9 *407:46 *407:50 26.3929 
10 *407:50 *11542:DI[23] 1.76786 
11 *407:50 *407:64 8.49036 
12 *407:64 *407:66 52.7998 
13 *407:66 *11533:DI[23] 21.2582 
*END

*D_NET *408 0.00221404
*CONN
*I *11367:A I *D sky130_fd_sc_hd__dlygate4sd3_1
*I *11453:X O *D sky130_fd_sc_hd__dlygate4sd3_1
*CAP
1 *11367:A 0.000941144
2 *11453:X 0.000941144
3 *11367:A *11455:A 2.88045e-05
4 *11367:A *11624:A 9.54798e-06
5 *11367:A *620:12 0.000293402
6 *11368:A *11367:A 0
*RES
1 *11453:X *11367:A 40.3143 
*END

*D_NET *409 0.212798
*CONN
*I *11533:DI[24] I *D CF_SRAM_1024x32
*I *11542:DI[24] I *D CF_SRAM_1024x32
*I *11515:DI[24] I *D CF_SRAM_1024x32
*I *11524:DI[24] I *D CF_SRAM_1024x32
*I *11454:X O *D sky130_fd_sc_hd__buf_12
*CAP
1 *11533:DI[24] 0.00059567
2 *11542:DI[24] 3.22758e-05
3 *11515:DI[24] 0.000784657
4 *11524:DI[24] 0.00180633
5 *11454:X 0.0004318
6 *409:70 0.0165027
7 *409:68 0.0160394
8 *409:50 0.00172088
9 *409:46 0.00917224
10 *409:30 0.0134709
11 *409:28 0.0127857
12 *409:10 0.0138395
13 *409:8 0.00494843
14 *11515:DI[24] *558:129 4.34543e-05
15 *11515:DI[24] *630:66 4.15183e-05
16 *11533:DI[24] *11533:BEN[24] 0
17 *11533:DI[24] *629:74 0
18 *11533:DI[24] *629:82 0
19 *409:10 *577:12 0.00144847
20 *409:28 *11524:BEN[24] 0
21 *409:30 *555:20 0.000419309
22 *409:30 *555:91 0.0330683
23 *409:46 *411:18 5.7616e-05
24 *409:46 *411:54 0.000349096
25 *409:46 *413:18 0.000212332
26 *409:46 *413:54 0.0295942
27 *409:70 *629:183 0.00629995
28 *899:DIODE *11524:DI[24] 0.000576755
29 *1129:DIODE *409:50 0.000305389
30 *221:11 *11515:DI[24] 5.85784e-05
31 *222:17 *11515:DI[24] 0.000422722
32 *253:7 *11524:DI[24] 4.87854e-05
33 *253:17 *409:30 0.000110982
34 *254:13 *409:28 1.94945e-05
35 *285:11 *11533:DI[24] 0
36 *317:7 *11542:DI[24] 4.0342e-06
37 *317:7 *409:50 1.82549e-05
38 *317:17 *409:70 0
39 *318:11 *409:68 0.000118508
40 *319:15 *409:68 0.000118508
41 *374:60 *409:10 0
42 *396:52 *409:10 0.00113146
43 *396:52 *409:46 0.00301144
44 *400:50 *409:10 0
45 *402:18 *409:10 8.36642e-05
46 *402:58 *409:10 0.000843367
47 *402:58 *409:46 0.000250638
48 *407:10 *409:10 0.0108525
49 *407:46 *409:10 0.000774768
50 *407:46 *409:46 0.0303833
*RES
1 *11454:X *409:8 20.0857 
2 *409:8 *409:10 146.446 
3 *409:10 *11524:DI[24] 27.3036 
4 *11524:DI[24] *409:28 9.9725 
5 *409:28 *409:30 53.0881 
6 *409:30 *11515:DI[24] 20.2404 
7 *409:10 *409:46 393.554 
8 *409:46 *409:50 26.8036 
9 *409:50 *11542:DI[24] 0.732143 
10 *409:50 *409:68 11.6868 
11 *409:68 *409:70 53.5925 
12 *409:70 *11533:DI[24] 19.1511 
*END

*D_NET *410 0.000201625
*CONN
*I *11369:A I *D sky130_fd_sc_hd__dlygate4sd3_1
*I *11455:X O *D sky130_fd_sc_hd__dlygate4sd3_1
*CAP
1 *11369:A 5.37304e-05
2 *11455:X 5.37304e-05
3 *11369:A *620:12 9.41642e-05
*RES
1 *11455:X *11369:A 19.5464 
*END

*D_NET *411 0.197689
*CONN
*I *11533:DI[25] I *D CF_SRAM_1024x32
*I *11542:DI[25] I *D CF_SRAM_1024x32
*I *11515:DI[25] I *D CF_SRAM_1024x32
*I *11524:DI[25] I *D CF_SRAM_1024x32
*I *11456:X O *D sky130_fd_sc_hd__buf_12
*CAP
1 *11533:DI[25] 0.000565069
2 *11542:DI[25] 8.95422e-05
3 *11515:DI[25] 0.000956106
4 *11524:DI[25] 8.80635e-05
5 *11456:X 0.000734233
6 *411:74 0.0163654
7 *411:72 0.0158179
8 *411:58 0.00115218
9 *411:54 0.00912383
10 *411:38 0.0201335
11 *411:36 0.0192864
12 *411:22 0.00173453
13 *411:18 0.0100578
14 *411:10 0.00333612
15 *411:8 0.00362873
16 *11515:DI[25] *476:64 0.000163563
17 *11515:DI[25] *555:41 0
18 *11515:DI[25] *631:68 0.000165494
19 *411:10 *413:10 0.0115398
20 *411:10 *416:10 0.0111536
21 *411:38 *555:20 0
22 *411:38 *555:91 0
23 *411:54 *413:18 0.000213979
24 *411:54 *413:54 0.030285
25 *411:74 *629:183 0.0062057
26 *913:DIODE *411:22 8.55871e-05
27 *1131:DIODE *411:58 0.00108923
28 *222:17 *11515:DI[25] 0.00015617
29 *254:5 *11524:DI[25] 3.91239e-05
30 *254:11 *411:36 4.12513e-05
31 *254:13 *411:36 5.28924e-05
32 *254:93 *11524:DI[25] 2.59355e-05
33 *254:93 *411:22 0.000540271
34 *254:127 *411:22 8.55871e-05
35 *258:14 *411:36 0
36 *286:11 *11533:DI[25] 0.000606737
37 *286:20 *11533:DI[25] 4.01768e-05
38 *286:20 *411:74 0.000213386
39 *292:11 *11533:DI[25] 1.69497e-05
40 *318:5 *11542:DI[25] 8.63445e-05
41 *318:5 *411:58 2.78278e-05
42 *319:15 *411:72 1.90936e-05
43 *330:39 *411:38 9.09539e-05
44 *396:52 *411:54 0.00268604
45 *400:10 *411:10 0.000421937
46 *402:58 *411:18 0.000108111
47 *402:58 *411:54 0.0280524
48 *409:46 *411:18 5.7616e-05
49 *409:46 *411:54 0.000349096
*RES
1 *11456:X *411:8 24.1929 
2 *411:8 *411:10 150.089 
3 *411:10 *411:18 15.3929 
4 *411:18 *411:22 24.75 
5 *411:22 *11524:DI[25] 1.875 
6 *411:22 *411:36 10.3118 
7 *411:36 *411:38 52.9439 
8 *411:38 *11515:DI[25] 23.2761 
9 *411:18 *411:54 392.643 
10 *411:54 *411:58 25.1607 
11 *411:58 *11542:DI[25] 1.80357 
12 *411:58 *411:72 8.18679 
13 *411:72 *411:74 52.7998 
14 *411:74 *11533:DI[25] 21.9011 
*END

*D_NET *412 0.00145983
*CONN
*I *11371:A I *D sky130_fd_sc_hd__dlygate4sd3_1
*I *11457:X O *D sky130_fd_sc_hd__dlygate4sd3_1
*CAP
1 *11371:A 0.000628796
2 *11457:X 0.000628796
3 *11371:A *11457:A 8.86498e-05
4 *11371:A *11625:A 7.77441e-05
5 *11371:A *571:10 0
6 wbs_dat_o[26] *11371:A 3.5848e-05
*RES
1 *11457:X *11371:A 36.725 
*END

*D_NET *413 0.210205
*CONN
*I *11533:DI[26] I *D CF_SRAM_1024x32
*I *11542:DI[26] I *D CF_SRAM_1024x32
*I *11515:DI[26] I *D CF_SRAM_1024x32
*I *11524:DI[26] I *D CF_SRAM_1024x32
*I *11458:X O *D sky130_fd_sc_hd__buf_12
*CAP
1 *11533:DI[26] 0.000560594
2 *11542:DI[26] 0.00127282
3 *11515:DI[26] 0.000726151
4 *11524:DI[26] 7.53558e-05
5 *11458:X 0.000718034
6 *413:74 0.0188703
7 *413:72 0.0184359
8 *413:54 0.0089263
9 *413:38 0.0266919
10 *413:36 0.0260293
11 *413:22 0.00114556
12 *413:18 0.00930852
13 *413:10 0.00866826
14 *413:8 0.00886411
15 *11515:DI[26] *558:129 4.29471e-05
16 *11515:DI[26] *630:66 4.11218e-05
17 *11533:DI[26] *11533:BEN[26] 0
18 *413:10 *416:10 0.000403752
19 *1134:DIODE *11542:DI[26] 0.0010867
20 *223:13 *11515:DI[26] 0.000536327
21 *255:11 *11524:DI[26] 0.000105808
22 *255:11 *413:22 0.00113747
23 *255:20 *413:22 0.000998232
24 *258:14 *413:36 0
25 *287:7 *11533:DI[26] 0
26 *292:11 *11533:DI[26] 0
27 *319:5 *11542:DI[26] 0.000121929
28 *320:20 *413:72 8.23597e-06
29 *320:20 *413:74 0.000251851
30 *321:26 *413:72 1.94945e-05
31 *321:26 *413:74 0.000626333
32 *396:52 *413:54 0.00268604
33 *409:46 *413:18 0.000212332
34 *409:46 *413:54 0.0295942
35 *411:10 *413:10 0.0115398
36 *411:54 *413:18 0.000213979
37 *411:54 *413:54 0.030285
*RES
1 *11458:X *413:8 23.7821 
2 *413:8 *413:10 154.643 
3 *413:10 *413:18 16.0893 
4 *413:18 *413:22 25.5714 
5 *413:22 *11524:DI[26] 1.75 
6 *413:22 *413:36 8.49036 
7 *413:36 *413:38 53.0881 
8 *413:38 *11515:DI[26] 20.5082 
9 *413:18 *413:54 391.429 
10 *413:54 *11542:DI[26] 27.2679 
11 *11542:DI[26] *413:72 10.5082 
12 *413:72 *413:74 53.5205 
13 *413:74 *11533:DI[26] 18.3118 
*END

*D_NET *414 0.00185324
*CONN
*I *11376:A I *D sky130_fd_sc_hd__dlygate4sd3_1
*I *11459:X O *D sky130_fd_sc_hd__dlygate4sd3_1
*CAP
1 *11376:A 0.000610075
2 *11459:X 0.000610075
3 *11376:A *11459:A 0.000447971
4 *11376:A *11578:A 0
5 *11376:A *620:12 0.000185118
6 wbs_dat_o[27] *11376:A 0
*RES
1 *11459:X *11376:A 37.9571 
*END

*D_NET *415 0.0294788
*CONN
*I *11434:A I *D sky130_fd_sc_hd__buf_12
*I *11559:X O *D sky130_fd_sc_hd__buf_12
*CAP
1 *11434:A 0.00118442
2 *11559:X 0.000192414
3 *415:12 0.00281902
4 *415:10 0.00182701
5 *11434:A *11446:A 0
6 *11434:A *11620:A 0
7 *11434:A *537:10 0
8 *415:12 *493:12 0.00385595
9 *415:12 *585:14 0.00581783
10 *415:12 *604:14 0.00141569
11 *415:12 *608:14 0.00161568
12 *415:12 *613:14 0.00424732
13 *415:12 *622:14 0.00577403
14 wbs_dat_o[11] *415:10 0
15 wbs_dat_o[21] *11434:A 0
16 *894:DIODE *11434:A 0.000207695
17 *11353:A *11434:A 0
18 *11354:A *11434:A 0.000100204
19 *11419:A *415:10 0
20 *176:135 *11434:A 0.000154762
21 *176:141 *11434:A 0.000193532
22 *176:164 *11434:A 7.3237e-05
*RES
1 *11559:X *415:10 21.4607 
2 *415:10 *415:12 118.411 
3 *415:12 *11434:A 40.425 
*END

*D_NET *416 0.19375
*CONN
*I *11533:DI[27] I *D CF_SRAM_1024x32
*I *11542:DI[27] I *D CF_SRAM_1024x32
*I *11524:DI[27] I *D CF_SRAM_1024x32
*I *11515:DI[27] I *D CF_SRAM_1024x32
*I *11461:X O *D sky130_fd_sc_hd__buf_12
*CAP
1 *11533:DI[27] 0.000573603
2 *11542:DI[27] 0.000157525
3 *11524:DI[27] 0.000401656
4 *11515:DI[27] 0.00101627
5 *11461:X 0.000783505
6 *416:98 0.0197429
7 *416:96 0.0192598
8 *416:82 0.000648359
9 *416:78 0.00543436
10 *416:76 0.00584924
11 *416:66 0.00213087
12 *416:64 0.00233706
13 *416:60 0.00143557
14 *416:24 0.0201386
15 *416:22 0.020453
16 *416:18 0.00267049
17 *416:10 0.00497242
18 *416:8 0.00442874
19 *11515:DI[27] *476:64 0.000357744
20 *11515:DI[27] *631:68 0.000359801
21 *11533:DI[27] *11533:BEN[27] 0
22 *416:18 *427:64 8.74238e-05
23 *416:18 *465:10 0.000163444
24 *416:24 *420:32 0
25 *416:60 *420:50 0.000805782
26 *416:60 *427:64 0.000221402
27 *416:60 *433:26 0.000177545
28 *416:60 *465:10 0.0012248
29 *416:60 *472:70 0.00030724
30 *416:64 *433:58 0.00371144
31 *416:64 *456:18 0.000756702
32 *416:64 *474:112 0.00158243
33 *416:64 *491:94 0.000773726
34 *416:66 *433:58 0.000762727
35 *416:66 *433:62 0.00366198
36 *416:66 *474:112 0.00515064
37 *416:66 *478:80 8.41555e-06
38 *416:66 *491:94 0.000961154
39 *416:76 *433:72 0.0026771
40 *416:76 *474:112 7.48679e-06
41 *416:76 *478:80 0.00271188
42 *416:76 *491:94 0.000574655
43 *416:78 *11542:AD[8] 0.00163129
44 *416:78 *433:72 4.21517e-05
45 *416:78 *433:76 0.000712189
46 *416:78 *433:78 0.0163979
47 *416:78 *465:46 0.00565003
48 *416:78 *474:112 0.00555675
49 *416:78 *491:94 0.00139376
50 *416:96 *11542:BEN[27] 5.46879e-05
51 *1136:DIODE *11542:DI[27] 5.06736e-05
52 *1136:DIODE *416:82 0.000488341
53 *1192:DIODE *416:76 4.0342e-06
54 *224:13 *11515:DI[27] 0.00017139
55 *258:14 *11524:DI[27] 0
56 *288:14 *11533:DI[27] 0
57 *292:11 *11533:DI[27] 0
58 *320:10 *11542:DI[27] 9.0435e-05
59 *365:80 *416:10 0.00307637
60 *400:10 *416:10 0.00739305
61 *411:10 *416:10 0.0111536
62 *413:10 *416:10 0.000403752
*RES
1 *11461:X *416:8 24.6036 
2 *416:8 *416:10 165.268 
3 *416:10 *416:18 27.6518 
4 *416:18 *416:22 5.11453 
5 *416:22 *416:24 52.8719 
6 *416:24 *11515:DI[27] 26.2761 
7 *416:22 *11524:DI[27] 14.7761 
8 *416:18 *416:60 26.2232 
9 *416:60 *416:64 47.2946 
10 *416:64 *416:66 65.0536 
11 *416:66 *416:76 45.1696 
12 *416:76 *416:78 225.679 
13 *416:78 *416:82 13.6607 
14 *416:82 *11542:DI[27] 3.17857 
15 *416:82 *416:96 10.0082 
16 *416:96 *416:98 53.8087 
17 *416:98 *11533:DI[27] 18.2939 
*END

*D_NET *417 0.00138938
*CONN
*I *11356:A I *D sky130_fd_sc_hd__dlygate4sd3_1
*I *11462:X O *D sky130_fd_sc_hd__dlygate4sd3_1
*CAP
1 *11356:A 0.000589113
2 *11462:X 0.000589113
3 *11356:A *11462:A 3.69047e-06
4 *11356:A *11565:A 0
5 *11356:A *11614:A 0.000161723
6 *11356:A *585:20 0
7 wbs_dat_o[16] *11356:A 4.57445e-05
8 *11355:A *11356:A 0
*RES
1 *11462:X *11356:A 35.9036 
*END

*D_NET *418 0.190092
*CONN
*I *11533:DI[16] I *D CF_SRAM_1024x32
*I *11542:DI[16] I *D CF_SRAM_1024x32
*I *11524:DI[16] I *D CF_SRAM_1024x32
*I *11515:DI[16] I *D CF_SRAM_1024x32
*I *11463:X O *D sky130_fd_sc_hd__buf_12
*CAP
1 *11533:DI[16] 0.000525793
2 *11542:DI[16] 0.00142852
3 *11524:DI[16] 0.00063135
4 *11515:DI[16] 0.000804036
5 *11463:X 0.000499938
6 *418:106 7.34403e-07
7 *418:95 0.0190077
8 *418:93 0.0185771
9 *418:74 0.0092926
10 *418:72 0.00905309
11 *418:60 0.00185627
12 *418:42 0.0143446
13 *418:40 0.0135405
14 *418:38 0.000757748
15 *418:30 0.00171291
16 *418:26 0.00188935
17 *418:18 0.00130375
18 *11515:DI[16] *11515:ScanInDR 0.000135028
19 *11515:DI[16] *631:68 1.08359e-05
20 *11524:DI[16] *11524:ScanInDR 0
21 *11533:DI[16] *630:74 4.53834e-05
22 *418:18 *11467:A 0.000293415
23 *418:18 *422:12 3.69047e-06
24 *418:18 *569:30 0.00029513
25 *418:26 *526:24 0.00121136
26 *418:26 *549:175 0.000260574
27 *418:26 *574:16 0.00014281
28 *418:26 *576:8 0.00289842
29 *418:30 *427:16 0.00356942
30 *418:30 *465:10 0.00100176
31 *418:30 *572:24 0.000541341
32 *418:38 *422:32 0.000473982
33 *418:38 *463:71 0.000556991
34 *418:38 *467:82 0.000128228
35 *418:38 *474:110 5.38593e-06
36 *418:38 *491:92 4.38265e-05
37 *418:60 *463:71 8.74166e-05
38 *418:60 *463:73 0.000145452
39 *418:72 *11524:ScanInDR 0
40 *418:74 *461:68 0.0288817
41 *418:95 *422:102 0
42 *838:DIODE *418:72 0.000175892
43 *1092:DIODE *11542:DI[16] 0.00124409
44 *192:16 *418:26 0.000249473
45 *212:12 *11515:DI[16] 0.000534436
46 *228:22 *11515:DI[16] 0.000260595
47 *244:9 *11524:DI[16] 0
48 *244:15 *418:42 0.00585616
49 *245:22 *418:42 0.00834617
50 *246:65 *418:42 0
51 *256:19 *418:26 0.00143318
52 *256:19 *418:38 0.000789137
53 *256:19 *418:60 0.000387494
54 *276:9 *11533:DI[16] 0.00133924
55 *276:9 *418:106 1.33343e-05
56 *308:7 *11542:DI[16] 9.60875e-05
57 *308:17 *418:95 0.00112137
58 *313:35 *418:95 0
59 *316:19 *418:93 1.94879e-05
60 *318:13 *418:93 1.94879e-05
61 *376:95 *418:30 0.000351244
62 *394:106 *418:30 1.94945e-05
63 *396:102 *11515:DI[16] 0.000457035
64 *398:10 *418:30 0.000308247
65 *407:10 *418:74 0.00530324
66 *407:46 *418:74 0.0258093
*RES
1 *11463:X *418:18 31.6571 
2 *418:18 *418:26 47.8393 
3 *418:26 *418:30 49.8571 
4 *418:30 *418:38 25.7054 
5 *418:38 *418:40 3.41 
6 *418:40 *418:42 54.1691 
7 *418:42 *11515:DI[16] 24.7404 
8 *418:38 *418:60 9.33036 
9 *418:60 *11524:DI[16] 9.73214 
10 *418:60 *418:72 19 
11 *418:72 *418:74 392.036 
12 *418:74 *11542:DI[16] 28.0357 
13 *11542:DI[16] *418:93 10.1868 
14 *418:93 *418:95 52.7998 
15 *418:95 *11533:DI[16] 21.3475 
16 *11533:DI[16] *418:106 0.175 
*END

*D_NET *419 0.000126884
*CONN
*I *11389:A I *D sky130_fd_sc_hd__dlygate4sd3_1
*I *11464:X O *D sky130_fd_sc_hd__dlygate4sd3_1
*CAP
1 *11389:A 6.29488e-06
2 *11464:X 6.29488e-06
3 *11389:A *11464:A 5.71472e-05
4 *11389:A *620:12 5.71472e-05
*RES
1 *11464:X *11389:A 19.1357 
*END

*D_NET *420 0.207962
*CONN
*I *11533:DI[28] I *D CF_SRAM_1024x32
*I *11542:DI[28] I *D CF_SRAM_1024x32
*I *11515:DI[28] I *D CF_SRAM_1024x32
*I *11524:DI[28] I *D CF_SRAM_1024x32
*I *11465:X O *D sky130_fd_sc_hd__buf_12
*CAP
1 *11533:DI[28] 0.000746555
2 *11542:DI[28] 0.000486551
3 *11515:DI[28] 0.000868604
4 *11524:DI[28] 0.000117846
5 *11465:X 0.000105284
6 *420:71 0.0263073
7 *420:69 0.0256157
8 *420:50 0.0086164
9 *420:48 0.00818479
10 *420:32 0.0201028
11 *420:30 0.01929
12 *420:16 0.000639045
13 *420:14 0.000948049
14 *420:10 0.00413531
15 *420:8 0.00375787
16 *11515:DI[28] *476:64 9.09049e-05
17 *11515:DI[28] *631:68 9.27418e-05
18 *420:50 *11542:BEN[23] 0.000267009
19 *420:50 *427:64 0.0231729
20 *420:50 *456:57 0.0293259
21 *420:50 *465:10 0.000401057
22 *420:50 *472:70 0.00363247
23 *420:50 *629:203 0.000314527
24 *420:50 *629:215 0.000284415
25 *420:50 *629:243 0.000417824
26 *420:50 *630:122 0.000167474
27 *420:50 *630:134 0.000292447
28 *420:50 *630:146 0.000314527
29 *420:50 *630:159 0.000314527
30 *420:50 *630:172 0.000298763
31 *420:71 *433:82 0
32 *1138:DIODE *11542:DI[28] 0.000502166
33 *1194:DIODE *11515:DI[28] 1.58163e-05
34 *225:11 *11515:DI[28] 0.000417874
35 *257:11 *11524:DI[28] 1.48428e-05
36 *257:11 *420:14 6.7279e-05
37 *257:11 *420:16 0.000305966
38 *257:20 *420:14 0.000165152
39 *258:14 *420:30 0
40 *289:14 *11533:DI[28] 0.000215649
41 *289:23 *11533:DI[28] 8.75368e-06
42 *292:11 *11533:DI[28] 6.2589e-06
43 *321:10 *11542:DI[28] 5.06672e-05
44 *378:41 *420:10 0.013038
45 *385:40 *420:10 0.013038
46 *416:24 *420:32 0
47 *416:60 *420:50 0.000805782
*RES
1 *11465:X *420:8 15.1571 
2 *420:8 *420:10 167.696 
3 *420:10 *420:14 12.0179 
4 *420:14 *420:16 9.16071 
5 *420:16 *11524:DI[28] 2.32143 
6 *420:16 *420:30 8.79393 
7 *420:30 *420:32 52.8719 
8 *420:32 *11515:DI[28] 22.6154 
9 *420:14 *420:48 4.5 
10 *420:48 *420:50 391.125 
11 *420:50 *11542:DI[28] 15.0893 
12 *11542:DI[28] *420:69 9.13321 
13 *420:69 *420:71 52.7998 
14 *420:71 *11533:DI[28] 21.0439 
*END

*D_NET *421 0.00134905
*CONN
*I *11358:A I *D sky130_fd_sc_hd__dlygate4sd3_1
*I *11466:X O *D sky130_fd_sc_hd__dlygate4sd3_1
*CAP
1 *11358:A 0.000579554
2 *11466:X 0.000579554
3 *11358:A *11466:A 3.69047e-06
4 *11358:A *610:16 0.000148516
5 *11358:A *610:28 3.77389e-05
6 *11357:A *11358:A 0
*RES
1 *11466:X *11358:A 35.9036 
*END

*D_NET *422 0.206619
*CONN
*I *11533:DI[17] I *D CF_SRAM_1024x32
*I *11542:DI[17] I *D CF_SRAM_1024x32
*I *11515:DI[17] I *D CF_SRAM_1024x32
*I *11524:DI[17] I *D CF_SRAM_1024x32
*I *11467:X O *D sky130_fd_sc_hd__buf_12
*CAP
1 *11533:DI[17] 0.00043706
2 *11542:DI[17] 0.000182786
3 *11515:DI[17] 0.000522619
4 *11524:DI[17] 0.000211205
5 *11467:X 0.000189625
6 *422:102 0.0169782
7 *422:100 0.0166259
8 *422:91 7.34403e-07
9 *422:78 0.00121796
10 *422:74 0.0112177
11 *422:72 0.0111443
12 *422:65 1.48141e-06
13 *422:54 0.0139799
14 *422:52 0.0134754
15 *422:38 0.000334664
16 *422:36 0.00163731
17 *422:32 0.00155901
18 *422:24 0.00266923
19 *422:16 0.00262792
20 *422:12 0.00105454
21 *11515:DI[17] *472:24 2.05629e-05
22 *11515:DI[17] *474:78 6.05161e-06
23 *11515:DI[17] *478:46 8.55871e-05
24 *422:16 *427:14 0.00229553
25 *422:16 *569:30 0.00259263
26 *422:16 *572:24 0.000185446
27 *422:24 *427:14 0
28 *422:24 *427:16 0.000440175
29 *422:24 *433:10 6.5185e-05
30 *422:24 *549:175 0.000373255
31 *422:32 *11524:BEN[0] 2.58997e-05
32 *422:32 *463:71 0.000722808
33 *422:32 *467:80 3.0591e-05
34 *422:32 *576:8 0.00025263
35 *422:102 *630:92 0.00575458
36 *422:102 *630:96 0.000692432
37 *852:DIODE *422:72 0.000175892
38 *1103:DIODE *422:78 2.72887e-05
39 *11515:CLKin *11515:DI[17] 0
40 *11524:CLKin *11524:DI[17] 0
41 *11533:CLKin *11533:DI[17] 0
42 *11533:CLKin *422:102 0
43 *11533:TM *11533:DI[17] 0.000665419
44 *11542:WLBI *422:78 2.97829e-05
45 *11542:CLKin *11542:DI[17] 5.39629e-06
46 *11542:TM *11542:DI[17] 3.97677e-05
47 *11542:TM *422:78 0.000424782
48 *188:16 *422:36 0.00201598
49 *194:18 *422:36 0.000648727
50 *197:39 *422:54 0.0326116
51 *213:18 *11515:DI[17] 0.000185801
52 *213:18 *422:65 4.0342e-06
53 *245:10 *11524:DI[17] 4.87854e-05
54 *245:96 *11524:DI[17] 0.000107946
55 *245:96 *422:38 0.000108308
56 *245:96 *422:72 0.000234665
57 *245:120 *422:72 0.00022093
58 *245:140 *422:72 0.000257619
59 *248:61 *422:24 2.60984e-05
60 *248:68 *422:24 4.16984e-05
61 *256:19 *422:32 0.000461541
62 *258:14 *422:52 4.3588e-05
63 *277:15 *11533:DI[17] 3.30237e-05
64 *279:15 *11533:DI[17] 0
65 *309:7 *11542:DI[17] 6.47493e-05
66 *309:7 *422:91 1.33343e-05
67 *309:19 *11542:DI[17] 2.01466e-05
68 *309:116 *11542:DI[17] 0.000117014
69 *311:11 *422:100 0.000253468
70 *313:27 *422:100 0.000206152
71 *313:35 *422:100 2.38581e-05
72 *355:8 *422:32 0.000103977
73 *355:10 *422:36 5.71124e-05
74 *356:8 *422:32 0.000266057
75 *376:95 *422:32 0.000101595
76 *376:97 *422:74 0.0239228
77 *378:89 *11515:DI[17] 1.94879e-05
78 *391:44 *422:74 0.0261255
79 *394:106 *422:24 0.000136958
80 *394:108 *422:74 0.00548512
81 *396:50 *422:32 8.23597e-06
82 *398:10 *422:32 0.0011423
83 *398:18 *422:52 4.3588e-05
84 *400:50 *422:74 0
85 *418:18 *422:12 3.69047e-06
86 *418:38 *422:32 0.000473982
87 *418:95 *422:102 0
*RES
1 *11467:X *422:12 16.425 
2 *422:12 *422:16 35.4375 
3 *422:16 *422:24 38.1875 
4 *422:24 *422:32 40.4821 
5 *422:32 *422:36 30.125 
6 *422:36 *422:38 2.17857 
7 *422:38 *11524:DI[17] 3.67857 
8 *422:38 *422:52 8.49036 
9 *422:52 *422:54 53.8808 
10 *422:54 *11515:DI[17] 16.9368 
11 *11515:DI[17] *422:65 0.21875 
12 *422:36 *422:72 18.5893 
13 *422:72 *422:74 393.554 
14 *422:74 *422:78 20.6429 
15 *422:78 *11542:DI[17] 4.10714 
16 *11542:DI[17] *422:91 0.145833 
17 *422:78 *422:100 11.2225 
18 *422:100 *422:102 54.1691 
19 *422:102 *11533:DI[17] 18.4368 
*END

*D_NET *423 0.00149707
*CONN
*I *11340:A I *D sky130_fd_sc_hd__dlygate4sd3_1
*I *11468:X O *D sky130_fd_sc_hd__dlygate4sd3_1
*CAP
1 *11340:A 0.000501131
2 *11468:X 0.000501131
3 *11340:A *11564:A 0.000150096
4 *11340:A *11613:A 1.21258e-05
5 wbs_dat_o[15] *11340:A 0.000224341
6 *11469:A *11340:A 9.99853e-05
7 *360:18 *11340:A 8.25843e-06
*RES
1 *11468:X *11340:A 35.9571 
*END

*D_NET *424 0.00103787
*CONN
*I *11564:A I *D sky130_fd_sc_hd__buf_12
*I *11469:X O *D sky130_fd_sc_hd__dlygate4sd3_1
*CAP
1 *11564:A 0.000217348
2 *11469:X 0.000217348
3 *11564:A *448:16 5.33005e-05
4 *11564:A *609:12 7.29646e-05
5 *11340:A *11564:A 0.000150096
6 *11469:A *11564:A 0.000326816
*RES
1 *11469:X *11564:A 32.5107 
*END

*D_NET *425 0.0016215
*CONN
*I *11363:A I *D sky130_fd_sc_hd__dlygate4sd3_1
*I *11470:X O *D sky130_fd_sc_hd__dlygate4sd3_1
*CAP
1 *11363:A 0.000249239
2 *11470:X 0.000249239
3 *11363:A *11470:A 3.26077e-05
4 *11363:A *609:16 9.12639e-05
5 *11363:A *609:20 0.000525643
6 *11330:A *11363:A 0.000153486
7 *11361:A *11363:A 0.000320024
*RES
1 *11470:X *11363:A 35.9393 
*END

*D_NET *426 0.0288862
*CONN
*I *11432:A I *D sky130_fd_sc_hd__buf_12
*I *11560:X O *D sky130_fd_sc_hd__buf_12
*CAP
1 *11432:A 0.000353735
2 *11560:X 9.45885e-05
3 *426:22 0.0024648
4 *426:12 0.00401584
5 *426:10 0.00199937
6 *11432:A *11428:A 3.53476e-05
7 *426:10 *11431:A 5.80706e-06
8 *426:12 *437:12 0.0088976
9 *426:12 *460:14 0.00621516
10 *426:12 *482:14 0.000434567
11 *426:12 *604:14 0.00110553
12 *426:12 *607:18 0.000591656
13 *426:22 *11570:A 0
14 *426:22 *526:10 0.000118983
15 wbs_dat_o[20] *426:22 4.86293e-05
16 *11313:A1 *426:22 0
17 *11313:B2 *426:22 0
18 *11313:C1 *426:22 1.26512e-05
19 *11350:A *426:22 0
20 *11352:A *426:22 0
21 *11423:A *426:10 0
22 *181:12 *11432:A 0
23 *181:12 *426:22 0.00208555
24 *225:36 *426:22 0.000371645
25 *383:18 *11432:A 2.06178e-05
26 *387:18 *11432:A 1.41706e-05
*RES
1 *11560:X *426:10 19.9429 
2 *426:10 *426:12 95.8214 
3 *426:12 *426:22 46.8214 
4 *426:22 *11432:A 19.6929 
*END

*D_NET *427 0.211578
*CONN
*I *11533:DI[18] I *D CF_SRAM_1024x32
*I *11542:DI[18] I *D CF_SRAM_1024x32
*I *11515:DI[18] I *D CF_SRAM_1024x32
*I *11524:DI[18] I *D CF_SRAM_1024x32
*I *11472:X O *D sky130_fd_sc_hd__buf_12
*CAP
1 *11533:DI[18] 0.000355865
2 *11542:DI[18] 8.84372e-05
3 *11515:DI[18] 0.000958073
4 *11524:DI[18] 8.3755e-05
5 *11472:X 0.000911529
6 *427:84 0.0247518
7 *427:82 0.0244368
8 *427:68 0.000517114
9 *427:64 0.00852838
10 *427:62 0.00822258
11 *427:44 0.0289023
12 *427:42 0.0279603
13 *427:28 0.000750717
14 *427:24 0.0013551
15 *427:16 0.00202081
16 *427:14 0.0023101
17 *11515:DI[18] *631:68 2.46553e-05
18 *11533:DI[18] *630:213 0.000114235
19 *427:14 *11472:A 1.33343e-05
20 *427:14 *572:24 0.00231314
21 *427:16 *433:10 0.00327684
22 *427:16 *465:10 4.21584e-05
23 *427:16 *474:112 0.00142665
24 *427:16 *476:96 0.000122492
25 *427:16 *491:94 0.000158892
26 *427:16 *549:175 0.000684457
27 *427:16 *572:24 1.43349e-05
28 *427:24 *11524:SM 1.28171e-05
29 *427:24 *463:71 0.000184815
30 *427:24 *463:73 0.000558858
31 *427:24 *465:10 0.00173341
32 *427:24 *472:70 0.000350472
33 *427:42 *11524:BEN[18] 4.38243e-05
34 *427:62 *463:73 4.77877e-05
35 *427:62 *465:10 0.000134743
36 *427:64 *11542:BEN[16] 0.000140952
37 *427:64 *11542:AD[0] 0.000163563
38 *427:64 *11542:AD[4] 4.38243e-05
39 *427:64 *11542:AD[6] 6.34448e-05
40 *427:64 *11542:AD[7] 6.06852e-05
41 *427:64 *11542:BEN[0] 0.000361404
42 *427:64 *463:73 0.0262587
43 *427:64 *465:10 0.00260236
44 *427:64 *467:82 0.00430006
45 *427:64 *630:110 0.000289604
46 *427:64 *630:122 0.000136737
47 *837:DIODE *427:24 0.000135028
48 *11542:DI[0] *427:64 4.6075e-05
49 *11542:DI[1] *427:64 1.94879e-05
50 *214:11 *11515:DI[18] 0.000252963
51 *214:20 *11515:DI[18] 8.28223e-06
52 *228:22 *11515:DI[18] 4.38243e-05
53 *245:104 *427:24 4.97892e-05
54 *246:7 *11524:DI[18] 0
55 *246:7 *427:28 0
56 *246:11 *427:28 0
57 *252:19 *427:44 0
58 *254:13 *427:42 4.38243e-05
59 *278:7 *11533:DI[18] 0.00041751
60 *310:7 *11542:DI[18] 4.87854e-05
61 *310:7 *427:68 5.96516e-05
62 *310:17 *427:84 0.00215221
63 *310:52 *427:68 0.000414742
64 *313:27 *427:68 4.00679e-05
65 *316:19 *427:82 0.000112786
66 *318:13 *427:82 0.000112786
67 *405:44 *427:64 0
68 *416:18 *427:64 8.74238e-05
69 *416:60 *427:64 0.000221402
70 *418:30 *427:16 0.00356942
71 *420:50 *427:64 0.0231729
72 *422:16 *427:14 0.00229553
73 *422:24 *427:14 0
74 *422:24 *427:16 0.000440175
*RES
1 *11472:X *427:14 47.0768 
2 *427:14 *427:16 65.2411 
3 *427:16 *427:24 32.6429 
4 *427:24 *427:28 14.0714 
5 *427:28 *11524:DI[18] 1.33929 
6 *427:28 *427:42 8.49036 
7 *427:42 *427:44 52.7998 
8 *427:44 *11515:DI[18] 21.7404 
9 *427:24 *427:62 2.66964 
10 *427:62 *427:64 391.045 
11 *427:64 *427:68 13.25 
12 *427:68 *11542:DI[18] 1.67857 
13 *427:68 *427:82 9.40107 
14 *427:82 *427:84 53.8087 
15 *427:84 *11533:DI[18] 17.2404 
*END

*D_NET *428 0.00180998
*CONN
*I *11384:A I *D sky130_fd_sc_hd__dlygate4sd3_1
*I *11473:X O *D sky130_fd_sc_hd__dlygate4sd3_1
*CAP
1 *11384:A 0.000510774
2 *11473:X 0.000510774
3 *11384:A *11563:A 9.77423e-05
4 *11384:A *449:14 0.000259267
5 *11384:A *601:24 7.40922e-05
6 wbs_dat_o[14] *11384:A 0.000173601
7 *11474:A *11384:A 0.000183726
*RES
1 *11473:X *11384:A 37.3857 
*END

*D_NET *429 0.00101798
*CONN
*I *11563:A I *D sky130_fd_sc_hd__buf_12
*I *11474:X O *D sky130_fd_sc_hd__dlygate4sd3_1
*CAP
1 *11563:A 0.000272409
2 *11474:X 0.000272409
3 *11563:A *601:24 4.87953e-05
4 *11384:A *11563:A 9.77423e-05
5 *11474:A *11563:A 0.000326627
*RES
1 *11474:X *11563:A 32.9214 
*END

*D_NET *430 0.00233872
*CONN
*I *11426:A I *D sky130_fd_sc_hd__dlygate4sd3_1
*I *11475:X O *D sky130_fd_sc_hd__dlygate4sd3_1
*CAP
1 *11426:A 0.00057675
2 *11475:X 0.00057675
3 *11426:A *448:16 0.0002676
4 *11426:A *601:24 0.000420044
5 *11476:A *11426:A 0.000497573
*RES
1 *11475:X *11426:A 40.2786 
*END

*D_NET *431 0.000853068
*CONN
*I *11561:A I *D sky130_fd_sc_hd__buf_12
*I *11476:X O *D sky130_fd_sc_hd__dlygate4sd3_1
*CAP
1 *11561:A 0.000325718
2 *11476:X 0.000325718
3 *11561:A *448:16 9.77072e-05
4 *11473:A *11561:A 0
5 *11476:A *11561:A 0.000103924
*RES
1 *11476:X *11561:A 32.9214 
*END

*D_NET *432 0.00141477
*CONN
*I *11400:A I *D sky130_fd_sc_hd__dlygate4sd3_1
*I *11477:X O *D sky130_fd_sc_hd__dlygate4sd3_1
*CAP
1 *11400:A 0.000547422
2 *11477:X 0.000547422
3 *11400:A *11477:A 9.74665e-05
4 *11400:A *572:20 0
5 *11400:A *574:10 0
6 wbs_dat_o[29] *11400:A 0.000222462
*RES
1 *11477:X *11400:A 37.1179 
*END

*D_NET *433 0.188209
*CONN
*I *11542:DI[29] I *D CF_SRAM_1024x32
*I *11533:DI[29] I *D CF_SRAM_1024x32
*I *11515:DI[29] I *D CF_SRAM_1024x32
*I *11524:DI[29] I *D CF_SRAM_1024x32
*I *11478:X O *D sky130_fd_sc_hd__buf_12
*CAP
1 *11542:DI[29] 0.0007115
2 *11533:DI[29] 0.00071242
3 *11515:DI[29] 0.000589684
4 *11524:DI[29] 0.000123503
5 *11478:X 6.42462e-05
6 *433:82 0.019835
7 *433:80 0.0191225
8 *433:78 0.00815351
9 *433:76 0.00792364
10 *433:72 0.00136307
11 *433:62 0.00191894
12 *433:58 0.0023508
13 *433:42 0.0202912
14 *433:40 0.0197573
15 *433:26 0.000877599
16 *433:22 0.0022633
17 *433:10 0.00413458
18 *433:8 0.00394705
19 *11515:DI[29] *11515:BEN[29] 0
20 *11515:DI[29] *463:36 9.2249e-05
21 *11515:DI[29] *629:30 6.05161e-06
22 *11524:DI[29] *11524:BEN[29] 0
23 *11524:DI[29] *555:168 0
24 *11542:DI[29] *465:46 0.000116303
25 *433:10 *456:10 0.0131008
26 *433:10 *474:112 0.00473671
27 *433:10 *476:96 0.000113204
28 *433:10 *491:94 0.00225437
29 *433:22 *456:18 2.46553e-05
30 *433:22 *478:80 4.38243e-05
31 *433:26 *11524:BEN[29] 0
32 *433:42 *456:39 0
33 *433:58 *456:18 6.37408e-06
34 *433:58 *478:80 0.00519049
35 *433:58 *491:94 0.000971985
36 *433:62 *478:80 0.00196875
37 *433:62 *491:94 0.000738801
38 *433:72 *474:112 0.00128016
39 *433:72 *478:80 1.13346e-05
40 *433:72 *491:94 0.000574655
41 *433:76 *478:80 0.00138213
42 *433:76 *491:94 0.000259204
43 *433:78 *11542:AD[1] 4.75152e-06
44 *433:78 *11542:AD[2] 4.18834e-05
45 *433:78 *465:46 0.000437839
46 *433:78 *474:122 0.00209457
47 *433:78 *476:96 0.00082574
48 *433:78 *478:80 0.00222952
49 *433:78 *491:94 0.000258066
50 *433:82 *11542:BEN[28] 0.000382382
51 *865:DIODE *433:10 0.000198291
52 *912:DIODE *433:10 0.000125731
53 *919:DIODE *433:10 0.000119217
54 *924:DIODE *433:26 7.64454e-05
55 *1086:DIODE *433:72 0.000202842
56 *1103:DIODE *433:78 3.69697e-05
57 *1140:DIODE *11542:DI[29] 0.000612358
58 *194:18 *433:40 0
59 *226:7 *11515:DI[29] 0
60 *244:103 *433:10 0.00020112
61 *245:126 *433:10 0.00012401
62 *246:15 *433:10 7.14469e-05
63 *254:99 *433:10 0.000151333
64 *256:17 *433:10 0.000394351
65 *258:10 *11524:DI[29] 0
66 *258:10 *433:26 0
67 *290:14 *11533:DI[29] 0.000606737
68 *290:23 *11533:DI[29] 1.92789e-05
69 *292:11 *11533:DI[29] 0.000177574
70 *304:15 *433:72 7.6644e-05
71 *322:5 *11542:DI[29] 5.39657e-05
72 *322:24 *433:82 9.51739e-05
73 *394:60 *11515:DI[29] 9.36685e-05
74 *416:60 *433:26 0.000177545
75 *416:64 *433:58 0.00371144
76 *416:66 *433:58 0.000762727
77 *416:66 *433:62 0.00366198
78 *416:76 *433:72 0.0026771
79 *416:78 *433:72 4.21517e-05
80 *416:78 *433:76 0.000712189
81 *416:78 *433:78 0.0163979
82 *420:71 *433:82 0
83 *422:24 *433:10 6.5185e-05
84 *427:16 *433:10 0.00327684
*RES
1 *11478:X *433:8 14.7464 
2 *433:8 *433:10 170.884 
3 *433:10 *433:22 7.82649 
4 *433:22 *433:26 16.125 
5 *433:26 *11524:DI[29] 2.30357 
6 *433:26 *433:40 8.79393 
7 *433:40 *433:42 53.8087 
8 *433:42 *11515:DI[29] 17.2582 
9 *433:22 *433:58 65.5446 
10 *433:58 *433:62 46.6518 
11 *433:62 *433:72 44.8482 
12 *433:72 *433:76 18.1786 
13 *433:76 *433:78 223.036 
14 *433:78 *433:80 3.41 
15 *433:80 *433:82 54.8177 
16 *433:82 *11533:DI[29] 25.2046 
17 *433:78 *11542:DI[29] 21.3839 
*END

*D_NET *434 0.00186784
*CONN
*I *11431:A I *D sky130_fd_sc_hd__dlygate4sd3_1
*I *11479:X O *D sky130_fd_sc_hd__dlygate4sd3_1
*CAP
1 *11431:A 0.0005685
2 *11479:X 0.0005685
3 *11431:A *11560:A 0.00055943
4 *11431:A *11610:A 0
5 *11431:A *601:24 0.000165603
6 *11423:A *11431:A 0
7 *426:10 *11431:A 5.80706e-06
*RES
1 *11479:X *11431:A 38.9929 
*END

*D_NET *435 0.00118699
*CONN
*I *11560:A I *D sky130_fd_sc_hd__buf_12
*I *11480:X O *D sky130_fd_sc_hd__dlygate4sd3_1
*CAP
1 *11560:A 0.000217959
2 *11480:X 0.000217959
3 *11560:A *601:24 0.000122101
4 *11423:A *11560:A 6.95392e-05
5 *11431:A *11560:A 0.00055943
6 *11480:A *11560:A 0
*RES
1 *11480:X *11560:A 34.1536 
*END

*D_NET *436 0.000126884
*CONN
*I *11433:A I *D sky130_fd_sc_hd__dlygate4sd3_1
*I *11481:X O *D sky130_fd_sc_hd__dlygate4sd3_1
*CAP
1 *11433:A 6.29488e-06
2 *11481:X 6.29488e-06
3 *11433:A *448:14 5.71472e-05
4 *11433:A *589:14 5.71472e-05
*RES
1 *11481:X *11433:A 19.1357 
*END

*D_NET *437 0.0274653
*CONN
*I *11428:A I *D sky130_fd_sc_hd__buf_12
*I *11561:X O *D sky130_fd_sc_hd__buf_12
*CAP
1 *11428:A 0.00123894
2 *11561:X 6.47257e-05
3 *437:12 0.00826479
4 *437:10 0.00709057
5 *437:12 *460:14 0.00109127
6 *437:12 *471:12 0.000118491
7 *437:12 *482:14 0.000499907
8 wbs_dat_o[13] *437:10 5.14943e-05
9 *11359:A *11428:A 0
10 *11432:A *11428:A 3.53476e-05
11 *191:32 *11428:A 9.31114e-05
12 *383:18 *11428:A 1.90936e-05
13 *426:12 *437:12 0.0088976
*RES
1 *11561:X *437:10 19.6393 
2 *437:10 *437:12 103.214 
3 *437:12 *11428:A 34.1929 
*END

*D_NET *438 7.46845e-05
*CONN
*I *11559:A I *D sky130_fd_sc_hd__buf_12
*I *11483:X O *D sky130_fd_sc_hd__dlygate4sd3_1
*CAP
1 *11559:A 2.14084e-05
2 *11483:X 2.14084e-05
3 *11559:A *601:24 3.18676e-05
*RES
1 *11483:X *11559:A 19.1357 
*END

*D_NET *439 0.00249271
*CONN
*I *11328:A I *D sky130_fd_sc_hd__dlygate4sd3_1
*I *11484:X O *D sky130_fd_sc_hd__dlygate4sd3_1
*CAP
1 *11328:A 0.000335496
2 *11484:X 0.000335496
3 *11328:A *448:10 0.000146711
4 *11328:A *599:12 0.000344232
5 *11211:A *11328:A 0.000188586
6 *11397:A *11328:A 0.000326191
7 *11485:A *11328:A 5.52302e-05
8 *117:10 *11328:A 0.000276211
9 *117:65 *11328:A 0.00018372
10 *338:26 *11328:A 0.000139087
11 *404:18 *11328:A 0.000161748
*RES
1 *11484:X *11328:A 39.6179 
*END

*D_NET *440 0.000398153
*CONN
*I *11558:A I *D sky130_fd_sc_hd__buf_12
*I *11485:X O *D sky130_fd_sc_hd__dlygate4sd3_1
*CAP
1 *11558:A 0.000158479
2 *11485:X 0.000158479
3 *11558:A *448:10 5.47001e-05
4 *404:18 *11558:A 2.64941e-05
*RES
1 *11485:X *11558:A 29.7786 
*END

*D_NET *441 0.00288712
*CONN
*I *11460:A I *D sky130_fd_sc_hd__dlygate4sd3_1
*I *11486:X O *D sky130_fd_sc_hd__dlygate4sd3_1
*CAP
1 *11460:A 0.000816315
2 *11486:X 0.000816315
3 *11460:A *11590:A 0.000139323
4 *11460:A *599:12 0.000167208
5 *11460:A *601:22 3.76849e-05
6 wbs_dat_o[9] *11460:A 0.00020212
7 *11392:A *11460:A 0.000708156
8 *371:18 *11460:A 0
*RES
1 *11486:X *11460:A 43.9036 
*END

*D_NET *442 0.000655039
*CONN
*I *11590:A I *D sky130_fd_sc_hd__buf_12
*I *11487:X O *D sky130_fd_sc_hd__dlygate4sd3_1
*CAP
1 *11590:A 0.000187188
2 *11487:X 0.000187188
3 *11590:A *584:28 2.64941e-05
4 *11392:A *11590:A 0.000114847
5 *11460:A *11590:A 0.000139323
*RES
1 *11487:X *11590:A 30.6 
*END

*D_NET *443 0.00366552
*CONN
*I *11438:A I *D sky130_fd_sc_hd__dlygate4sd3_1
*I *11488:X O *D sky130_fd_sc_hd__dlygate4sd3_1
*CAP
1 *11438:A 0.000785638
2 *11488:X 0.000785638
3 *11438:A *11591:A 0
4 *11438:A *536:16 0.000400238
5 *11438:A *584:28 0.000546187
6 *11438:A *585:12 0.000402965
7 *11438:A *601:22 0.000117956
8 *371:18 *11438:A 0.000626899
*RES
1 *11488:X *11438:A 45.975 
*END

*D_NET *444 0.00158481
*CONN
*I *11591:A I *D sky130_fd_sc_hd__buf_12
*I *11489:X O *D sky130_fd_sc_hd__dlygate4sd3_1
*CAP
1 *11591:A 0.00041284
2 *11489:X 0.00041284
3 *11591:A *536:16 0
4 *11591:A *584:40 0.000137561
5 *11438:A *11591:A 0
6 *11484:A *11591:A 0.000552068
7 *371:18 *11591:A 6.94952e-05
*RES
1 *11489:X *11591:A 36.3679 
*END

*D_NET *445 0.00177981
*CONN
*I *11482:A I *D sky130_fd_sc_hd__dlygate4sd3_1
*I *11490:X O *D sky130_fd_sc_hd__dlygate4sd3_1
*CAP
1 *11482:A 0.000546547
2 *11490:X 0.000546547
3 *11482:A *11589:A 0.000197984
4 *11482:A *11636:A 0.000243369
5 *11482:A *583:10 9.4736e-05
6 wbs_dat_o[7] *11482:A 0.000150624
*RES
1 *11490:X *11482:A 36.225 
*END

*D_NET *446 0.000795045
*CONN
*I *11589:A I *D sky130_fd_sc_hd__buf_12
*I *11491:X O *D sky130_fd_sc_hd__dlygate4sd3_1
*CAP
1 *11589:A 0.000274808
2 *11491:X 0.000274808
3 *11589:A *583:10 3.53412e-05
4 *11589:A *599:12 1.2104e-05
5 *11589:A *628:22 0
6 *11386:A *11589:A 0
7 *11482:A *11589:A 0.000197984
*RES
1 *11491:X *11589:A 32.5107 
*END

*D_NET *447 0.000412292
*CONN
*I *11504:A I *D sky130_fd_sc_hd__dlygate4sd3_1
*I *11492:X O *D sky130_fd_sc_hd__dlygate4sd3_1
*CAP
1 *11504:A 0.000160747
2 *11492:X 0.000160747
3 *11504:A *11333:A 0
4 *11504:A *11635:A 9.07988e-05
*RES
1 *11492:X *11504:A 30.6 
*END

*D_NET *448 0.023755
*CONN
*I *11507:A I *D sky130_fd_sc_hd__buf_12
*I *11562:X O *D sky130_fd_sc_hd__buf_12
*CAP
1 *11507:A 0
2 *11562:X 0.000894919
3 *448:28 0.00179143
4 *448:16 0.00487101
5 *448:14 0.0036653
6 *448:10 0.00148065
7 *448:10 *599:12 0.000353838
8 *448:14 *589:14 0.000837746
9 *448:14 *599:12 0.00270349
10 *448:16 *11565:A 5.47001e-05
11 *448:16 *11566:A 5.47001e-05
12 *448:16 *599:12 2.57017e-05
13 *11319:B2 *448:28 7.8178e-06
14 *11322:C1 *448:28 0
15 *11328:A *448:10 0.000146711
16 *11330:A *448:28 0.000308595
17 *11332:A *448:28 0.000311894
18 *11426:A *448:16 0.0002676
19 *11433:A *448:14 5.71472e-05
20 *11469:A *448:16 0.000267731
21 *11474:A *448:16 0.000302665
22 *11475:A *448:14 0.000142856
23 *11476:A *448:16 0.000227713
24 *11479:A *448:14 0.0004004
25 *11481:A *448:10 0.000312767
26 *11485:A *448:10 5.52302e-05
27 *11558:A *448:10 5.47001e-05
28 *11561:A *448:16 9.77072e-05
29 *11564:A *448:16 5.33005e-05
30 *117:102 *448:16 0.00040734
31 *122:93 *448:16 0.00207716
32 *223:32 *448:28 0
33 *228:32 *448:28 0.000851978
34 *349:12 *448:16 0.000492943
35 *372:18 *448:28 0.000177227
*RES
1 *11562:X *448:10 26.0857 
2 *448:10 *448:14 26.3214 
3 *448:14 *448:16 60.9107 
4 *448:16 *448:28 42.375 
5 *448:28 *11507:A 9.3 
*END

*D_NET *449 0.0206291
*CONN
*I *11395:A I *D sky130_fd_sc_hd__buf_12
*I *11563:X O *D sky130_fd_sc_hd__buf_12
*CAP
1 *11395:A 0.00149869
2 *11563:X 0.000501068
3 *449:16 0.00478394
4 *449:14 0.00378631
5 *11395:A *548:10 2.80066e-05
6 *449:14 *601:24 9.35794e-06
7 *449:14 *607:16 3.92992e-05
8 *449:16 *493:12 0.000846009
9 *449:16 *585:14 0.000290226
10 *449:16 *608:14 0.00857782
11 wbs_dat_o[22] *11395:A 0
12 *11384:A *449:14 0.000259267
13 *11474:A *449:14 9.11048e-06
14 *115:43 *11395:A 0
15 *168:86 *11395:A 0
*RES
1 *11563:X *449:14 25.4964 
2 *449:14 *449:16 99.9286 
3 *449:16 *11395:A 39.9786 
*END

*D_NET *450 0.000673901
*CONN
*I *11588:A I *D sky130_fd_sc_hd__buf_12
*I *11494:X O *D sky130_fd_sc_hd__dlygate4sd3_1
*CAP
1 *11588:A 0.000259215
2 *11494:X 0.000259215
3 *11588:A *582:10 0.000100246
4 *11588:A *597:12 0
5 *11588:A *601:12 5.52238e-05
*RES
1 *11494:X *11588:A 32.2071 
*END

*D_NET *451 0.000720268
*CONN
*I *11362:A I *D sky130_fd_sc_hd__dlygate4sd3_1
*I *11495:X O *D sky130_fd_sc_hd__dlygate4sd3_1
*CAP
1 *11362:A 9.97307e-05
2 *11495:X 9.97307e-05
3 *11362:A *586:34 0.000125731
4 *11362:A *592:24 9.15291e-05
5 *11362:A *592:30 0.000125731
6 *11362:A *599:12 0.000177815
*RES
1 *11495:X *11362:A 31.0107 
*END

*D_NET *452 0.000494752
*CONN
*I *11587:A I *D sky130_fd_sc_hd__buf_12
*I *11496:X O *D sky130_fd_sc_hd__dlygate4sd3_1
*CAP
1 *11587:A 0.000178648
2 *11496:X 0.000178648
3 *11587:A *11333:A 0.000117094
4 *11587:A *599:12 2.03624e-05
*RES
1 *11496:X *11587:A 30.1893 
*END

*D_NET *453 0.00056662
*CONN
*I *11406:A I *D sky130_fd_sc_hd__dlygate4sd3_1
*I *11497:X O *D sky130_fd_sc_hd__dlygate4sd3_1
*CAP
1 *11406:A 8.21244e-05
2 *11497:X 8.21244e-05
3 *11406:A *592:24 7.61932e-05
4 *11406:A *599:12 0.0001399
5 *11406:A *624:26 6.05462e-05
6 *11497:A *11406:A 0.000125731
*RES
1 *11497:X *11406:A 30.6 
*END

*D_NET *454 0.000818957
*CONN
*I *11586:A I *D sky130_fd_sc_hd__buf_12
*I *11498:X O *D sky130_fd_sc_hd__dlygate4sd3_1
*CAP
1 *11586:A 0.00025865
2 *11498:X 0.00025865
3 *11586:A *11335:A 0.00011333
4 *11586:A *590:12 5.33005e-05
5 *11586:A *592:24 0.000135028
*RES
1 *11498:X *11586:A 31.1357 
*END

*D_NET *455 0.00142253
*CONN
*I *11402:A I *D sky130_fd_sc_hd__dlygate4sd3_1
*I *11499:X O *D sky130_fd_sc_hd__dlygate4sd3_1
*CAP
1 *11402:A 0.000529465
2 *11499:X 0.000529465
3 *11402:A *11499:A 3.69047e-06
4 *11402:A *11582:A 0
5 *11402:A *11630:A 0
6 *11402:A *493:16 0.000314166
7 wbs_dat_o[30] *11402:A 4.57445e-05
*RES
1 *11499:X *11402:A 35.9036 
*END

*D_NET *456 0.20061
*CONN
*I *11533:DI[30] I *D CF_SRAM_1024x32
*I *11542:DI[30] I *D CF_SRAM_1024x32
*I *11515:DI[30] I *D CF_SRAM_1024x32
*I *11524:DI[30] I *D CF_SRAM_1024x32
*I *11500:X O *D sky130_fd_sc_hd__buf_12
*CAP
1 *11533:DI[30] 0.000704222
2 *11542:DI[30] 9.69375e-05
3 *11515:DI[30] 0.0007873
4 *11524:DI[30] 0.000850036
5 *11500:X 3.4396e-05
6 *456:77 0.0190789
7 *456:75 0.0184788
8 *456:61 0.000549483
9 *456:57 0.00836915
10 *456:55 0.00802071
11 *456:39 0.0199765
12 *456:37 0.0193485
13 *456:18 0.00107784
14 *456:10 0.00391671
15 *456:8 0.00356405
16 *11515:DI[30] *631:68 9.36119e-05
17 *11524:DI[30] *11524:BEN[30] 0
18 *11524:DI[30] *555:180 0
19 *456:10 *474:112 1.09026e-05
20 *456:10 *478:80 0.0123416
21 *456:10 *491:94 0.00225437
22 *456:18 *474:112 0.000862658
23 *456:18 *478:80 1.34316e-05
24 *456:18 *491:94 0.000194161
25 *456:57 *11542:BEN[30] 0
26 *456:57 *465:10 0.000771594
27 *456:57 *465:46 0.0300993
28 *456:57 *472:70 0.00379942
29 *456:57 *629:243 0
30 *456:57 *629:255 0
31 *738:DIODE *11515:DI[30] 5.66157e-05
32 *1151:DIODE *11542:DI[30] 2.59355e-05
33 *1151:DIODE *456:61 0.000521518
34 *11251:A1 *11515:DI[30] 1.28935e-06
35 *141:24 *11515:DI[30] 4.66781e-05
36 *194:16 *456:37 0
37 *228:12 *11515:DI[30] 0.00055043
38 *228:20 *11515:DI[30] 4.53834e-05
39 *260:11 *11524:DI[30] 4.25652e-05
40 *260:11 *456:18 3.77065e-05
41 *260:11 *456:37 5.33334e-05
42 *260:20 *456:18 3.69047e-06
43 *292:7 *11533:DI[30] 0.000471258
44 *292:11 *11533:DI[30] 4.07164e-05
45 *324:4 *11542:DI[30] 7.43578e-06
46 *324:10 *11542:DI[30] 5.33334e-05
47 *324:20 *456:75 0.0001434
48 *324:20 *456:77 0
49 *416:64 *456:18 0.000756702
50 *420:50 *456:57 0.0293259
51 *433:10 *456:10 0.0131008
52 *433:22 *456:18 2.46553e-05
53 *433:42 *456:39 0
54 *433:58 *456:18 6.37408e-06
*RES
1 *11500:X *456:8 14.3357 
2 *456:8 *456:10 166.634 
3 *456:10 *456:18 17.7054 
4 *456:18 *11524:DI[30] 12.1429 
5 *11524:DI[30] *456:37 11.0618 
6 *456:37 *456:39 53.016 
7 *456:39 *11515:DI[30] 21.3296 
8 *456:18 *456:55 4.5 
9 *456:55 *456:57 391.125 
10 *456:57 *456:61 13.6607 
11 *456:61 *11542:DI[30] 2 
12 *456:61 *456:75 10.3118 
13 *456:75 *456:77 52.8719 
14 *456:77 *11533:DI[30] 23.8118 
*END

*D_NET *457 0.002424
*CONN
*I *11429:A I *D sky130_fd_sc_hd__dlygate4sd3_1
*I *11501:X O *D sky130_fd_sc_hd__dlygate4sd3_1
*CAP
1 *11429:A 0.000568945
2 *11501:X 0.000568945
3 *11429:A *11600:A 0.000554706
4 *11429:A *11632:A 9.90431e-05
5 *11429:A *591:28 9.90431e-05
6 *11429:A *627:12 0.000445809
7 *11501:A *11429:A 3.2551e-05
8 *11502:A *11429:A 5.49544e-05
*RES
1 *11501:X *11429:A 40.7429 
*END

*D_NET *458 0.000728337
*CONN
*I *11585:A I *D sky130_fd_sc_hd__buf_12
*I *11502:X O *D sky130_fd_sc_hd__dlygate4sd3_1
*CAP
1 *11585:A 0.0002673
2 *11502:X 0.0002673
3 *11585:A *575:22 5.52238e-05
4 *11585:A *598:12 0.000126375
5 *11414:A *11585:A 0
6 *382:20 *11585:A 1.21384e-05
*RES
1 *11502:X *11585:A 32.2071 
*END

*D_NET *459 0.000335566
*CONN
*I *11398:A I *D sky130_fd_sc_hd__dlygate4sd3_1
*I *11503:X O *D sky130_fd_sc_hd__dlygate4sd3_1
*CAP
1 *11398:A 0.000125315
2 *11503:X 0.000125315
3 *11398:A *559:10 8.49352e-05
*RES
1 *11503:X *11398:A 29.85 
*END

*D_NET *460 0.0232549
*CONN
*I *11351:A I *D sky130_fd_sc_hd__buf_12
*I *11564:X O *D sky130_fd_sc_hd__buf_12
*CAP
1 *11351:A 0.00118548
2 *11564:X 0.000314905
3 *460:14 0.00299738
4 *460:12 0.0021268
5 *11351:A *11623:A 0
6 *11351:A *560:10 0.000152658
7 *460:14 *482:14 0.000236981
8 *460:14 *526:12 0.00175329
9 *460:14 *548:14 0.000290047
10 *460:14 *607:18 0.00682531
11 wbs_dat_o[15] *460:12 3.74125e-05
12 wbs_dat_o[23] *11351:A 0
13 *11360:A *11351:A 0
14 *11364:A *11351:A 0
15 *11469:A *460:12 9.11048e-06
16 *115:43 *11351:A 0
17 *168:86 *11351:A 0
18 *253:29 *11351:A 1.90936e-05
19 *426:12 *460:14 0.00621516
20 *437:12 *460:14 0.00109127
*RES
1 *11564:X *460:12 22.8357 
2 *460:12 *460:14 94.5893 
3 *460:14 *11351:A 37.8536 
*END

*D_NET *461 0.258277
*CONN
*I *11542:AD[9] I *D CF_SRAM_1024x32
*I *11524:AD[9] I *D CF_SRAM_1024x32
*I *11533:AD[9] I *D CF_SRAM_1024x32
*I *11515:AD[9] I *D CF_SRAM_1024x32
*I *11505:X O *D sky130_fd_sc_hd__buf_12
*CAP
1 *11542:AD[9] 0.00187651
2 *11524:AD[9] 0.000136368
3 *11533:AD[9] 0.000595742
4 *11515:AD[9] 0.000746285
5 *11505:X 0.000349579
6 *461:68 0.022311
7 *461:66 0.0219993
8 *461:54 0.00822424
9 *461:36 0.00903508
10 *461:22 0.0212053
11 *461:18 0.0289186
12 *461:14 0.0107254
13 *11515:AD[9] *11515:AD[3] 0
14 *11515:AD[9] *11515:AD[8] 0
15 *11515:AD[9] *478:28 0
16 *11515:AD[9] *558:129 5.85961e-05
17 *11524:AD[9] *11524:AD[3] 0
18 *11524:AD[9] *11524:AD[8] 0
19 *11524:AD[9] *463:71 0
20 *11524:AD[9] *478:78 0
21 *11533:AD[9] *11533:AD[3] 0
22 *11533:AD[9] *11533:AD[8] 0.000183023
23 *11542:AD[9] *11542:AD[3] 7.95219e-05
24 *11542:AD[9] *11542:AD[8] 0.000253335
25 *461:14 *11505:A 0
26 *461:18 *463:18 0
27 *461:22 *463:22 0.0209775
28 *461:22 *463:55 0.00064206
29 *461:36 *11515:AD[1] 0.00015803
30 *461:36 *11515:ScanInDR 9.97164e-05
31 *461:36 *11515:AD[5] 0.000160643
32 *461:36 *474:78 0.000986234
33 *461:36 *474:80 0.0275657
34 *461:36 *483:44 0.00571345
35 *461:36 *558:129 0.000412031
36 *461:36 *629:74 0.000245651
37 *461:54 *463:55 0.0120674
38 *461:54 *472:68 1.00609e-05
39 *461:66 *463:71 0
40 *11533:ScanInCC *11533:AD[9] 0
41 *174:108 *461:14 0
42 *176:85 *461:18 0.00178485
43 *176:133 *461:14 0
44 *213:18 *461:36 0.000229768
45 *247:15 *461:54 6.35275e-05
46 *249:29 *461:14 2.80925e-05
47 *365:80 *461:68 0
48 *378:89 *461:36 0.000781483
49 *389:42 *11515:AD[9] 0.000104759
50 *391:86 *11515:AD[9] 0.000132237
51 *391:86 *461:36 0.000278759
52 *394:54 *461:36 0.00042923
53 *396:104 *461:36 0.0283625
54 *398:16 *461:66 0.000182471
55 *398:18 *461:54 6.35275e-05
56 *407:10 *461:68 0.0012176
57 *418:74 *461:68 0.0288817
*RES
1 *11505:X *461:14 22.7859 
2 *461:14 *461:18 34.2451 
3 *461:18 *461:22 37.7968 
4 *461:22 *11515:AD[9] 16.4688 
5 *461:22 *461:36 390.67 
6 *461:36 *11533:AD[9] 15.317 
7 *461:18 *461:54 28.8133 
8 *461:54 *11524:AD[9] 1.95982 
9 *461:54 *461:66 26.3929 
10 *461:66 *461:68 392.339 
11 *461:68 *11542:AD[9] 28.8705 
*END

*D_NET *462 0.00094777
*CONN
*I *11396:A I *D sky130_fd_sc_hd__dlygate4sd3_1
*I *11506:X O *D sky130_fd_sc_hd__dlygate4sd3_1
*CAP
1 *11396:A 0.000250932
2 *11506:X 0.000250932
3 *11213:A *11396:A 8.61074e-05
4 *11484:A *11396:A 2.31833e-05
5 *117:12 *11396:A 0.000225989
6 *118:14 *11396:A 0.000110627
*RES
1 *11506:X *11396:A 31.725 
*END

*D_NET *463 0.260751
*CONN
*I *11542:AD[8] I *D CF_SRAM_1024x32
*I *11524:AD[8] I *D CF_SRAM_1024x32
*I *11533:AD[8] I *D CF_SRAM_1024x32
*I *11515:AD[8] I *D CF_SRAM_1024x32
*I *11507:X O *D sky130_fd_sc_hd__buf_12
*CAP
1 *11542:AD[8] 0.0011867
2 *11524:AD[8] 0.000165227
3 *11533:AD[8] 0.000250287
4 *11515:AD[8] 0.000588393
5 *11507:X 0.00010428
6 *463:73 0.00788077
7 *463:71 0.0079016
8 *463:55 0.00363644
9 *463:36 0.00815414
10 *463:22 0.0129293
11 *463:18 0.012699
12 *463:14 0.00610254
13 *11515:AD[8] *11515:AD[7] 0.000143893
14 *11515:AD[8] *478:42 4.49358e-05
15 *11524:AD[8] *11524:AD[7] 1.43172e-05
16 *11533:AD[8] *11533:AD[7] 0.000221934
17 *11542:AD[8] *11542:AD[7] 0.000221158
18 *11542:AD[8] *465:46 0.00162644
19 *11542:AD[8] *476:96 0.000173055
20 *463:22 *467:22 0.0203875
21 *463:22 *467:58 0.000800523
22 *463:36 *11515:DI[31] 4.3588e-05
23 *463:36 *11533:BEN[8] 0.000653236
24 *463:36 *11533:BEN[0] 0.000808444
25 *463:36 *467:24 0.0308972
26 *463:36 *478:42 0.00277357
27 *463:36 *552:84 0.000903532
28 *463:36 *555:41 0.000372228
29 *463:36 *555:53 0.000674816
30 *463:36 *555:70 0.00084939
31 *463:36 *558:289 0.000777014
32 *463:36 *558:301 0.000774657
33 *463:36 *558:313 0.000881543
34 *463:36 *558:325 0.000806066
35 *463:36 *629:10 0.000659868
36 *463:36 *629:30 0.000575827
37 *463:36 *630:10 0.000611136
38 *463:36 *630:22 0.000774636
39 *463:36 *630:36 0.000657859
40 *463:36 *631:211 0.000784078
41 *463:36 *631:223 0.000686612
42 *463:36 *631:235 0.000774657
43 *463:36 *631:248 0.00075036
44 *463:36 *631:265 0.000686612
45 *463:55 *467:58 0.0127153
46 *463:71 *11524:AD[7] 9.33978e-07
47 *463:71 *465:10 0.000591063
48 *463:71 *467:80 6.77206e-05
49 *463:71 *472:70 0.000139767
50 *463:73 *11524:BEN[23] 0.000671272
51 *463:73 *11524:BEN[31] 0.000791254
52 *463:73 *11542:BEN[15] 0.000193189
53 *463:73 *11542:BEN[8] 0.000636138
54 *463:73 *11542:BEN[0] 0.000157906
55 *463:73 *467:82 0.00542174
56 *463:73 *552:153 0.000796157
57 *463:73 *552:165 0.000699011
58 *463:73 *552:177 0.000788356
59 *463:73 *552:189 0.000787207
60 *463:73 *555:112 0.00082348
61 *463:73 *555:124 0.000757621
62 *463:73 *555:137 0.000889392
63 *463:73 *555:149 0.000795741
64 *463:73 *555:161 0.000699011
65 *463:73 *555:173 0.000794031
66 *463:73 *558:173 0.000738429
67 *463:73 *558:185 0.000796453
68 *463:73 *558:197 0.000670282
69 *463:73 *558:209 0.00078499
70 *463:73 *558:221 0.000798586
71 *463:73 *558:233 0.000848374
72 *463:73 *631:110 0.000798586
73 *463:73 *631:122 0.000798586
74 *463:73 *631:134 0.000735202
75 *463:73 *631:146 0.000834845
76 *463:73 *631:159 0.000674117
77 *891:DIODE *463:14 0
78 *1190:DIODE *463:73 0.000221778
79 *11515:AD[9] *11515:AD[8] 0
80 *11515:DI[29] *463:36 9.2249e-05
81 *11524:AD[9] *11524:AD[8] 0
82 *11524:AD[9] *463:71 0
83 *11533:AD[9] *11533:AD[8] 0.000183023
84 *11542:AD[9] *11542:AD[8] 0.000253335
85 *141:24 *463:36 0.000196908
86 *141:34 *463:36 0.000396594
87 *176:85 *463:18 0.0056429
88 *222:17 *463:36 0.000564781
89 *225:36 *463:14 9.20202e-05
90 *245:104 *463:73 0.000121951
91 *247:15 *463:55 4.26825e-05
92 *249:29 *463:14 4.54329e-06
93 *250:31 *463:14 0
94 *256:19 *463:73 0.00156859
95 *274:20 *463:36 0.002252
96 *306:14 *463:73 0.00121887
97 *357:10 *463:36 0
98 *363:16 *463:18 0.00578316
99 *363:60 *463:18 0.000225295
100 *365:18 *463:18 0.000144361
101 *376:95 *463:71 0.000654699
102 *378:89 *11515:AD[8] 0
103 *378:89 *463:36 0
104 *391:86 *463:22 4.13107e-06
105 *394:60 *463:36 0.00257336
106 *394:66 *463:36 0.0024568
107 *394:68 *463:36 0.00106013
108 *398:18 *463:55 1.15313e-05
109 *405:44 *463:73 0
110 *416:78 *11542:AD[8] 0.00163129
111 *418:38 *463:71 0.000556991
112 *418:60 *463:71 8.74166e-05
113 *418:60 *463:73 0.000145452
114 *422:32 *463:71 0.000722808
115 *427:24 *463:71 0.000184815
116 *427:24 *463:73 0.000558858
117 *427:62 *463:73 4.77877e-05
118 *427:64 *463:73 0.0262587
119 *461:18 *463:18 0
120 *461:22 *463:22 0.0209775
121 *461:22 *463:55 0.00064206
122 *461:54 *463:55 0.0120674
123 *461:66 *463:71 0
*RES
1 *11507:X *463:14 21.8905 
2 *463:14 *463:18 34.3517 
3 *463:18 *463:22 37.2202 
4 *463:22 *11515:AD[8] 13.9955 
5 *463:22 *463:36 391.277 
6 *463:36 *11533:AD[8] 12.0179 
7 *463:18 *463:55 28.5359 
8 *463:55 *11524:AD[8] 2.75446 
9 *463:55 *463:71 39.0625 
10 *463:71 *463:73 346.348 
11 *463:73 *11542:AD[8] 47.6607 
*END

*D_NET *464 6.49036e-05
*CONN
*I *11404:A I *D sky130_fd_sc_hd__dlygate4sd3_1
*I *11508:X O *D sky130_fd_sc_hd__dlygate4sd3_1
*CAP
1 *11404:A 3.24518e-05
2 *11508:X 3.24518e-05
*RES
1 *11508:X *11404:A 19.1357 
*END

*D_NET *465 0.189732
*CONN
*I *11533:DI[31] I *D CF_SRAM_1024x32
*I *11542:DI[31] I *D CF_SRAM_1024x32
*I *11515:DI[31] I *D CF_SRAM_1024x32
*I *11524:DI[31] I *D CF_SRAM_1024x32
*I *11509:X O *D sky130_fd_sc_hd__buf_12
*CAP
1 *11533:DI[31] 0.00140622
2 *11542:DI[31] 0.000365547
3 *11515:DI[31] 0.000482434
4 *11524:DI[31] 0.000123618
5 *11509:X 0.000138021
6 *465:66 0.0178151
7 *465:64 0.0169959
8 *465:50 0.00105834
9 *465:46 0.0089347
10 *465:30 0.0200869
11 *465:28 0.0196571
12 *465:14 0.000793862
13 *465:10 0.0137534
14 *465:8 0.00444493
15 *11524:DI[31] *11524:BEN[31] 0
16 *11524:DI[31] *555:192 0
17 *11533:DI[31] *11533:BEN[31] 0
18 *465:10 *474:112 0.0132685
19 *465:10 *476:96 0.00272241
20 *465:14 *11524:BEN[31] 0
21 *465:46 *11542:BEN[30] 0
22 *465:46 *474:112 0.0155836
23 *465:46 *476:96 0.0033263
24 *740:DIODE *11515:DI[31] 0.000177545
25 *1153:DIODE *11542:DI[31] 0.000310647
26 *1153:DIODE *465:50 8.37135e-05
27 *11542:AD[8] *465:46 0.00162644
28 *11542:DI[29] *465:46 0.000116303
29 *194:16 *465:28 0
30 *229:12 *11515:DI[31] 4.5547e-05
31 *261:11 *11524:DI[31] 0
32 *261:11 *465:14 5.21937e-05
33 *293:14 *11533:DI[31] 0
34 *325:5 *11542:DI[31] 3.71173e-05
35 *376:95 *465:10 0.00138393
36 *394:60 *11515:DI[31] 4.49358e-05
37 *416:18 *465:10 0.000163444
38 *416:60 *465:10 0.0012248
39 *416:78 *465:46 0.00565003
40 *418:30 *465:10 0.00100176
41 *420:50 *465:10 0.000401057
42 *427:16 *465:10 4.21584e-05
43 *427:24 *465:10 0.00173341
44 *427:62 *465:10 0.000134743
45 *427:64 *465:10 0.00260236
46 *433:78 *465:46 0.000437839
47 *456:57 *465:10 0.000771594
48 *456:57 *465:46 0.0300993
49 *463:36 *11515:DI[31] 4.3588e-05
50 *463:71 *465:10 0.000591063
*RES
1 *11509:X *465:8 15.5679 
2 *465:8 *465:10 182.268 
3 *465:10 *465:14 14.4821 
4 *465:14 *11524:DI[31] 2.26786 
5 *465:14 *465:28 8.49036 
6 *465:28 *465:30 53.8087 
7 *465:30 *11515:DI[31] 16.0082 
8 *465:10 *465:46 391.429 
9 *465:46 *465:50 6.67857 
10 *465:50 *11542:DI[31] 9.10714 
11 *465:50 *465:64 20.3571 
12 *465:64 *465:66 308.571 
13 *465:66 *11533:DI[31] 32.9821 
*END

*D_NET *466 0.000832947
*CONN
*I *11393:A I *D sky130_fd_sc_hd__dlygate4sd3_1
*I *11510:X O *D sky130_fd_sc_hd__dlygate4sd3_1
*CAP
1 *11393:A 0.000187266
2 *11510:X 0.000187266
3 *11393:A *584:28 0.000229207
4 *11393:A *601:22 0.000229207
*RES
1 *11510:X *11393:A 32.0286 
*END

*D_NET *467 0.271586
*CONN
*I *11542:AD[7] I *D CF_SRAM_1024x32
*I *11524:AD[7] I *D CF_SRAM_1024x32
*I *11515:AD[7] I *D CF_SRAM_1024x32
*I *11533:AD[7] I *D CF_SRAM_1024x32
*I *11511:X O *D sky130_fd_sc_hd__buf_12
*CAP
1 *11542:AD[7] 0.000622754
2 *11524:AD[7] 6.69329e-05
3 *11515:AD[7] 0.000404813
4 *11533:AD[7] 0.000428393
5 *11511:X 0.000181654
6 *467:82 0.0145255
7 *467:80 0.0144194
8 *467:58 0.00305511
9 *467:24 0.007627
10 *467:22 0.0117493
11 *467:18 0.0179596
12 *467:14 0.0115238
13 *11515:AD[7] *11515:AD[6] 0.000435769
14 *11524:AD[7] *11524:AD[6] 0.000121984
15 *11533:AD[7] *11533:AD[6] 0
16 *11542:AD[7] *11542:AD[6] 1.20192e-05
17 *467:22 *472:22 0.0197022
18 *467:22 *472:52 0.00064206
19 *467:24 *472:24 0.0309553
20 *467:58 *472:52 0.0135231
21 *467:80 *11524:AD[6] 1.30995e-05
22 *467:80 *472:68 5.11642e-05
23 *467:80 *474:110 0
24 *467:82 *11524:BEN[23] 0.000142043
25 *467:82 *11524:BEN[31] 0.000154703
26 *467:82 *11542:BEN[8] 0.000103347
27 *467:82 *472:70 0.0332595
28 *467:82 *552:153 0.000179097
29 *467:82 *552:165 0.000156995
30 *467:82 *552:177 0.000130975
31 *467:82 *552:189 0.000142026
32 *467:82 *555:112 0.000184623
33 *467:82 *555:149 0.000169671
34 *467:82 *555:161 0.000156995
35 *467:82 *555:173 0.000164129
36 *467:82 *558:173 0.00015862
37 *467:82 *558:185 0.000164129
38 *467:82 *558:197 0.000130991
39 *467:82 *558:209 0.000108889
40 *467:82 *558:221 0.000179097
41 *467:82 *558:233 0.000190149
42 *467:82 *631:110 0.000179097
43 *467:82 *631:122 0.000179097
44 *467:82 *631:159 0.000151469
45 *887:DIODE *467:14 3.22653e-05
46 *11515:AD[8] *11515:AD[7] 0.000143893
47 *11524:AD[8] *11524:AD[7] 1.43172e-05
48 *11533:AD[8] *11533:AD[7] 0.000221934
49 *11542:AD[8] *11542:AD[7] 0.000221158
50 *178:45 *467:18 0.00170798
51 *192:16 *467:82 0.00194094
52 *229:46 *467:14 0
53 *247:15 *467:58 2.11419e-05
54 *249:29 *467:14 8.87606e-06
55 *256:19 *467:80 6.79325e-05
56 *256:19 *467:82 0.00184062
57 *306:14 *467:82 0.000746785
58 *357:10 *467:24 0
59 *369:18 *467:18 0
60 *378:89 *467:24 1.27348e-05
61 *391:86 *467:22 6.44294e-06
62 *398:18 *467:58 6.27272e-06
63 *398:54 *467:82 0.00215111
64 *405:44 *11542:AD[7] 4.38987e-05
65 *405:44 *467:82 0.00317999
66 *418:38 *467:82 0.000128228
67 *422:32 *467:80 3.0591e-05
68 *427:64 *11542:AD[7] 6.06852e-05
69 *427:64 *467:82 0.00430006
70 *463:22 *467:22 0.0203875
71 *463:22 *467:58 0.000800523
72 *463:36 *467:24 0.0308972
73 *463:55 *467:58 0.0127153
74 *463:71 *11524:AD[7] 9.33978e-07
75 *463:71 *467:80 6.77206e-05
76 *463:73 *467:82 0.00542174
*RES
1 *11511:X *467:14 21.9626 
2 *467:14 *467:18 34.4582 
3 *467:18 *467:22 35.851 
4 *467:22 *467:24 391.884 
5 *467:24 *11533:AD[7] 13.9955 
6 *467:22 *11515:AD[7] 12.8705 
7 *467:18 *467:58 29.9581 
8 *467:58 *11524:AD[7] 1.59375 
9 *467:58 *467:80 19.8048 
10 *467:80 *467:82 68.3349 
11 *467:82 *11542:AD[7] 23.2111 
*END

*D_NET *468 0.00293362
*CONN
*I *11435:A I *D sky130_fd_sc_hd__dlygate4sd3_1
*I *11512:X O *D sky130_fd_sc_hd__dlygate4sd3_1
*CAP
1 *11435:A 0.000798919
2 *11512:X 0.000798919
3 *11435:A *592:20 1.51571e-05
4 *11435:A *600:12 9.01388e-05
5 *11435:A *621:16 0.000361766
6 *11512:A *11435:A 0.000868724
*RES
1 *11512:X *11435:A 40.8321 
*END

*D_NET *469 0.000702326
*CONN
*I *11581:A I *D sky130_fd_sc_hd__buf_12
*I *11513:X O *D sky130_fd_sc_hd__dlygate4sd3_1
*CAP
1 *11581:A 0.000285128
2 *11513:X 0.000285128
3 *11581:A *11409:A 7.6847e-05
4 *11581:A *575:22 5.52238e-05
5 *11581:A *593:10 0
*RES
1 *11513:X *11581:A 32.2071 
*END

*D_NET *470 0.00178297
*CONN
*I *11387:A I *D sky130_fd_sc_hd__dlygate4sd3_1
*I *11514:X O *D sky130_fd_sc_hd__dlygate4sd3_1
*CAP
1 *11387:A 0.000297873
2 *11514:X 0.000297873
3 *11387:A *11514:A 0.000344225
4 *11387:A *604:12 0.000374346
5 wbs_dat_o[7] *11387:A 9.58126e-05
6 *11486:A *11387:A 0.000372836
*RES
1 *11514:X *11387:A 35.9929 
*END

*D_NET *471 0.0640339
*CONN
*I *11463:A I *D sky130_fd_sc_hd__buf_12
*I *11565:X O *D sky130_fd_sc_hd__buf_12
*CAP
1 *11463:A 0.00511634
2 *11565:X 0.00930125
3 *471:12 0.0144176
4 *11463:A *11467:A 0.00948977
5 *11463:A *493:16 0.00136689
6 *11463:A *504:18 0.00136066
7 *11463:A *526:24 0.000243007
8 *11463:A *558:381 0.000123067
9 *11463:A *558:415 0.000123067
10 *11463:A *558:427 0.000123067
11 *11463:A *569:16 0.00129573
12 *11463:A *569:30 2.11419e-05
13 *11463:A *572:24 0.00123229
14 *11463:A *576:8 0.00125748
15 *471:12 *482:14 0.0172924
16 wbs_dat_o[20] *471:12 0.000118413
17 *11355:A *471:12 0
18 *11364:A *471:12 0.00011307
19 *192:16 *11463:A 0
20 *193:8 *11463:A 0.000920249
21 *437:12 *471:12 0.000118491
*RES
1 *11565:X *471:12 47.9099 
2 *471:12 *11463:A 44.039 
*END

*D_NET *472 0.254067
*CONN
*I *11542:AD[6] I *D CF_SRAM_1024x32
*I *11524:AD[6] I *D CF_SRAM_1024x32
*I *11515:AD[6] I *D CF_SRAM_1024x32
*I *11533:AD[6] I *D CF_SRAM_1024x32
*I *11330:X O *D sky130_fd_sc_hd__buf_12
*CAP
1 *11542:AD[6] 0.000661068
2 *11524:AD[6] 8.04329e-05
3 *11515:AD[6] 0.000491939
4 *11533:AD[6] 0.000423315
5 *11330:X 9.47545e-05
6 *472:70 0.00734281
7 *472:68 0.0074542
8 *472:52 0.00610546
9 *472:24 0.00774216
10 *472:22 0.0157108
11 *472:18 0.0200907
12 *472:14 0.00703289
13 *11515:AD[6] *11515:AD[5] 0
14 *11524:AD[6] *11524:AD[5] 0
15 *11533:AD[6] *11533:AD[5] 9.99053e-05
16 *11542:AD[6] *11542:AD[4] 0
17 *11542:AD[6] *11542:AD[5] 8.90722e-05
18 *472:22 *474:50 0
19 *472:22 *476:34 0
20 *472:22 *476:76 0
21 *472:24 *11515:AD[2] 4.44028e-05
22 *472:24 *474:78 0.00122476
23 *472:24 *474:80 0.000161297
24 *472:24 *478:48 0.0279237
25 *472:52 *476:76 0
26 *472:52 *476:94 0
27 *472:68 *476:94 0
28 *472:70 *476:96 0.0329255
29 *11515:AD[7] *11515:AD[6] 0.000435769
30 *11515:DI[17] *472:24 2.05629e-05
31 *11524:AD[7] *11524:AD[6] 0.000121984
32 *11533:AD[7] *11533:AD[6] 0
33 *11542:AD[7] *11542:AD[6] 1.20192e-05
34 *174:77 *472:14 2.07552e-05
35 *178:45 *472:18 0.0025001
36 *192:16 *472:70 0
37 *226:34 *472:14 4.56225e-05
38 *247:15 *11524:AD[6] 1.94015e-05
39 *357:10 *472:24 0
40 *367:18 *472:18 0.00736414
41 *369:18 *472:18 0.000566516
42 *378:89 *472:24 0.00071914
43 *391:86 *472:22 4.0758e-05
44 *398:18 *11524:AD[6] 4.26392e-06
45 *405:44 *11542:AD[6] 4.70623e-05
46 *416:60 *472:70 0.00030724
47 *420:50 *472:70 0.00363247
48 *427:24 *472:70 0.000350472
49 *427:64 *11542:AD[6] 6.34448e-05
50 *456:57 *472:70 0.00379942
51 *461:54 *472:68 1.00609e-05
52 *463:71 *472:70 0.000139767
53 *467:22 *472:22 0.0197022
54 *467:22 *472:52 0.00064206
55 *467:24 *472:24 0.0309553
56 *467:58 *472:52 0.0135231
57 *467:80 *11524:AD[6] 1.30995e-05
58 *467:80 *472:68 5.11642e-05
59 *467:82 *472:70 0.0332595
*RES
1 *11330:X *472:14 21.8905 
2 *472:14 *472:18 34.5647 
3 *472:18 *472:22 34.77 
4 *472:22 *472:24 393.098 
5 *472:24 *11533:AD[6] 13.067 
6 *472:22 *11515:AD[6] 13.0312 
7 *472:18 *472:52 22.3516 
8 *472:52 *11524:AD[6] 9.48589 
9 *472:52 *472:68 4.93437 
10 *472:68 *472:70 68.761 
11 *472:70 *11542:AD[6] 22.0159 
*END

*D_NET *473 0.000391121
*CONN
*I *11385:A I *D sky130_fd_sc_hd__dlygate4sd3_1
*I *11331:X O *D sky130_fd_sc_hd__dlygate4sd3_1
*CAP
1 *11385:A 0.000132166
2 *11331:X 0.000132166
3 *11385:A *597:12 0
4 *11385:A *599:12 9.83388e-05
5 *349:10 *11385:A 2.84494e-05
*RES
1 *11331:X *11385:A 30.1893 
*END

*D_NET *474 0.248003
*CONN
*I *11542:AD[5] I *D CF_SRAM_1024x32
*I *11524:AD[5] I *D CF_SRAM_1024x32
*I *11533:AD[5] I *D CF_SRAM_1024x32
*I *11515:AD[5] I *D CF_SRAM_1024x32
*I *11332:X O *D sky130_fd_sc_hd__buf_12
*CAP
1 *11542:AD[5] 0.000849396
2 *11524:AD[5] 8.76392e-05
3 *11533:AD[5] 0.000555535
4 *11515:AD[5] 0.000716606
5 *11332:X 0.00357367
6 *474:122 0.00165011
7 *474:112 0.00856825
8 *474:110 0.00846102
9 *474:103 7.22863e-06
10 *474:98 0.00638129
11 *474:80 0.00851196
12 *474:78 0.00873377
13 *474:59 7.22863e-06
14 *474:50 0.00891544
15 *474:46 0.0190169
16 *474:26 0.00955448
17 *11515:AD[5] *11515:AD[4] 0.000202444
18 *11515:AD[5] *558:129 0.000158707
19 *11524:AD[5] *11524:AD[4] 2.55587e-05
20 *11533:AD[5] *11533:AD[4] 0
21 *11542:AD[5] *11542:AD[4] 0
22 *474:26 *476:26 0.0055412
23 *474:26 *476:30 7.1588e-05
24 *474:46 *476:30 0.0040639
25 *474:50 *476:34 0.01832
26 *474:50 *476:76 0.000302342
27 *474:50 *491:24 0
28 *474:50 *491:74 0
29 *474:78 *11515:SM 0
30 *474:78 *558:129 0.000993908
31 *474:80 *478:48 0.00591873
32 *474:80 *629:74 0.000147012
33 *474:98 *11524:AD[4] 1.94945e-05
34 *474:98 *476:76 0.0149174
35 *474:98 *476:94 6.92474e-05
36 *474:98 *485:20 0
37 *474:98 *491:74 0
38 *474:112 *476:96 0.0059253
39 *474:122 *478:80 0.00152508
40 *474:122 *491:94 0.000258066
41 *865:DIODE *474:112 0.000190391
42 *912:DIODE *474:112 0.000116481
43 *919:DIODE *474:112 0.000110594
44 *1086:DIODE *474:112 0.000194299
45 *11307:B2 *474:26 0
46 *11330:A *474:26 0.000197977
47 *11515:EN *474:78 0
48 *11515:AD[6] *11515:AD[5] 0
49 *11515:DI[17] *474:78 6.05161e-06
50 *11524:AD[6] *11524:AD[5] 0
51 *11533:AD[6] *11533:AD[5] 9.99053e-05
52 *11542:AD[6] *11542:AD[5] 8.90722e-05
53 *174:69 *474:26 0.00161703
54 *174:69 *474:46 4.53109e-06
55 *174:77 *474:26 4.01196e-05
56 *213:18 *474:78 4.58194e-05
57 *224:48 *474:26 0
58 *244:103 *474:112 0.000202842
59 *245:126 *474:112 0.000125731
60 *246:15 *474:112 7.29712e-05
61 *247:11 *474:98 0.000162991
62 *254:13 *474:98 7.48052e-05
63 *254:99 *474:112 0.000153047
64 *256:17 *474:112 0.000394351
65 *304:15 *474:112 7.83659e-05
66 *378:89 *474:78 0.00122146
67 *378:89 *474:80 0.0167865
68 *383:28 *474:26 0.000206079
69 *394:54 *11515:AD[5] 9.58126e-05
70 *416:64 *474:112 0.00158243
71 *416:66 *474:112 0.00515064
72 *416:76 *474:112 7.48679e-06
73 *416:78 *474:112 0.00555675
74 *418:38 *474:110 5.38593e-06
75 *427:16 *474:112 0.00142665
76 *433:10 *474:112 0.00473671
77 *433:72 *474:112 0.00128016
78 *433:78 *474:122 0.00209457
79 *456:10 *474:112 1.09026e-05
80 *456:18 *474:112 0.000862658
81 *461:36 *11515:AD[5] 0.000160643
82 *461:36 *474:78 0.000986234
83 *461:36 *474:80 0.0275657
84 *465:10 *474:112 0.0132685
85 *465:46 *474:112 0.0155836
86 *467:80 *474:110 0
87 *472:22 *474:50 0
88 *472:24 *474:78 0.00122476
89 *472:24 *474:80 0.000161297
*RES
1 *11332:X *474:26 45.809 
2 *474:26 *474:46 22.8398 
3 *474:46 *474:50 33.1124 
4 *474:50 *11515:AD[5] 16.9911 
5 *11515:AD[5] *474:59 0.138393 
6 *474:50 *474:78 49.0446 
7 *474:78 *474:80 361.679 
8 *474:80 *11533:AD[5] 15.4598 
9 *474:46 *474:98 33.657 
10 *474:98 *11524:AD[5] 1.35714 
11 *11524:AD[5] *474:103 0.138393 
12 *474:98 *474:110 14.4821 
13 *474:110 *474:112 365.321 
14 *474:112 *474:122 41.3929 
15 *474:122 *11542:AD[5] 13.8348 
*END

*D_NET *475 0.00090845
*CONN
*I *11380:A I *D sky130_fd_sc_hd__dlygate4sd3_1
*I *11333:X O *D sky130_fd_sc_hd__dlygate4sd3_1
*CAP
1 *11380:A 0.000257033
2 *11333:X 0.000257033
3 *11380:A *11635:A 0.000123359
4 *11380:A *599:12 0.000271026
*RES
1 *11333:X *11380:A 31.8321 
*END

*D_NET *476 0.256149
*CONN
*I *11542:AD[4] I *D CF_SRAM_1024x32
*I *11524:AD[4] I *D CF_SRAM_1024x32
*I *11533:AD[4] I *D CF_SRAM_1024x32
*I *11515:AD[4] I *D CF_SRAM_1024x32
*I *11334:X O *D sky130_fd_sc_hd__buf_12
*CAP
1 *11542:AD[4] 0.000761938
2 *11524:AD[4] 0.000106768
3 *11533:AD[4] 0.000775614
4 *11515:AD[4] 0.00082054
5 *11334:X 0.00283401
6 *476:96 0.00880984
7 *476:94 0.0089556
8 *476:76 0.00666339
9 *476:64 0.00843553
10 *476:62 0.0087972
11 *476:54 0.00113728
12 *476:52 0.00117938
13 *476:34 0.00929933
14 *476:30 0.0152974
15 *476:26 0.00518305
16 *11515:AD[4] *558:129 2.04825e-05
17 *11515:AD[4] *631:68 7.69776e-06
18 *476:52 *11515:AD[0] 0.000162201
19 *476:52 *483:44 0.000298371
20 *476:52 *552:70 0.000525253
21 *476:52 *558:129 0.0030815
22 *476:52 *631:68 0.00126437
23 *476:62 *485:86 0.000545369
24 *476:62 *631:68 0.00181941
25 *476:64 *485:86 0.0038562
26 *476:64 *555:20 0.000235694
27 *476:64 *630:74 0.0191821
28 *476:64 *631:68 0.00169508
29 *476:96 *485:40 4.99355e-05
30 *476:96 *491:94 0.0179983
31 *1068:DIODE *476:64 0.00012116
32 *1081:DIODE *476:64 0.000120975
33 *1176:DIODE *476:64 7.14469e-05
34 *1184:DIODE *476:64 0.000198529
35 *11307:B2 *476:26 0.000359895
36 *11319:B2 *476:26 3.29279e-05
37 *11515:AD[5] *11515:AD[4] 0.000202444
38 *11515:DI[23] *476:62 7.07702e-05
39 *11515:DI[27] *476:64 0.000357744
40 *11515:DI[19] *476:62 1.90936e-05
41 *11515:DI[21] *476:62 1.90936e-05
42 *11515:DI[28] *476:64 9.09049e-05
43 *11515:DI[25] *476:64 0.000163563
44 *11515:DI[22] *476:62 0.000294658
45 *11515:DI[20] *476:62 0.000210276
46 *11524:AD[5] *11524:AD[4] 2.55587e-05
47 *11533:AD[5] *11533:AD[4] 0
48 *11542:AD[5] *11542:AD[4] 0
49 *11542:AD[6] *11542:AD[4] 0
50 *11542:AD[8] *476:96 0.000173055
51 *174:69 *476:26 0.00223828
52 *174:69 *476:30 0.00885603
53 *174:77 *476:26 6.80006e-05
54 *228:22 *476:62 0.00367277
55 *228:22 *476:64 0.0050834
56 *254:13 *11524:AD[4] 1.94945e-05
57 *296:20 *476:64 0.0139331
58 *304:69 *476:64 0.000151333
59 *329:51 *476:64 0.000196565
60 *331:95 *476:64 7.6644e-05
61 *365:26 *476:26 0.00010794
62 *372:18 *476:26 5.28259e-05
63 *394:54 *11515:AD[4] 5.21937e-05
64 *405:44 *11542:AD[4] 0
65 *427:16 *476:96 0.000122492
66 *427:64 *11542:AD[4] 4.38243e-05
67 *433:10 *476:96 0.000113204
68 *433:78 *476:96 0.00082574
69 *465:10 *476:96 0.00272241
70 *465:46 *476:96 0.0033263
71 *472:22 *476:34 0
72 *472:22 *476:76 0
73 *472:52 *476:76 0
74 *472:52 *476:94 0
75 *472:68 *476:94 0
76 *472:70 *476:96 0.0329255
77 *474:26 *476:26 0.0055412
78 *474:26 *476:30 7.1588e-05
79 *474:46 *476:30 0.0040639
80 *474:50 *476:34 0.01832
81 *474:50 *476:76 0.000302342
82 *474:98 *11524:AD[4] 1.94945e-05
83 *474:98 *476:76 0.0149174
84 *474:98 *476:94 6.92474e-05
85 *474:112 *476:96 0.0059253
*RES
1 *11334:X *476:26 43.0424 
2 *476:26 *476:30 21.8873 
3 *476:30 *476:34 32.5359 
4 *476:34 *11515:AD[4] 16.8348 
5 *476:34 *476:52 46.0089 
6 *476:52 *476:54 4.5 
7 *476:54 *476:62 49.1339 
8 *476:62 *476:64 304.759 
9 *476:64 *11533:AD[4] 17.558 
10 *476:30 *476:76 24.0092 
11 *476:76 *11524:AD[4] 9.97696 
12 *476:76 *476:94 5.15057 
13 *476:94 *476:96 68.761 
14 *476:96 *11542:AD[4] 21.5612 
*END

*D_NET *477 0.000222255
*CONN
*I *11374:A I *D sky130_fd_sc_hd__dlygate4sd3_1
*I *11335:X O *D sky130_fd_sc_hd__dlygate4sd3_1
*CAP
1 *11374:A 8.03978e-05
2 *11335:X 8.03978e-05
3 *11374:A *633:10 6.14594e-05
*RES
1 *11335:X *11374:A 29.2429 
*END

*D_NET *478 0.230217
*CONN
*I *11542:AD[3] I *D CF_SRAM_1024x32
*I *11524:AD[3] I *D CF_SRAM_1024x32
*I *11533:AD[3] I *D CF_SRAM_1024x32
*I *11515:AD[3] I *D CF_SRAM_1024x32
*I *11336:X O *D sky130_fd_sc_hd__buf_12
*CAP
1 *11542:AD[3] 0.000716693
2 *11524:AD[3] 0.000111609
3 *11533:AD[3] 0.000351431
4 *11515:AD[3] 0.000340605
5 *11336:X 0.000102441
6 *478:80 0.0216352
7 *478:78 0.0215788
8 *478:66 0.00844205
9 *478:55 8.67181e-06
10 *478:48 0.00719213
11 *478:46 0.00695602
12 *478:42 0.000995551
13 *478:33 7.34403e-07
14 *478:28 0.00869352
15 *478:18 0.0228357
16 *478:14 0.00780326
17 *11515:AD[3] *11515:ScanInCC 0.000703267
18 *11524:AD[3] *11524:ScanInCC 4.35306e-05
19 *478:14 *11615:A 2.9755e-05
20 *478:18 *483:18 0.00449433
21 *478:28 *11515:ScanInCC 0.000382143
22 *478:33 *11515:ScanInCC 1.33343e-05
23 *478:78 *11524:ScanInCC 0.000324577
24 *478:80 *491:94 0.00660205
25 *11515:AD[8] *478:42 4.49358e-05
26 *11515:AD[9] *11515:AD[3] 0
27 *11515:AD[9] *478:28 0
28 *11515:DI[0] *478:28 5.32507e-05
29 *11515:DI[17] *478:46 8.55871e-05
30 *11524:AD[9] *11524:AD[3] 0
31 *11524:AD[9] *478:78 0
32 *11533:AD[9] *11533:AD[3] 0
33 *11533:ScanInCC *11533:AD[3] 0.000915057
34 *11542:AD[9] *11542:AD[3] 7.95219e-05
35 *11542:ScanInCC *11542:AD[3] 0.000378033
36 *171:79 *478:14 1.13786e-05
37 *201:167 *478:28 0.000135365
38 *202:137 *478:18 0.00563505
39 *202:139 *478:66 0
40 *222:40 *478:14 0
41 *247:15 *478:66 0.000190765
42 *353:10 *478:42 0.00112137
43 *378:89 *478:42 0
44 *378:89 *478:48 0.0167003
45 *380:18 *478:18 0.00019643
46 *383:100 *478:80 0
47 *385:81 *478:42 2.07414e-05
48 *389:36 *478:42 6.6334e-05
49 *389:42 *11515:AD[3] 3.30107e-05
50 *389:42 *478:28 8.24593e-06
51 *394:60 *478:42 0.00201049
52 *396:30 *478:28 0.00117847
53 *396:30 *478:66 0.00426885
54 *396:78 *478:28 0.0123526
55 *396:102 *478:28 9.30878e-05
56 *398:16 *478:78 0.000238645
57 *416:66 *478:80 8.41555e-06
58 *416:76 *478:80 0.00271188
59 *433:22 *478:80 4.38243e-05
60 *433:58 *478:80 0.00519049
61 *433:62 *478:80 0.00196875
62 *433:72 *478:80 1.13346e-05
63 *433:76 *478:80 0.00138213
64 *433:78 *478:80 0.00222952
65 *456:10 *478:80 0.0123416
66 *456:18 *478:80 1.34316e-05
67 *463:36 *478:42 0.00277357
68 *472:24 *478:48 0.0279237
69 *474:80 *478:48 0.00591873
70 *474:122 *478:80 0.00152508
*RES
1 *11336:X *478:14 21.8905 
2 *478:14 *478:18 33.1798 
3 *478:18 *478:28 42.0608 
4 *478:28 *11515:AD[3] 7.10714 
5 *11515:AD[3] *478:33 0.12963 
6 *478:28 *478:42 49.5 
7 *478:42 *478:46 6.26786 
8 *478:46 *478:48 352.571 
9 *478:48 *11533:AD[3] 13.25 
10 *11533:AD[3] *478:55 0.15625 
11 *478:18 *478:66 36.4109 
12 *478:66 *11524:AD[3] 1.96875 
13 *478:66 *478:78 16.125 
14 *478:78 *478:80 392.946 
15 *478:80 *11542:AD[3] 17.933 
*END

*D_NET *479 0.000611669
*CONN
*I *11437:A I *D sky130_fd_sc_hd__dlygate4sd3_1
*I *11337:X O *D sky130_fd_sc_hd__dlygate4sd3_1
*CAP
1 *11437:A 0.000279184
2 *11337:X 0.000279184
3 *11437:A *592:12 5.33005e-05
*RES
1 *11337:X *11437:A 30.725 
*END

*D_NET *480 0.000536646
*CONN
*I *11569:A I *D sky130_fd_sc_hd__buf_12
*I *11338:X O *D sky130_fd_sc_hd__dlygate4sd3_1
*CAP
1 *11569:A 0.000268323
2 *11338:X 0.000268323
3 *11569:A *11618:A 0
4 *11338:A *11569:A 0
*RES
1 *11338:X *11569:A 31.6714 
*END

*D_NET *481 0.00203717
*CONN
*I *11378:A I *D sky130_fd_sc_hd__dlygate4sd3_1
*I *11339:X O *D sky130_fd_sc_hd__dlygate4sd3_1
*CAP
1 *11378:A 0.000404402
2 *11339:X 0.000404402
3 *11378:A *11339:A 0.000513484
4 *11378:A *592:24 5.33005e-05
5 *11378:A *599:12 2.59355e-05
6 *11378:A *622:12 0.000262082
7 *11377:A *11378:A 0.000373567
*RES
1 *11339:X *11378:A 38.1714 
*END

*D_NET *482 0.067109
*CONN
*I *11467:A I *D sky130_fd_sc_hd__buf_12
*I *11566:X O *D sky130_fd_sc_hd__buf_12
*CAP
1 *11467:A 0.00429314
2 *11566:X 0.0121631
3 *482:14 0.0164562
4 *11467:A *569:30 8.85369e-05
5 *482:14 *11459:A 0.000118413
6 *482:14 *548:14 0.00034253
7 *482:14 *548:16 0.000447864
8 *482:14 *572:14 0.000333271
9 *482:14 *610:16 9.71259e-06
10 *482:14 *610:28 0.000131918
11 wbs_dat_o[18] *482:14 0.00014225
12 *11321:S *11467:A 0.000243662
13 *11346:A *482:14 0.000166358
14 *11357:A *482:14 0
15 *11463:A *11467:A 0.00948977
16 *115:71 *11467:A 0.00103865
17 *168:103 *11467:A 0.00111816
18 *168:114 *11467:A 0.00033869
19 *185:10 *11467:A 0.00117693
20 *266:83 *11467:A 0.00025263
21 *418:18 *11467:A 0.000293415
22 *426:12 *482:14 0.000434567
23 *437:12 *482:14 0.000499907
24 *460:14 *482:14 0.000236981
25 *471:12 *482:14 0.0172924
*RES
1 *11566:X *482:14 49.6056 
2 *482:14 *11467:A 45.5926 
*END

*D_NET *483 0.258021
*CONN
*I *11542:AD[2] I *D CF_SRAM_1024x32
*I *11524:AD[2] I *D CF_SRAM_1024x32
*I *11533:AD[2] I *D CF_SRAM_1024x32
*I *11515:AD[2] I *D CF_SRAM_1024x32
*I *11341:X O *D sky130_fd_sc_hd__buf_12
*CAP
1 *11542:AD[2] 0.000626248
2 *11524:AD[2] 0.000183446
3 *11533:AD[2] 0.000542764
4 *11515:AD[2] 0.000915821
5 *11341:X 0.000266562
6 *483:99 0
7 *483:84 0.0193439
8 *483:82 0.0195192
9 *483:75 0
10 *483:64 0.00502648
11 *483:59 0
12 *483:44 0.017622
13 *483:39 0
14 *483:22 0.0226741
15 *483:18 0.0138964
16 *483:14 0.00544246
17 *11515:AD[2] *11515:AD[1] 5.04785e-05
18 *11515:AD[2] *491:44 0.000124265
19 *11524:AD[2] *11524:AD[1] 1.4425e-05
20 *11524:AD[2] *491:92 0
21 *11533:AD[2] *11533:AD[0] 2.28898e-05
22 *11533:AD[2] *11533:AD[1] 0.000752025
23 *11542:AD[2] *11542:AD[0] 6.58294e-06
24 *11542:AD[2] *11542:AD[1] 0.00130818
25 *483:14 *11615:A 0.000396251
26 *483:22 *11515:AD[1] 8.81456e-05
27 *483:22 *485:20 0.00129046
28 *483:22 *485:66 0.00767309
29 *483:22 *491:24 0.00804698
30 *483:22 *491:74 0.000478775
31 *483:44 *491:44 0.0331456
32 *483:44 *558:129 0.0018606
33 *483:44 *558:139 0.000262992
34 *483:44 *558:141 0.000374105
35 *483:44 *558:277 0.00016252
36 *483:44 *629:72 0.000176806
37 *483:44 *629:74 0.00053435
38 *483:44 *630:54 0.000148893
39 *483:44 *630:66 0.00105509
40 *483:64 *485:20 0.0167042
41 *483:64 *485:38 0.000107157
42 *483:82 *485:38 0.00112843
43 *483:82 *491:92 0.000188215
44 *483:84 *485:40 0.0332196
45 *141:24 *483:44 0.000331965
46 *141:38 *483:44 0.000101738
47 *171:69 *483:18 0
48 *197:16 *11515:AD[2] 0.00024845
49 *200:22 *11515:AD[2] 5.16732e-06
50 *200:22 *483:22 0.000346818
51 *200:46 *483:22 0.00127298
52 *200:50 *483:22 0.000433125
53 *200:50 *483:64 0.00598827
54 *202:16 *483:14 0
55 *202:137 *483:18 0.00563941
56 *221:32 *483:14 0
57 *246:65 *483:64 0
58 *247:11 *11524:AD[2] 0.000187358
59 *273:14 *483:44 0.000729323
60 *354:8 *11515:AD[2] 9.20635e-06
61 *357:8 *11533:AD[2] 0.000132871
62 *358:8 *11533:AD[2] 2.15245e-05
63 *361:8 *11542:AD[2] 0.000234916
64 *378:89 *11515:AD[2] 4.30573e-05
65 *380:18 *483:18 0.0099645
66 *394:58 *11515:AD[2] 0.000107946
67 *396:104 *483:44 0.00606233
68 *398:18 *11524:AD[2] 0.000187358
69 *433:78 *11542:AD[2] 4.18834e-05
70 *461:36 *483:44 0.00571345
71 *472:24 *11515:AD[2] 4.44028e-05
72 *476:52 *483:44 0.000298371
73 *478:18 *483:18 0.00449433
*RES
1 *11341:X *483:14 25.837 
2 *483:14 *483:18 35.5235 
3 *483:18 *483:22 30.2658 
4 *483:22 *11515:AD[2] 21.4603 
5 *11515:AD[2] *483:39 0.184211 
6 *483:22 *483:44 68.5479 
7 *483:44 *11533:AD[2] 20.1129 
8 *11533:AD[2] *483:59 0.12963 
9 *483:18 *483:64 26.5315 
10 *483:64 *11524:AD[2] 12.4904 
11 *11524:AD[2] *483:75 0.184211 
12 *483:64 *483:82 5.5109 
13 *483:82 *483:84 68.6545 
14 *483:84 *11542:AD[2] 24.646 
15 *11542:AD[2] *483:99 0.12963 
*END

*D_NET *484 0.000134238
*CONN
*I *11382:A I *D sky130_fd_sc_hd__dlygate4sd3_1
*I *11342:X O *D sky130_fd_sc_hd__dlygate4sd3_1
*CAP
1 *11382:A 1.21645e-05
2 *11342:X 1.21645e-05
3 *11382:A *11632:A 5.49544e-05
4 *11382:A *592:24 5.49544e-05
*RES
1 *11342:X *11382:A 19.1357 
*END

*D_NET *485 0.270397
*CONN
*I *11533:AD[1] I *D CF_SRAM_1024x32
*I *11515:AD[1] I *D CF_SRAM_1024x32
*I *11542:AD[1] I *D CF_SRAM_1024x32
*I *11524:AD[1] I *D CF_SRAM_1024x32
*I *11343:X O *D sky130_fd_sc_hd__buf_12
*CAP
1 *11533:AD[1] 0.000491158
2 *11515:AD[1] 0.000977928
3 *11542:AD[1] 0.000710642
4 *11524:AD[1] 0.000137178
5 *11343:X 0.000331294
6 *485:86 0.0164326
7 *485:84 0.0159415
8 *485:66 0.00512469
9 *485:40 0.00682645
10 *485:38 0.0068948
11 *485:20 0.00415768
12 *485:16 0.0171116
13 *485:14 0.0100546
14 *11515:AD[1] *11515:AD[0] 7.75162e-05
15 *11524:AD[1] *491:74 0.000115181
16 *11524:AD[1] *491:92 3.06878e-06
17 *11533:AD[1] *11533:AD[0] 0.000425025
18 *11542:AD[1] *11542:AD[0] 0.000104747
19 *485:14 *11614:A 0
20 *485:16 *491:22 0
21 *485:20 *491:74 0.0179566
22 *485:40 *491:94 0.0330977
23 *485:86 *491:44 0.0330883
24 *11298:B2 *485:14 0.000125724
25 *11515:AD[2] *11515:AD[1] 5.04785e-05
26 *11524:AD[2] *11524:AD[1] 1.4425e-05
27 *11533:AD[2] *11533:AD[1] 0.000752025
28 *11533:R_WB *11533:AD[1] 0
29 *11542:AD[2] *11542:AD[1] 0.00130818
30 *149:22 *485:86 0.000662821
31 *153:20 *485:86 0
32 *196:26 *485:66 9.09604e-05
33 *197:16 *11515:AD[1] 0.000179776
34 *200:22 *485:66 0.000343937
35 *200:46 *485:66 0.0012957
36 *200:50 *485:66 0.0136815
37 *220:30 *485:14 0
38 *228:22 *485:86 0.00207665
39 *244:15 *485:66 0
40 *247:11 *11524:AD[1] 1.94945e-05
41 *296:20 *485:86 0.00236799
42 *297:20 *485:86 0.0011618
43 *357:8 *11533:AD[1] 8.47289e-06
44 *378:89 *11515:AD[1] 0.000163857
45 *385:16 *485:16 0.010982
46 *385:58 *485:16 0.000225295
47 *391:20 *485:16 0
48 *391:68 *485:16 0
49 *433:78 *11542:AD[1] 4.75152e-06
50 *461:36 *11515:AD[1] 0.00015803
51 *474:98 *485:20 0
52 *476:62 *485:86 0.000545369
53 *476:64 *485:86 0.0038562
54 *476:96 *485:40 4.99355e-05
55 *483:22 *11515:AD[1] 8.81456e-05
56 *483:22 *485:20 0.00129046
57 *483:22 *485:66 0.00767309
58 *483:64 *485:20 0.0167042
59 *483:64 *485:38 0.000107157
60 *483:82 *485:38 0.00112843
61 *483:84 *485:40 0.0332196
*RES
1 *11343:X *485:14 25.837 
2 *485:14 *485:16 32.007 
3 *485:16 *485:20 31.8152 
4 *485:20 *11524:AD[1] 10.7448 
5 *485:20 *485:38 5.5109 
6 *485:38 *485:40 68.6545 
7 *485:40 *11542:AD[1] 25.1396 
8 *485:16 *485:66 28.3263 
9 *485:66 *11515:AD[1] 21.368 
10 *485:66 *485:84 3.41 
11 *485:84 *485:86 68.4414 
12 *485:86 *11533:AD[1] 21.4579 
*END

*D_NET *486 0.000711239
*CONN
*I *11440:A I *D sky130_fd_sc_hd__dlygate4sd3_1
*I *11344:X O *D sky130_fd_sc_hd__dlygate4sd3_1
*CAP
1 *11440:A 0.000331936
2 *11344:X 0.000331936
3 *11344:A *11440:A 1.92789e-05
4 *11345:A *11440:A 2.80881e-05
5 *393:10 *11440:A 0
*RES
1 *11344:X *11440:A 32.6179 
*END

*D_NET *487 0.000558105
*CONN
*I *11557:A I *D sky130_fd_sc_hd__buf_12
*I *11345:X O *D sky130_fd_sc_hd__dlygate4sd3_1
*CAP
1 *11557:A 0.000137591
2 *11345:X 0.000137591
3 wbs_dat_o[0] *11557:A 0.000153054
4 *393:10 *11557:A 0.000129868
*RES
1 *11345:X *11557:A 30.9036 
*END

*D_NET *488 0.00038116
*CONN
*I *11442:A I *D sky130_fd_sc_hd__dlygate4sd3_1
*I *11346:X O *D sky130_fd_sc_hd__dlygate4sd3_1
*CAP
1 *11442:A 7.49417e-05
2 *11346:X 7.49417e-05
3 *11442:A *610:28 0.000231277
*RES
1 *11346:X *11442:A 20.7786 
*END

*D_NET *489 0.000426662
*CONN
*I *11568:A I *D sky130_fd_sc_hd__buf_12
*I *11347:X O *D sky130_fd_sc_hd__dlygate4sd3_1
*CAP
1 *11568:A 0.000150522
2 *11347:X 0.000150522
3 *11568:A *504:12 0.000114847
4 *11568:A *619:6 1.07719e-05
*RES
1 *11347:X *11568:A 29.7786 
*END

*D_NET *490 0.000380319
*CONN
*I *11391:A I *D sky130_fd_sc_hd__dlygate4sd3_1
*I *11348:X O *D sky130_fd_sc_hd__dlygate4sd3_1
*CAP
1 *11391:A 0.000111781
2 *11348:X 0.000111781
3 *11391:A *621:16 5.6394e-05
4 *11391:A *626:8 5.49544e-05
5 *745:DIODE *11391:A 2.8266e-06
6 *231:21 *11391:A 4.25809e-05
*RES
1 *11348:X *11391:A 29.7786 
*END

*D_NET *491 0.260672
*CONN
*I *11542:AD[0] I *D CF_SRAM_1024x32
*I *11524:AD[0] I *D CF_SRAM_1024x32
*I *11533:AD[0] I *D CF_SRAM_1024x32
*I *11515:AD[0] I *D CF_SRAM_1024x32
*I *11349:X O *D sky130_fd_sc_hd__buf_12
*CAP
1 *11542:AD[0] 0.000963049
2 *11524:AD[0] 1.09595e-05
3 *11533:AD[0] 0.000696562
4 *11515:AD[0] 0.000766724
5 *11349:X 0.00583273
6 *491:94 0.00889693
7 *491:92 0.00877952
8 *491:74 0.00795083
9 *491:44 0.00854566
10 *491:42 0.0078491
11 *491:24 0.00729962
12 *491:22 0.0190706
13 *491:18 0.0112762
14 *11515:AD[0] *631:68 0.000160149
15 *491:18 *11343:A 0
16 *491:44 *630:74 0.00355215
17 *491:44 *631:68 0.00314641
18 *491:44 *631:199 0.000114414
19 *11515:AD[1] *11515:AD[0] 7.75162e-05
20 *11515:AD[2] *491:44 0.000124265
21 *11515:R_WB *11515:AD[0] 0.000456503
22 *11524:AD[1] *491:74 0.000115181
23 *11524:AD[1] *491:92 3.06878e-06
24 *11524:AD[2] *491:92 0
25 *11524:EN *491:92 0
26 *11524:R_WB *491:92 3.4879e-05
27 *11533:AD[1] *11533:AD[0] 0.000425025
28 *11533:AD[2] *11533:AD[0] 2.28898e-05
29 *11533:R_WB *11533:AD[0] 0
30 *11542:AD[1] *11542:AD[0] 0.000104747
31 *11542:AD[2] *11542:AD[0] 6.58294e-06
32 *11542:R_WB *11542:AD[0] 0
33 *153:20 *491:44 0
34 *200:22 *491:44 6.05587e-05
35 *247:11 *491:74 2.01504e-05
36 *254:13 *491:74 6.36172e-05
37 *256:19 *491:92 4.58835e-05
38 *391:20 *491:18 0.000891855
39 *391:20 *491:22 0.000580488
40 *391:68 *491:22 2.32908e-05
41 *396:102 *491:44 0.000105625
42 *405:44 *11542:AD[0] 0
43 *416:64 *491:94 0.000773726
44 *416:66 *491:94 0.000961154
45 *416:76 *491:94 0.000574655
46 *416:78 *491:94 0.00139376
47 *418:38 *491:92 4.38265e-05
48 *427:16 *491:94 0.000158892
49 *427:64 *11542:AD[0] 0.000163563
50 *433:10 *491:94 0.00225437
51 *433:58 *491:94 0.000971985
52 *433:62 *491:94 0.000738801
53 *433:72 *491:94 0.000574655
54 *433:76 *491:94 0.000259204
55 *433:78 *491:94 0.000258066
56 *456:10 *491:94 0.00225437
57 *456:18 *491:94 0.000194161
58 *474:50 *491:24 0
59 *474:50 *491:74 0
60 *474:98 *491:74 0
61 *474:122 *491:94 0.000258066
62 *476:52 *11515:AD[0] 0.000162201
63 *476:96 *491:94 0.0179983
64 *478:80 *491:94 0.00660205
65 *483:22 *491:24 0.00804698
66 *483:22 *491:74 0.000478775
67 *483:44 *491:44 0.0331456
68 *483:82 *491:92 0.000188215
69 *485:16 *491:22 0
70 *485:20 *491:74 0.0179566
71 *485:40 *491:94 0.0330977
72 *485:86 *491:44 0.0330883
*RES
1 *11349:X *491:18 41.2342 
2 *491:18 *491:22 20.1514 
3 *491:22 *491:24 23.4326 
4 *491:24 *11515:AD[0] 21.843 
5 *491:24 *491:42 3.41 
6 *491:42 *491:44 69.0806 
7 *491:44 *11533:AD[0] 21.7168 
8 *491:22 *491:74 40.71 
9 *491:74 *11524:AD[0] 0.209821 
10 *491:74 *491:92 21.3099 
11 *491:92 *491:94 68.3349 
12 *491:94 *11542:AD[0] 24.6262 
*END

*D_NET *492 0.000432812
*CONN
*I *11444:A I *D sky130_fd_sc_hd__dlygate4sd3_1
*I *11350:X O *D sky130_fd_sc_hd__dlygate4sd3_1
*CAP
1 *11444:A 0.000129445
2 *11350:X 0.000129445
3 *11444:A *609:20 0.000173921
*RES
1 *11350:X *11444:A 21.6 
*END

*D_NET *493 0.0478838
*CONN
*I *11472:A I *D sky130_fd_sc_hd__buf_12
*I *11567:X O *D sky130_fd_sc_hd__buf_12
*CAP
1 *11472:A 6.72417e-05
2 *11567:X 0.000249377
3 *493:16 0.00298778
4 *493:14 0.00292054
5 *493:12 0.00421262
6 *493:10 0.00446199
7 *493:12 *526:12 0.00242982
8 *493:12 *608:14 0.00429408
9 *493:12 *613:14 0.00295039
10 *493:16 *11630:A 0
11 *493:16 *504:18 0.00784608
12 *493:16 *526:16 0
13 *493:16 *569:16 0.000721029
14 *493:16 *572:24 0.00743573
15 *493:16 *576:8 0.000910796
16 wbs_dat_o[18] *493:10 0
17 wbs_dat_o[30] *493:16 0
18 *11401:A *493:16 0
19 *11402:A *493:16 0.000314166
20 *11463:A *493:16 0.00136689
21 *415:12 *493:12 0.00385595
22 *427:14 *11472:A 1.33343e-05
23 *449:16 *493:12 0.000846009
*RES
1 *11567:X *493:10 21.7643 
2 *493:10 *493:12 147.982 
3 *493:12 *493:14 4.5 
4 *493:14 *493:16 125.196 
5 *493:16 *11472:A 14.7464 
*END

*D_NET *494 0.000684656
*CONN
*I *11570:A I *D sky130_fd_sc_hd__buf_12
*I *11352:X O *D sky130_fd_sc_hd__dlygate4sd3_1
*CAP
1 *11570:A 0.000319502
2 *11352:X 0.000319502
3 *11570:A *620:12 1.75642e-05
4 wbs_dat_o[20] *11570:A 0
5 *11352:A *11570:A 2.80881e-05
6 *426:22 *11570:A 0
*RES
1 *11352:X *11570:A 32.5107 
*END

*D_NET *495 0.00112083
*CONN
*I *11446:A I *D sky130_fd_sc_hd__dlygate4sd3_1
*I *11353:X O *D sky130_fd_sc_hd__dlygate4sd3_1
*CAP
1 *11446:A 0.000295512
2 *11353:X 0.000295512
3 *11446:A *610:34 0.000236164
4 wbs_dat_o[21] *11446:A 0.000142856
5 *11353:A *11446:A 0.000150786
6 *11434:A *11446:A 0
*RES
1 *11353:X *11446:A 35.0107 
*END

*D_NET *496 0.000396309
*CONN
*I *11571:A I *D sky130_fd_sc_hd__buf_12
*I *11354:X O *D sky130_fd_sc_hd__dlygate4sd3_1
*CAP
1 *11571:A 0.000175328
2 *11354:X 0.000175328
3 *11571:A *537:10 2.80881e-05
4 *11571:A *620:12 1.75642e-05
*RES
1 *11354:X *11571:A 29.7786 
*END

*D_NET *497 0.00126001
*CONN
*I *11462:A I *D sky130_fd_sc_hd__dlygate4sd3_1
*I *11355:X O *D sky130_fd_sc_hd__dlygate4sd3_1
*CAP
1 *11462:A 0.000521818
2 *11355:X 0.000521818
3 *11462:A *11565:A 4.32445e-05
4 *11462:A *11614:A 1.55885e-05
5 wbs_dat_o[16] *11462:A 0.000144499
6 *11356:A *11462:A 3.69047e-06
7 *360:18 *11462:A 9.35114e-06
*RES
1 *11355:X *11462:A 35.5464 
*END

*D_NET *498 0.000744767
*CONN
*I *11565:A I *D sky130_fd_sc_hd__buf_12
*I *11356:X O *D sky130_fd_sc_hd__dlygate4sd3_1
*CAP
1 *11565:A 0.000323411
2 *11356:X 0.000323411
3 wbs_dat_o[16] *11565:A 0
4 *11356:A *11565:A 0
5 *11462:A *11565:A 4.32445e-05
6 *448:16 *11565:A 5.47001e-05
*RES
1 *11356:X *11565:A 32.5107 
*END

*D_NET *499 0.00129849
*CONN
*I *11466:A I *D sky130_fd_sc_hd__dlygate4sd3_1
*I *11357:X O *D sky130_fd_sc_hd__dlygate4sd3_1
*CAP
1 *11466:A 0.000465223
2 *11357:X 0.000465223
3 *11466:A *11566:A 5.038e-05
4 *11466:A *610:28 0.000149188
5 *11466:A *613:12 0
6 wbs_dat_o[17] *11466:A 0.000146533
7 *11358:A *11466:A 3.69047e-06
8 *360:18 *11466:A 1.82549e-05
*RES
1 *11357:X *11466:A 35.5464 
*END

*D_NET *500 0.000736949
*CONN
*I *11566:A I *D sky130_fd_sc_hd__buf_12
*I *11358:X O *D sky130_fd_sc_hd__dlygate4sd3_1
*CAP
1 *11566:A 0.000301891
2 *11358:X 0.000301891
3 *11566:A *11615:A 2.80881e-05
4 *11566:A *610:16 0
5 wbs_dat_o[17] *11566:A 0
6 *11466:A *11566:A 5.038e-05
7 *448:16 *11566:A 5.47001e-05
*RES
1 *11358:X *11566:A 32.5107 
*END

*D_NET *501 0.000583761
*CONN
*I *11448:A I *D sky130_fd_sc_hd__dlygate4sd3_1
*I *11359:X O *D sky130_fd_sc_hd__dlygate4sd3_1
*CAP
1 *11448:A 0.000217678
2 *11359:X 0.000217678
3 *11448:A *610:34 2.02508e-05
4 wbs_dat_o[22] *11448:A 0.000128154
*RES
1 *11359:X *11448:A 31.0107 
*END

*D_NET *502 9.40265e-05
*CONN
*I *11572:A I *D sky130_fd_sc_hd__buf_12
*I *11360:X O *D sky130_fd_sc_hd__dlygate4sd3_1
*CAP
1 *11572:A 1.87155e-05
2 *11360:X 1.87155e-05
3 *11364:A *11572:A 5.65955e-05
*RES
1 *11360:X *11572:A 19.1357 
*END

*D_NET *503 0.000820547
*CONN
*I *11470:A I *D sky130_fd_sc_hd__dlygate4sd3_1
*I *11361:X O *D sky130_fd_sc_hd__dlygate4sd3_1
*CAP
1 *11470:A 0.000250666
2 *11361:X 0.000250666
3 *11470:A *619:6 0.000162827
4 *11330:A *11470:A 0.00012378
5 *11363:A *11470:A 3.26077e-05
*RES
1 *11361:X *11470:A 32.6536 
*END

*D_NET *504 0.0552176
*CONN
*I *11443:A I *D sky130_fd_sc_hd__buf_12
*I *11568:X O *D sky130_fd_sc_hd__buf_12
*CAP
1 *11443:A 7.83719e-05
2 *11568:X 0.000821619
3 *504:18 0.00194237
4 *504:16 0.001864
5 *504:14 0.00392418
6 *504:12 0.0047458
7 *504:12 *11617:A 0
8 *504:12 *609:20 5.33334e-05
9 *504:12 *617:10 0
10 *504:14 *571:14 0.00422941
11 *504:18 *572:24 0.000207024
12 *504:18 *576:8 0.00843999
13 wbs_dat_o[19] *504:12 0.00010096
14 *11310:B1 *504:12 5.05056e-05
15 *11310:B2 *504:12 0.00108267
16 *11313:B1 *504:12 0.000112485
17 *11316:A1 *504:12 0
18 *11347:A *504:12 0
19 *11463:A *504:18 0.00136066
20 *11511:A *504:12 0.000259676
21 *11568:A *504:12 0.000114847
22 *170:127 *504:12 3.49613e-05
23 *175:10 *504:12 0.00011595
24 *179:16 *504:14 0.000252827
25 *193:12 *504:14 0.0140063
26 *225:30 *504:14 0.000999493
27 *226:34 *504:12 0
28 *226:51 *504:12 6.54117e-05
29 *249:29 *504:14 0.00241251
30 *369:18 *504:12 0
31 *398:8 *11443:A 9.60875e-05
32 *493:16 *504:18 0.00784608
*RES
1 *11568:X *504:12 38.8 
2 *504:12 *504:14 132.375 
3 *504:14 *504:16 4.5 
4 *504:16 *504:18 104.554 
5 *504:18 *11443:A 15.1571 
*END

*D_NET *505 0.000559321
*CONN
*I *11567:A I *D sky130_fd_sc_hd__buf_12
*I *11363:X O *D sky130_fd_sc_hd__dlygate4sd3_1
*CAP
1 *11567:A 0.000208236
2 *11363:X 0.000208236
3 *11330:A *11567:A 0.00014285
*RES
1 *11363:X *11567:A 30.9036 
*END

*D_NET *506 0.00317744
*CONN
*I *11451:A I *D sky130_fd_sc_hd__dlygate4sd3_1
*I *11364:X O *D sky130_fd_sc_hd__dlygate4sd3_1
*CAP
1 *11451:A 0.0009682
2 *11364:X 0.0009682
3 *11451:A *11623:A 0
4 *11451:A *620:12 0.000572324
5 wbs_dat_o[23] *11451:A 0.00036192
6 *11360:A *11451:A 0
7 *11364:A *11451:A 0.000142053
8 *11365:A *11451:A 0.000164747
*RES
1 *11364:X *11451:A 44.5286 
*END

*D_NET *507 0.000128075
*CONN
*I *11574:A I *D sky130_fd_sc_hd__buf_12
*I *11365:X O *D sky130_fd_sc_hd__dlygate4sd3_1
*CAP
1 *11574:A 7.41586e-06
2 *11365:X 7.41586e-06
3 *11574:A *11623:A 5.71472e-05
4 *11574:A *617:16 5.60962e-05
*RES
1 *11365:X *11574:A 19.1357 
*END

*D_NET *508 0.000406379
*CONN
*I *11453:A I *D sky130_fd_sc_hd__dlygate4sd3_1
*I *11366:X O *D sky130_fd_sc_hd__dlygate4sd3_1
*CAP
1 *11453:A 0.00015402
2 *11366:X 0.00015402
3 *11453:A *620:12 9.83388e-05
*RES
1 *11366:X *11453:A 30.1893 
*END

*D_NET *509 6.37568e-05
*CONN
*I *11575:A I *D sky130_fd_sc_hd__buf_12
*I *11367:X O *D sky130_fd_sc_hd__dlygate4sd3_1
*CAP
1 *11575:A 3.18784e-05
2 *11367:X 3.18784e-05
*RES
1 *11367:X *11575:A 19.1357 
*END

*D_NET *510 0.00172681
*CONN
*I *11455:A I *D sky130_fd_sc_hd__dlygate4sd3_1
*I *11368:X O *D sky130_fd_sc_hd__dlygate4sd3_1
*CAP
1 *11455:A 0.000549965
2 *11368:X 0.000549965
3 *11455:A *569:10 0
4 *11455:A *617:16 0.000598074
5 *11367:A *11455:A 2.88045e-05
*RES
1 *11368:X *11455:A 35.1179 
*END

*D_NET *511 0.000451909
*CONN
*I *11576:A I *D sky130_fd_sc_hd__buf_12
*I *11369:X O *D sky130_fd_sc_hd__dlygate4sd3_1
*CAP
1 *11576:A 0.000185025
2 *11369:X 0.000185025
3 *11576:A *570:12 4.94931e-05
4 *11576:A *620:12 3.23672e-05
*RES
1 *11369:X *11576:A 30.1893 
*END

*D_NET *512 0.00166267
*CONN
*I *11457:A I *D sky130_fd_sc_hd__dlygate4sd3_1
*I *11370:X O *D sky130_fd_sc_hd__dlygate4sd3_1
*CAP
1 *11457:A 0.000787011
2 *11370:X 0.000787011
3 *11371:A *11457:A 8.86498e-05
*RES
1 *11370:X *11457:A 29.4393 
*END

*D_NET *513 0.000850779
*CONN
*I *11577:A I *D sky130_fd_sc_hd__buf_12
*I *11371:X O *D sky130_fd_sc_hd__dlygate4sd3_1
*CAP
1 *11577:A 0.00040181
2 *11371:X 0.00040181
3 *11577:A *571:10 0
4 *11577:A *620:12 4.71586e-05
5 *11375:A *11577:A 0
*RES
1 *11371:X *11577:A 33.3321 
*END

*D_NET *514 0.00148361
*CONN
*I *11335:A I *D sky130_fd_sc_hd__dlygate4sd3_1
*I *11372:X O *D sky130_fd_sc_hd__dlygate4sd3_1
*CAP
1 *11335:A 0.000547479
2 *11372:X 0.000547479
3 *11335:A *590:12 0.000139998
4 *11335:A *633:10 0
5 wbs_dat_o[4] *11335:A 8.55871e-05
6 *11372:A *11335:A 4.97329e-05
7 *11586:A *11335:A 0.00011333
*RES
1 *11372:X *11335:A 35.4929 
*END

*D_NET *515 0.0411478
*CONN
*I *11439:A I *D sky130_fd_sc_hd__buf_12
*I *11569:X O *D sky130_fd_sc_hd__buf_12
*CAP
1 *11439:A 0
2 *11569:X 0.00064617
3 *515:16 0.00293035
4 *515:14 0.00424681
5 *515:10 0.00196263
6 *515:10 *11618:A 0.000170515
7 *515:10 *618:18 0.000338351
8 *515:14 *624:14 0.00152396
9 *515:16 *11430:A 0.00106915
10 *515:16 *558:10 0.00185618
11 *515:16 *579:12 0.0137999
12 *515:16 *581:12 0.00167011
13 *515:16 *624:14 0.000232219
14 *742:DIODE *515:10 0
15 *11222:B2 *515:10 0
16 *11228:B2 *515:10 0.000574272
17 *11254:C1 *515:14 7.922e-05
18 *11418:A *515:10 0
19 *114:12 *515:16 0.00586399
20 *148:38 *515:16 0.000172057
21 *148:40 *515:14 2.18985e-05
22 *148:40 *515:16 0.000269905
23 *199:53 *515:16 0.00372013
*RES
1 *11569:X *515:10 32.3893 
2 *515:10 *515:14 26.0179 
3 *515:14 *515:16 154.554 
4 *515:16 *11439:A 9.3 
*END

*D_NET *516 0.000691272
*CONN
*I *11602:A I *D sky130_fd_sc_hd__buf_12
*I *11374:X O *D sky130_fd_sc_hd__dlygate4sd3_1
*CAP
1 *11602:A 0.000193062
2 *11374:X 0.000193062
3 *11602:A *633:10 0
4 *11495:A *11602:A 0.000305147
*RES
1 *11374:X *11602:A 31.6714 
*END

*D_NET *517 0.00205013
*CONN
*I *11459:A I *D sky130_fd_sc_hd__dlygate4sd3_1
*I *11375:X O *D sky130_fd_sc_hd__dlygate4sd3_1
*CAP
1 *11459:A 0.000563357
2 *11375:X 0.000563357
3 *11459:A *11578:A 4.59113e-05
4 *11459:A *616:22 0.000311121
5 *11376:A *11459:A 0.000447971
6 *482:14 *11459:A 0.000118413
*RES
1 *11375:X *11459:A 38.3321 
*END

*D_NET *518 0.00076401
*CONN
*I *11578:A I *D sky130_fd_sc_hd__buf_12
*I *11376:X O *D sky130_fd_sc_hd__dlygate4sd3_1
*CAP
1 *11578:A 0.000342869
2 *11376:X 0.000342869
3 *11578:A *620:12 3.23614e-05
4 *11376:A *11578:A 0
5 *11459:A *11578:A 4.59113e-05
*RES
1 *11376:X *11578:A 32.9214 
*END

*D_NET *519 0.00345826
*CONN
*I *11339:A I *D sky130_fd_sc_hd__dlygate4sd3_1
*I *11377:X O *D sky130_fd_sc_hd__dlygate4sd3_1
*CAP
1 *11339:A 0.00113148
2 *11377:X 0.00113148
3 *11339:A *11601:A 0.000110274
4 *11339:A *601:12 0.000181381
5 *11339:A *622:12 0.000303972
6 *11377:A *11339:A 8.61809e-05
7 *11378:A *11339:A 0.000513484
8 *11497:A *11339:A 0
*RES
1 *11377:X *11339:A 45.85 
*END

*D_NET *520 0.000705418
*CONN
*I *11601:A I *D sky130_fd_sc_hd__buf_12
*I *11378:X O *D sky130_fd_sc_hd__dlygate4sd3_1
*CAP
1 *11601:A 0.000270219
2 *11378:X 0.000270219
3 *11601:A *592:24 5.47047e-05
4 *11339:A *11601:A 0.000110274
5 *11497:A *11601:A 0
*RES
1 *11378:X *11601:A 32.5107 
*END

*D_NET *521 0.00125365
*CONN
*I *11333:A I *D sky130_fd_sc_hd__dlygate4sd3_1
*I *11379:X O *D sky130_fd_sc_hd__dlygate4sd3_1
*CAP
1 *11333:A 0.000439249
2 *11379:X 0.000439249
3 *11333:A *581:10 9.28243e-05
4 wbs_dat_o[5] *11333:A 2.89114e-05
5 *11379:A *11333:A 0.000136322
6 *11504:A *11333:A 0
7 *11587:A *11333:A 0.000117094
*RES
1 *11379:X *11333:A 35.0821 
*END

*D_NET *522 0.000456279
*CONN
*I *11552:A I *D sky130_fd_sc_hd__buf_12
*I *11380:X O *D sky130_fd_sc_hd__dlygate4sd3_1
*CAP
1 *11552:A 0.00012618
2 *11380:X 0.00012618
3 *11552:A *582:10 0
4 *11552:A *601:12 5.33005e-05
5 *11494:A *11552:A 0.000150618
*RES
1 *11380:X *11552:A 30.0821 
*END

*D_NET *523 0.00127539
*CONN
*I *11342:A I *D sky130_fd_sc_hd__dlygate4sd3_1
*I *11381:X O *D sky130_fd_sc_hd__dlygate4sd3_1
*CAP
1 *11342:A 0.000492972
2 *11381:X 0.000492972
3 *11342:A *591:28 1.87955e-05
4 *11342:A *593:10 0
5 *11342:A *626:8 0.000270653
6 *11381:A *11342:A 0
*RES
1 *11381:X *11342:A 34.9214 
*END

*D_NET *524 0.00137023
*CONN
*I *11600:A I *D sky130_fd_sc_hd__buf_12
*I *11382:X O *D sky130_fd_sc_hd__dlygate4sd3_1
*CAP
1 *11600:A 0.00023999
2 *11382:X 0.00023999
3 *11429:A *11600:A 0.000554706
4 *11501:A *11600:A 0.00033554
*RES
1 *11382:X *11600:A 34.5643 
*END

*D_NET *525 0.000547707
*CONN
*I *11331:A I *D sky130_fd_sc_hd__dlygate4sd3_1
*I *11383:X O *D sky130_fd_sc_hd__dlygate4sd3_1
*CAP
1 *11331:A 0.000181484
2 *11383:X 0.000181484
3 *11331:A *597:12 4.25809e-05
4 *11331:A *599:12 0.000142157
*RES
1 *11383:X *11331:A 30.6 
*END

*D_NET *526 0.045141
*CONN
*I *11445:A I *D sky130_fd_sc_hd__buf_12
*I *11570:X O *D sky130_fd_sc_hd__buf_12
*CAP
1 *11445:A 0.00019401
2 *11570:X 0.000155023
3 *526:24 0.0015658
4 *526:22 0.00144482
5 *526:16 0.00149166
6 *526:14 0.00141862
7 *526:12 0.0023927
8 *526:10 0.00254772
9 *526:12 *548:14 0.000929134
10 *526:12 *548:16 0.00206185
11 *526:12 *607:18 0.00066861
12 *526:12 *613:14 0.00655971
13 *526:16 *537:16 1.08359e-05
14 *526:16 *560:16 0.00295733
15 *526:16 *573:16 0.00224306
16 *526:16 *576:8 0
17 *526:22 *11524:BEN[14] 0.000135028
18 *526:24 *11524:BEN[8] 0.000683504
19 *526:24 *558:381 3.17148e-05
20 *526:24 *558:393 0.000676111
21 *526:24 *558:403 0.000775687
22 *526:24 *558:415 0.000789336
23 *526:24 *558:427 0.000789329
24 *526:24 *558:439 0.000776797
25 *526:24 *574:16 0.00682582
26 *526:24 *576:8 0.000503275
27 *11312:A0 *11445:A 0
28 *11350:A *526:10 0
29 *11401:A *526:16 0.000399473
30 *11463:A *526:24 0.000243007
31 *187:22 *11445:A 0
32 *192:16 *526:24 0.000187616
33 *266:68 *526:24 0.000170008
34 *418:26 *526:24 0.00121136
35 *426:22 *526:10 0.000118983
36 *460:14 *526:12 0.00175329
37 *493:12 *526:12 0.00242982
38 *493:16 *526:16 0
*RES
1 *11570:X *526:10 20.8536 
2 *526:10 *526:12 120.464 
3 *526:12 *526:14 4.5 
4 *526:14 *526:16 49.3036 
5 *526:16 *526:22 10.3571 
6 *526:22 *526:24 84.8214 
7 *526:24 *11445:A 16.3893 
*END

*D_NET *527 0.000996654
*CONN
*I *11553:A I *D sky130_fd_sc_hd__buf_12
*I *11385:X O *D sky130_fd_sc_hd__dlygate4sd3_1
*CAP
1 *11553:A 0.000383755
2 *11385:X 0.000383755
3 *11553:A *583:10 4.60232e-06
4 *11553:A *598:14 1.98839e-05
5 *11553:A *599:12 3.30337e-05
6 *11491:A *11553:A 0.000171624
*RES
1 *11385:X *11553:A 32.3679 
*END

*D_NET *528 0.00198088
*CONN
*I *11514:A I *D sky130_fd_sc_hd__dlygate4sd3_1
*I *11386:X O *D sky130_fd_sc_hd__dlygate4sd3_1
*CAP
1 *11514:A 0.000455763
2 *11386:X 0.000455763
3 *11514:A *597:14 0.000324022
4 *11514:A *604:12 0.00030232
5 wbs_dat_o[7] *11514:A 4.35597e-05
6 wbs_dat_o[8] *11514:A 5.52302e-05
7 *11386:A *11514:A 0
8 *11387:A *11514:A 0.000344225
*RES
1 *11386:X *11514:A 38.9214 
*END

*D_NET *529 0.000400662
*CONN
*I *11554:A I *D sky130_fd_sc_hd__buf_12
*I *11387:X O *D sky130_fd_sc_hd__dlygate4sd3_1
*CAP
1 *11554:A 0.000187364
2 *11387:X 0.000187364
3 *11486:A *11554:A 2.59355e-05
*RES
1 *11387:X *11554:A 29.7786 
*END

*D_NET *530 0.00207875
*CONN
*I *11464:A I *D sky130_fd_sc_hd__dlygate4sd3_1
*I *11388:X O *D sky130_fd_sc_hd__dlygate4sd3_1
*CAP
1 *11464:A 0.000629121
2 *11388:X 0.000629121
3 *11464:A *11579:A 0.000161714
4 *11464:A *573:10 0.000157297
5 *11464:A *620:12 0.000258947
6 wbs_dat_o[28] *11464:A 0
7 *11388:A *11464:A 0.000185401
8 *11389:A *11464:A 5.71472e-05
*RES
1 *11388:X *11464:A 40.1357 
*END

*D_NET *531 0.000595373
*CONN
*I *11579:A I *D sky130_fd_sc_hd__buf_12
*I *11389:X O *D sky130_fd_sc_hd__dlygate4sd3_1
*CAP
1 *11579:A 0.00021683
2 *11389:X 0.00021683
3 *11464:A *11579:A 0.000161714
*RES
1 *11389:X *11579:A 31.975 
*END

*D_NET *532 0.00141923
*CONN
*I *11348:A I *D sky130_fd_sc_hd__dlygate4sd3_1
*I *11390:X O *D sky130_fd_sc_hd__dlygate4sd3_1
*CAP
1 *11348:A 0.00040548
2 *11390:X 0.00040548
3 *11231:A2 *11348:A 6.42338e-05
4 *11231:B1 *11348:A 3.69697e-05
5 *11324:RESET_B *11348:A 0.000478619
6 *201:54 *11348:A 2.84494e-05
*RES
1 *11390:X *11348:A 33.8857 
*END

*D_NET *533 0.000529078
*CONN
*I *11599:A I *D sky130_fd_sc_hd__buf_12
*I *11391:X O *D sky130_fd_sc_hd__dlygate4sd3_1
*CAP
1 *11599:A 0.000106849
2 *11391:X 0.000106849
3 *11599:A *575:22 0.000145477
4 *11599:A *600:12 0.000143967
5 *11231:B2 *11599:A 2.59355e-05
*RES
1 *11391:X *11599:A 30.0821 
*END

*D_NET *534 0.000993347
*CONN
*I *11510:A I *D sky130_fd_sc_hd__dlygate4sd3_1
*I *11392:X O *D sky130_fd_sc_hd__dlygate4sd3_1
*CAP
1 *11510:A 0.000195365
2 *11392:X 0.000195365
3 *11510:A *584:28 0.000228508
4 *11510:A *599:12 5.52302e-05
5 *11510:A *601:22 0.000228508
6 *11392:A *11510:A 5.71472e-05
7 *371:18 *11510:A 3.32232e-05
*RES
1 *11392:X *11510:A 32.5643 
*END

*D_NET *535 0.000367535
*CONN
*I *11555:A I *D sky130_fd_sc_hd__buf_12
*I *11393:X O *D sky130_fd_sc_hd__dlygate4sd3_1
*CAP
1 *11555:A 0.000126437
2 *11393:X 0.000126437
3 *11555:A *628:22 3.18676e-05
4 *360:10 *11555:A 5.47047e-05
5 *371:18 *11555:A 2.80881e-05
*RES
1 *11393:X *11555:A 29.7786 
*END

*D_NET *536 0.00431382
*CONN
*I *11506:A I *D sky130_fd_sc_hd__dlygate4sd3_1
*I *11394:X O *D sky130_fd_sc_hd__dlygate4sd3_1
*CAP
1 *11506:A 0
2 *11394:X 0.00164813
3 *536:16 0.00164813
4 *11438:A *536:16 0.000400238
5 *11481:A *536:16 0.000123288
6 *11484:A *536:16 0
7 *11591:A *536:16 0
8 *360:10 *536:16 0.000340015
9 *404:18 *536:16 0.000154027
*RES
1 *11394:X *536:16 47.3714 
2 *536:16 *11506:A 13.8 
*END

*D_NET *537 0.0465659
*CONN
*I *11447:A I *D sky130_fd_sc_hd__buf_12
*I *11571:X O *D sky130_fd_sc_hd__buf_12
*CAP
1 *11447:A 0.000344464
2 *11571:X 0.000443302
3 *537:16 0.00275592
4 *537:14 0.00241145
5 *537:12 0.0050302
6 *537:10 0.0054735
7 *537:12 *560:12 0.00866971
8 *537:12 *614:18 0.000168858
9 *537:16 *560:16 0.0101639
10 *537:16 *571:16 0.000178555
11 *11309:A0 *11447:A 0
12 *11354:A *537:10 0
13 *11434:A *537:10 0
14 *11571:A *537:10 2.80881e-05
15 *115:37 *537:12 0.00194424
16 *184:56 *537:16 0.00175418
17 *192:16 *537:16 0.000628643
18 *195:10 *537:16 0.000443558
19 *256:23 *11447:A 8.14358e-06
20 *355:34 *537:16 0.00189864
21 *356:18 *537:16 0.00420971
22 *376:79 *11447:A 0
23 *526:16 *537:16 1.08359e-05
*RES
1 *11571:X *537:10 25.4071 
2 *537:10 *537:12 105.268 
3 *537:12 *537:14 4.5 
4 *537:14 *537:16 126.714 
5 *537:16 *11447:A 18.4429 
*END

*D_NET *538 0.000756302
*CONN
*I *11562:A I *D sky130_fd_sc_hd__buf_12
*I *11396:X O *D sky130_fd_sc_hd__dlygate4sd3_1
*CAP
1 *11562:A 0.000272724
2 *11396:X 0.000272724
3 *11213:A *11562:A 2.01732e-05
4 *122:52 *11562:A 0.000144773
5 *371:18 *11562:A 4.59075e-05
*RES
1 *11396:X *11562:A 31.725 
*END

*D_NET *539 0.000686857
*CONN
*I *11503:A I *D sky130_fd_sc_hd__dlygate4sd3_1
*I *11397:X O *D sky130_fd_sc_hd__dlygate4sd3_1
*CAP
1 *11503:A 0.000107189
2 *11397:X 0.000107189
3 *11503:A *584:40 0.000206519
4 *122:52 *11503:A 0.00026596
*RES
1 *11397:X *11503:A 22.1536 
*END

*D_NET *540 0.000253094
*CONN
*I *11573:A I *D sky130_fd_sc_hd__buf_12
*I *11398:X O *D sky130_fd_sc_hd__dlygate4sd3_1
*CAP
1 *11573:A 0.000126547
2 *11398:X 0.000126547
*RES
1 *11398:X *11573:A 29.2429 
*END

*D_NET *541 0.00165878
*CONN
*I *11477:A I *D sky130_fd_sc_hd__dlygate4sd3_1
*I *11399:X O *D sky130_fd_sc_hd__dlygate4sd3_1
*CAP
1 *11477:A 0.000554716
2 *11399:X 0.000554716
3 *11477:A *11580:A 0.000149269
4 *11477:A *11628:A 1.21258e-05
5 *11477:A *548:20 0.00014769
6 wbs_dat_o[29] *11477:A 0.000142801
7 *11400:A *11477:A 9.74665e-05
*RES
1 *11399:X *11477:A 36.3679 
*END

*D_NET *542 0.000780621
*CONN
*I *11580:A I *D sky130_fd_sc_hd__buf_12
*I *11400:X O *D sky130_fd_sc_hd__dlygate4sd3_1
*CAP
1 *11580:A 0.000216057
2 *11400:X 0.000216057
3 *11580:A *548:20 8.23319e-05
4 *11580:A *574:10 9.93414e-05
5 *11580:A *620:12 1.75642e-05
6 wbs_dat_o[29] *11580:A 0
7 *11477:A *11580:A 0.000149269
*RES
1 *11400:X *11580:A 32.5107 
*END

*D_NET *543 0.00124585
*CONN
*I *11499:A I *D sky130_fd_sc_hd__dlygate4sd3_1
*I *11401:X O *D sky130_fd_sc_hd__dlygate4sd3_1
*CAP
1 *11499:A 0.000521513
2 *11401:X 0.000521513
3 *11499:A *11582:A 5.25998e-05
4 wbs_dat_o[30] *11499:A 0.000146533
5 *11402:A *11499:A 3.69047e-06
*RES
1 *11401:X *11499:A 35.5464 
*END

*D_NET *544 0.000680134
*CONN
*I *11582:A I *D sky130_fd_sc_hd__buf_12
*I *11402:X O *D sky130_fd_sc_hd__dlygate4sd3_1
*CAP
1 *11582:A 0.000288664
2 *11402:X 0.000288664
3 *11582:A *11630:A 3.2643e-05
4 *11582:A *620:12 1.75642e-05
5 wbs_dat_o[30] *11582:A 0
6 *11402:A *11582:A 0
7 *11499:A *11582:A 5.25998e-05
*RES
1 *11402:X *11582:A 32.5107 
*END

*D_NET *545 0.000459463
*CONN
*I *11508:A I *D sky130_fd_sc_hd__dlygate4sd3_1
*I *11403:X O *D sky130_fd_sc_hd__dlygate4sd3_1
*CAP
1 *11508:A 8.10162e-05
2 *11403:X 8.10162e-05
3 *11508:A *11631:A 0.000122065
4 *11508:A *577:10 0.000122065
5 *11508:A *620:12 5.33005e-05
*RES
1 *11403:X *11508:A 29.7786 
*END

*D_NET *546 0.000635665
*CONN
*I *11583:A I *D sky130_fd_sc_hd__buf_12
*I *11404:X O *D sky130_fd_sc_hd__dlygate4sd3_1
*CAP
1 *11583:A 0.000317832
2 *11404:X 0.000317832
3 wbs_dat_o[31] *11583:A 0
*RES
1 *11404:X *11583:A 32.5107 
*END

*D_NET *547 0.000238196
*CONN
*I *11592:A I *D sky130_fd_sc_hd__buf_12
*I *11405:X O *D sky130_fd_sc_hd__dlygate4sd3_1
*CAP
1 *11592:A 0.000119098
2 *11405:X 0.000119098
*RES
1 *11405:X *11592:A 29.5464 
*END

*D_NET *548 0.0407791
*CONN
*I *11450:A I *D sky130_fd_sc_hd__buf_12
*I *11572:X O *D sky130_fd_sc_hd__buf_12
*CAP
1 *11450:A 0
2 *11572:X 8.44382e-05
3 *548:32 0.00110475
4 *548:20 0.00476847
5 *548:18 0.00366372
6 *548:16 0.00178507
7 *548:14 0.00435726
8 *548:10 0.00265663
9 *548:16 *572:14 0.00223277
10 *548:20 *11524:BEN[7] 1.90936e-05
11 *548:20 *549:115 4.24642e-05
12 *548:20 *570:18 0.00646881
13 *548:20 *571:26 0.00012797
14 *548:20 *574:10 0
15 *548:32 *570:26 0.00204905
16 *548:32 *571:26 1.22751e-05
17 wbs_dat_o[29] *548:20 0
18 *11364:A *548:10 0
19 *11395:A *548:10 2.80066e-05
20 *11477:A *548:20 0.00014769
21 *11524:DI[11] *548:20 8.62441e-05
22 *11580:A *548:20 8.23319e-05
23 *184:56 *548:32 6.05161e-06
24 *187:22 *548:32 2.32086e-05
25 *187:36 *548:20 0.00116887
26 *238:69 *548:20 0.00178916
27 *239:61 *548:20 7.90529e-05
28 *240:16 *548:20 1.23998e-05
29 *247:15 *548:20 0
30 *247:21 *548:20 0.0016377
31 *254:23 *548:20 0.000137578
32 *258:22 *548:20 4.39986e-05
33 *264:61 *548:32 0
34 *266:13 *548:20 1.13265e-05
35 *355:20 *548:32 0.0020474
36 *363:26 *548:20 2.92969e-05
37 *387:100 *548:20 4.64488e-06
38 *460:14 *548:14 0.000290047
39 *482:14 *548:14 0.00034253
40 *482:14 *548:16 0.000447864
41 *526:12 *548:14 0.000929134
42 *526:12 *548:16 0.00206185
*RES
1 *11572:X *548:10 19.6393 
2 *548:10 *548:14 35.6696 
3 *548:14 *548:16 49.6161 
4 *548:16 *548:18 4.5 
5 *548:18 *548:20 117 
6 *548:20 *548:32 47.8929 
7 *548:32 *11450:A 9.3 
*END

*D_NET *549 0.0842188
*CONN
*I *11524:BEN[0] I *D CF_SRAM_1024x32
*I *11524:BEN[1] I *D CF_SRAM_1024x32
*I *11524:BEN[2] I *D CF_SRAM_1024x32
*I *11524:BEN[3] I *D CF_SRAM_1024x32
*I *11524:BEN[4] I *D CF_SRAM_1024x32
*I *11524:BEN[5] I *D CF_SRAM_1024x32
*I *11524:BEN[6] I *D CF_SRAM_1024x32
*I *11524:BEN[7] I *D CF_SRAM_1024x32
*I *11605:A I *D sky130_fd_sc_hd__clkbuf_16
*I *11515:BEN[4] I *D CF_SRAM_1024x32
*I *11515:BEN[5] I *D CF_SRAM_1024x32
*I *11515:BEN[6] I *D CF_SRAM_1024x32
*I *11515:BEN[7] I *D CF_SRAM_1024x32
*I *11407:X O *D sky130_fd_sc_hd__buf_12
*CAP
1 *11524:BEN[0] 0.000815795
2 *11524:BEN[1] 0.000660829
3 *11524:BEN[2] 0.000599957
4 *11524:BEN[3] 0.000127891
5 *11524:BEN[4] 0.000196678
6 *11524:BEN[5] 0.000220756
7 *11524:BEN[6] 0.000220822
8 *11524:BEN[7] 0.000214072
9 *11605:A 0.000563475
10 *11515:BEN[4] 0.000574355
11 *11515:BEN[5] 0.000223576
12 *11515:BEN[6] 0.000191434
13 *11515:BEN[7] 0.000147367
14 *11407:X 0.000105276
15 *549:187 0.00161812
16 *549:175 0.00190323
17 *549:157 0.00151982
18 *549:143 0.000751065
19 *549:127 0.000742035
20 *549:115 0.000653525
21 *549:101 0.0127511
22 *549:97 0.0145928
23 *549:78 0.00186798
24 *549:62 0.00112693
25 *549:44 0.000489107
26 *549:32 0.00147581
27 *549:22 0.00374112
28 *549:10 0.0012771
29 *549:8 0.00113661
30 *11524:BEN[0] *11524:ScanInDL 0
31 *11524:BEN[0] *576:8 0.000748091
32 *11524:BEN[1] *11465:A 6.57032e-05
33 *11524:BEN[2] *11458:A 0.0001899
34 *549:115 *571:26 2.72712e-05
35 *549:115 *571:34 0.000498505
36 *549:127 *571:34 0.0007817
37 *549:143 *571:34 0.000815871
38 *549:157 *571:34 0.000346072
39 *549:175 *11456:A 0
40 *549:175 *11458:A 6.595e-05
41 *549:187 *576:8 0.00077127
42 *746:DIODE *11515:BEN[4] 1.22751e-05
43 *939:DIODE *11524:BEN[2] 0
44 *11265:A0 *549:78 0
45 *11524:DI[3] *11524:BEN[3] 0
46 *11524:DI[4] *11524:BEN[4] 1.15292e-05
47 *11524:DI[4] *549:143 0.000140979
48 *11524:DI[4] *549:157 0.000119454
49 *11524:DI[6] *549:127 4.28968e-05
50 *112:10 *549:10 0.00375834
51 *125:12 *549:22 0.00054477
52 *125:14 *549:10 0.000563618
53 *132:22 *11605:A 9.60875e-05
54 *133:12 *549:22 0.000535959
55 *133:14 *549:22 3.4323e-06
56 *135:10 *549:44 0.000699004
57 *135:10 *549:62 0.000133012
58 *137:8 *11515:BEN[7] 2.51343e-06
59 *137:8 *549:32 0.000122084
60 *147:16 *11515:BEN[4] 0.000168915
61 *147:16 *11605:A 0.000480934
62 *152:14 *549:32 4.38265e-05
63 *154:8 *11605:A 0
64 *187:22 *11524:BEN[7] 1.24368e-05
65 *192:16 *11524:BEN[0] 0.000115473
66 *192:16 *549:187 0.00011927
67 *212:31 *549:10 0.00267026
68 *233:17 *549:32 0.000178425
69 *238:69 *549:101 0.000167762
70 *247:15 *549:115 9.02467e-05
71 *247:15 *549:127 0.000144853
72 *247:15 *549:143 0.0001734
73 *247:15 *549:157 0.000255687
74 *248:7 *11524:BEN[0] 0
75 *248:61 *11524:BEN[0] 0
76 *256:19 *11524:BEN[0] 0.000786914
77 *256:19 *549:187 0.00077127
78 *259:7 *11524:BEN[1] 0
79 *259:64 *11524:BEN[1] 0
80 *262:7 *11524:BEN[2] 0
81 *263:13 *549:157 6.58704e-05
82 *264:19 *549:143 0.0002136
83 *265:11 *11524:BEN[5] 0
84 *265:11 *549:127 0.000308778
85 *265:17 *11524:BEN[6] 0
86 *265:17 *549:127 1.94945e-05
87 *266:13 *11524:BEN[6] 0
88 *266:13 *11524:BEN[7] 1.94945e-05
89 *266:13 *549:115 0.000346208
90 *266:15 *549:97 0.000676329
91 *266:15 *549:101 0.00530808
92 *267:47 *549:97 0
93 *367:42 *549:44 0.000699004
94 *367:42 *549:62 0.000449321
95 *369:28 *549:32 0
96 *369:28 *549:97 0
97 *369:28 *549:101 0.002784
98 *369:41 *549:62 0.000535131
99 *369:63 *549:101 0.0015624
100 *372:41 *549:62 0.000328026
101 *376:67 *549:143 6.3494e-05
102 *378:89 *549:78 0.000437457
103 *380:28 *549:78 9.36619e-05
104 *383:48 *549:32 4.58835e-05
105 *387:56 *549:32 0.000131614
106 *389:36 *549:78 0.000940539
107 *418:26 *549:175 0.000260574
108 *422:24 *549:175 0.000373255
109 *422:32 *11524:BEN[0] 2.58997e-05
110 *427:16 *549:175 0.000684457
111 *548:20 *11524:BEN[7] 1.90936e-05
112 *548:20 *549:115 4.24642e-05
*RES
1 *11407:X *549:8 15.1571 
2 *549:8 *549:10 47.7857 
3 *549:10 *549:22 20.9368 
4 *549:22 *549:32 19.6005 
5 *549:32 *11515:BEN[7] 2.34821 
6 *549:32 *549:44 13.125 
7 *549:44 *11515:BEN[6] 7.66964 
8 *549:44 *549:62 15 
9 *549:62 *11515:BEN[5] 3.59821 
10 *549:62 *549:78 27.25 
11 *549:78 *11515:BEN[4] 9.15179 
12 *549:78 *11605:A 19.6929 
13 *549:22 *549:97 5.85777 
14 *549:97 *549:101 49.904 
15 *549:101 *11524:BEN[7] 7.82143 
16 *549:101 *549:115 7.5625 
17 *549:115 *11524:BEN[6] 8.08036 
18 *549:115 *549:127 9.83929 
19 *549:127 *11524:BEN[5] 8.09821 
20 *549:127 *549:143 13.2321 
21 *549:143 *11524:BEN[4] 7.6875 
22 *549:143 *549:157 13.125 
23 *549:157 *11524:BEN[3] 1.95536 
24 *549:157 *549:175 31.4286 
25 *549:175 *11524:BEN[2] 10.3304 
26 *549:175 *549:187 14.0357 
27 *549:187 *11524:BEN[1] 14.7411 
28 *549:187 *11524:BEN[0] 24.5982 
*END

*D_NET *550 0.00036008
*CONN
*I *11405:A I *D sky130_fd_sc_hd__dlygate4sd3_1
*I *11408:X O *D sky130_fd_sc_hd__dlygate4sd3_1
*CAP
1 *11405:A 0.00018004
2 *11408:X 0.00018004
*RES
1 *11408:X *11405:A 29.7786 
*END

*D_NET *551 0.000297792
*CONN
*I *11594:A I *D sky130_fd_sc_hd__buf_12
*I *11409:X O *D sky130_fd_sc_hd__dlygate4sd3_1
*CAP
1 *11594:A 8.96519e-05
2 *11409:X 8.96519e-05
3 *11594:A *591:28 0.000118488
*RES
1 *11409:X *11594:A 29.2429 
*END

*D_NET *552 0.10912
*CONN
*I *11524:BEN[23] I *D CF_SRAM_1024x32
*I *11524:BEN[22] I *D CF_SRAM_1024x32
*I *11524:BEN[21] I *D CF_SRAM_1024x32
*I *11524:BEN[20] I *D CF_SRAM_1024x32
*I *11524:BEN[19] I *D CF_SRAM_1024x32
*I *11524:BEN[18] I *D CF_SRAM_1024x32
*I *11524:BEN[17] I *D CF_SRAM_1024x32
*I *11524:BEN[16] I *D CF_SRAM_1024x32
*I *11604:A I *D sky130_fd_sc_hd__clkbuf_16
*I *11515:BEN[19] I *D CF_SRAM_1024x32
*I *11515:BEN[18] I *D CF_SRAM_1024x32
*I *11515:BEN[17] I *D CF_SRAM_1024x32
*I *11515:BEN[16] I *D CF_SRAM_1024x32
*I *11410:X O *D sky130_fd_sc_hd__buf_12
*CAP
1 *11524:BEN[23] 0.000753341
2 *11524:BEN[22] 0.00057513
3 *11524:BEN[21] 0.000569506
4 *11524:BEN[20] 0.000560683
5 *11524:BEN[19] 0.000620447
6 *11524:BEN[18] 0.00113656
7 *11524:BEN[17] 9.95041e-05
8 *11524:BEN[16] 0.00016424
9 *11604:A 0.000986918
10 *11515:BEN[19] 0.000515472
11 *11515:BEN[18] 0.000577965
12 *11515:BEN[17] 0.000692625
13 *11515:BEN[16] 0.000939961
14 *11410:X 0.000843051
15 *552:189 0.00149211
16 *552:177 0.00089412
17 *552:165 0.000844103
18 *552:153 0.00153972
19 *552:125 0.000640291
20 *552:113 0.000384054
21 *552:109 0.0251641
22 *552:84 0.00169695
23 *552:70 0.00139144
24 *552:50 0.00159574
25 *552:30 0.00174906
26 *552:24 0.0263358
27 *552:14 0.00188534
28 *552:12 0.00206275
29 *11515:BEN[16] *11515:WLBI 0
30 *11515:BEN[16] *11515:TM 0
31 *11524:BEN[16] *11524:TM 3.08179e-05
32 *11604:A *558:129 0.000153047
33 *11604:A *631:68 7.92879e-05
34 *552:30 *631:68 1.9036e-05
35 *552:50 *631:68 0.000298228
36 *552:70 *558:129 0.000172582
37 *552:70 *631:68 0.000652967
38 *876:DIODE *552:153 2.51343e-06
39 *886:DIODE *11524:BEN[19] 0
40 *11515:CLKin *11515:BEN[17] 0.000584931
41 *11515:CLKin *552:50 6.47602e-05
42 *11515:R_WB *552:24 6.53397e-05
43 *11524:CLKin *11524:BEN[17] 0
44 *11524:CLKin *552:125 0.000212293
45 *112:10 *552:12 0.000313565
46 *112:20 *552:12 0.000544011
47 *112:20 *552:14 0.00236787
48 *125:12 *552:12 0.00107922
49 *132:10 *552:14 0.00420853
50 *132:10 *552:24 0.00170923
51 *133:12 *552:12 0.000588155
52 *134:8 *552:24 0.00122769
53 *138:10 *552:12 0.000139466
54 *142:10 *552:12 0.00132085
55 *142:10 *552:14 2.61928e-05
56 *153:20 *552:14 0.000618044
57 *153:20 *552:24 0.000304114
58 *213:18 *11515:BEN[16] 0.000260152
59 *213:27 *11515:BEN[16] 9.66977e-05
60 *228:22 *552:30 4.00349e-05
61 *228:22 *552:50 0.000596053
62 *229:34 *552:14 0.000981705
63 *229:34 *552:24 0.000954785
64 *245:20 *552:113 4.26759e-05
65 *245:20 *552:125 0.000202117
66 *246:7 *11524:BEN[17] 0
67 *247:7 *552:153 0
68 *247:11 *11524:BEN[18] 0.000674887
69 *247:11 *552:113 4.26759e-05
70 *247:11 *552:125 0.000639366
71 *247:80 *552:153 0
72 *249:19 *11524:BEN[19] 9.85396e-06
73 *250:19 *11524:BEN[20] 0
74 *254:13 *11524:BEN[18] 0.000341042
75 *254:13 *552:125 0.000121638
76 *256:19 *11524:BEN[23] 0.000662649
77 *256:19 *552:153 0.000801008
78 *256:19 *552:165 0.000689761
79 *256:19 *552:177 0.000779106
80 *256:19 *552:189 0.000777957
81 *265:63 *552:12 4.29471e-05
82 *394:60 *552:84 0.000903532
83 *427:42 *11524:BEN[18] 4.38243e-05
84 *463:36 *552:84 0.000903532
85 *463:73 *11524:BEN[23] 0.000671272
86 *463:73 *552:153 0.000796157
87 *463:73 *552:165 0.000699011
88 *463:73 *552:177 0.000788356
89 *463:73 *552:189 0.000787207
90 *467:82 *11524:BEN[23] 0.000142043
91 *467:82 *552:153 0.000179097
92 *467:82 *552:165 0.000156995
93 *467:82 *552:177 0.000130975
94 *467:82 *552:189 0.000142026
95 *476:52 *552:70 0.000525253
*RES
1 *11410:X *552:12 44.6125 
2 *552:12 *552:14 54.375 
3 *552:14 *552:24 32.4457 
4 *552:24 *552:30 4.83009 
5 *552:30 *11515:BEN[16] 19.0893 
6 *552:30 *552:50 13.5714 
7 *552:50 *11515:BEN[17] 12.4107 
8 *552:50 *552:70 23.125 
9 *552:70 *11515:BEN[18] 8.51786 
10 *552:70 *552:84 20.3571 
11 *552:84 *11515:BEN[19] 7.32143 
12 *552:84 *11604:A 31.9964 
13 *552:24 *552:109 52.0791 
14 *552:109 *552:113 3.99036 
15 *552:113 *11524:BEN[16] 7.33929 
16 *552:113 *552:125 8.32143 
17 *552:125 *11524:BEN[17] 6.03571 
18 *552:125 *11524:BEN[18] 15.8929 
19 *11524:BEN[18] *552:153 24.5357 
20 *552:153 *11524:BEN[19] 14.6786 
21 *552:153 *552:165 8.625 
22 *552:165 *11524:BEN[20] 13.4464 
23 *552:165 *552:177 9.83929 
24 *552:177 *11524:BEN[21] 13.4286 
25 *552:177 *552:189 9.83929 
26 *552:189 *11524:BEN[22] 13.25 
27 *552:189 *11524:BEN[23] 23.0714 
*END

*D_NET *553 0.00192193
*CONN
*I *11409:A I *D sky130_fd_sc_hd__dlygate4sd3_1
*I *11411:X O *D sky130_fd_sc_hd__dlygate4sd3_1
*CAP
1 *11409:A 0.000712762
2 *11411:X 0.000712762
3 *11409:A *11629:A 5.65955e-05
4 *11409:A *575:22 0
5 *11409:A *591:28 0
6 *11409:A *593:10 0
7 wbs_dat_o[2] *11409:A 0.000186669
8 *11411:A *11409:A 0.000176295
9 *11581:A *11409:A 7.6847e-05
*RES
1 *11411:X *11409:A 38.6536 
*END

*D_NET *554 0.00117712
*CONN
*I *11596:A I *D sky130_fd_sc_hd__buf_12
*I *11412:X O *D sky130_fd_sc_hd__dlygate4sd3_1
*CAP
1 *11596:A 0.000328914
2 *11412:X 0.000328914
3 *11596:A *11633:A 0.000148844
4 *11596:A *601:12 0.000219289
5 *11414:A *11596:A 0.00015116
*RES
1 *11412:X *11596:A 33.85 
*END

*D_NET *555 0.121843
*CONN
*I *11524:BEN[31] I *D CF_SRAM_1024x32
*I *11524:BEN[30] I *D CF_SRAM_1024x32
*I *11524:BEN[29] I *D CF_SRAM_1024x32
*I *11524:BEN[28] I *D CF_SRAM_1024x32
*I *11524:BEN[27] I *D CF_SRAM_1024x32
*I *11524:BEN[26] I *D CF_SRAM_1024x32
*I *11524:BEN[25] I *D CF_SRAM_1024x32
*I *11524:BEN[24] I *D CF_SRAM_1024x32
*I *11603:A I *D sky130_fd_sc_hd__clkbuf_16
*I *11515:BEN[27] I *D CF_SRAM_1024x32
*I *11515:BEN[26] I *D CF_SRAM_1024x32
*I *11515:BEN[25] I *D CF_SRAM_1024x32
*I *11515:BEN[24] I *D CF_SRAM_1024x32
*I *11413:X O *D sky130_fd_sc_hd__buf_12
*CAP
1 *11524:BEN[31] 0.000744837
2 *11524:BEN[30] 0.000531262
3 *11524:BEN[29] 0.00053062
4 *11524:BEN[28] 0.00059708
5 *11524:BEN[27] 0.000608447
6 *11524:BEN[26] 0.000522385
7 *11524:BEN[25] 0.000562065
8 *11524:BEN[24] 0.000859025
9 *11603:A 0.000856848
10 *11515:BEN[27] 0.000562604
11 *11515:BEN[26] 0.000501015
12 *11515:BEN[25] 0.000573301
13 *11515:BEN[24] 0.000389318
14 *11413:X 0
15 *555:192 6.73327e-06
16 *555:180 3.26454e-06
17 *555:173 0.00145911
18 *555:168 3.26454e-06
19 *555:161 0.000880127
20 *555:149 0.000943351
21 *555:137 0.00102043
22 *555:124 0.000921769
23 *555:112 0.00141112
24 *555:91 0.0124366
25 *555:70 0.00164388
26 *555:53 0.000899607
27 *555:41 0.00105554
28 *555:20 0.00159402
29 *555:10 0.0131494
30 *555:8 0.00477711
31 *555:6 0.00477711
32 *11515:BEN[27] *629:10 1.32056e-05
33 *11603:A *629:10 0.000381858
34 *555:20 *631:68 0.000237746
35 *924:DIODE *11524:BEN[28] 0
36 *1154:DIODE *555:20 5.33005e-05
37 *11515:DI[25] *555:41 0
38 *11524:DI[29] *11524:BEN[29] 0
39 *11524:DI[29] *555:168 0
40 *11524:DI[30] *11524:BEN[30] 0
41 *11524:DI[30] *555:180 0
42 *11524:DI[31] *11524:BEN[31] 0
43 *11524:DI[31] *555:192 0
44 *153:20 *555:8 0.00187888
45 *157:16 *555:41 0.000526469
46 *212:23 *555:8 0.00490397
47 *229:34 *555:8 0.0112995
48 *254:13 *11524:BEN[24] 0.000118506
49 *256:17 *11524:BEN[26] 2.59355e-05
50 *256:19 *555:112 0.00082348
51 *256:19 *555:124 0.000701005
52 *258:10 *11524:BEN[28] 0
53 *258:14 *11524:BEN[24] 0
54 *376:48 *555:41 0.000524754
55 *391:88 *555:41 0.000118315
56 *394:60 *555:41 0.000372228
57 *394:60 *555:53 0.000665705
58 *394:60 *555:70 0.00084028
59 *405:44 *11524:BEN[31] 0.000299961
60 *405:44 *555:124 1.78353e-05
61 *405:44 *555:137 0.000335362
62 *405:44 *555:149 0.000307873
63 *405:44 *555:161 0.00027156
64 *405:44 *555:173 0.000303777
65 *409:28 *11524:BEN[24] 0
66 *409:30 *555:20 0.000419309
67 *409:30 *555:91 0.0330683
68 *411:38 *555:20 0
69 *411:38 *555:91 0
70 *433:26 *11524:BEN[29] 0
71 *463:36 *555:41 0.000372228
72 *463:36 *555:53 0.000674816
73 *463:36 *555:70 0.00084939
74 *463:73 *11524:BEN[31] 0.000791254
75 *463:73 *555:112 0.00082348
76 *463:73 *555:124 0.000757621
77 *463:73 *555:137 0.000889392
78 *463:73 *555:149 0.000795741
79 *463:73 *555:161 0.000699011
80 *463:73 *555:173 0.000794031
81 *465:14 *11524:BEN[31] 0
82 *467:82 *11524:BEN[31] 0.000154703
83 *467:82 *555:112 0.000184623
84 *467:82 *555:149 0.000169671
85 *467:82 *555:161 0.000156995
86 *467:82 *555:173 0.000164129
87 *476:64 *555:20 0.000235694
*RES
1 *11413:X *555:6 13.8 
2 *555:6 *555:8 143.562 
3 *555:8 *555:10 3.41 
4 *555:10 *555:20 18.7217 
5 *555:20 *11515:BEN[24] 5.46429 
6 *555:20 *555:41 26.4464 
7 *555:41 *11515:BEN[25] 12.9286 
8 *555:41 *555:53 8.625 
9 *555:53 *11515:BEN[26] 11.6071 
10 *555:53 *555:70 15.6786 
11 *555:70 *11515:BEN[27] 8.39286 
12 *555:70 *11603:A 21.7821 
13 *555:10 *555:91 52.2233 
14 *555:91 *11524:BEN[24] 11.8654 
15 *11524:BEN[24] *555:112 23.3929 
16 *555:112 *11524:BEN[25] 13.6607 
17 *555:112 *555:124 9.53571 
18 *555:124 *11524:BEN[26] 13.25 
19 *555:124 *555:137 11.0536 
20 *555:137 *11524:BEN[27] 14.5357 
21 *555:137 *555:149 9.83929 
22 *555:149 *11524:BEN[28] 14.5179 
23 *555:149 *555:161 8.625 
24 *555:161 *11524:BEN[29] 13.25 
25 *11524:BEN[29] *555:168 0.175 
26 *555:161 *555:173 9.83929 
27 *555:173 *11524:BEN[30] 13.25 
28 *11524:BEN[30] *555:180 0.145833 
29 *555:173 *11524:BEN[31] 23.0893 
30 *11524:BEN[31] *555:192 0.125 
*END

*D_NET *556 0.000287624
*CONN
*I *11412:A I *D sky130_fd_sc_hd__dlygate4sd3_1
*I *11414:X O *D sky130_fd_sc_hd__dlygate4sd3_1
*CAP
1 *11412:A 7.33037e-05
2 *11414:X 7.33037e-05
3 *11412:A *11633:A 1.87955e-05
4 *11414:A *11412:A 0.000122221
*RES
1 *11414:X *11412:A 29.2429 
*END

*D_NET *557 0.000597742
*CONN
*I *11593:A I *D sky130_fd_sc_hd__clkbuf_16
*I *11415:X O *D sky130_fd_sc_hd__dlygate4sd3_1
*CAP
1 *11593:A 0.000160248
2 *11415:X 0.000160248
3 *11593:A *11415:A 5.52302e-05
4 *11593:A *593:12 5.47047e-05
5 *11418:A *11593:A 0.000138399
6 *11512:A *11593:A 2.89114e-05
*RES
1 *11415:X *11593:A 30.6179 
*END

*D_NET *558 0.259379
*CONN
*I *11524:BEN[8] I *D CF_SRAM_1024x32
*I *11524:BEN[9] I *D CF_SRAM_1024x32
*I *11524:BEN[10] I *D CF_SRAM_1024x32
*I *11524:BEN[11] I *D CF_SRAM_1024x32
*I *11524:BEN[12] I *D CF_SRAM_1024x32
*I *11524:BEN[13] I *D CF_SRAM_1024x32
*I *11524:BEN[14] I *D CF_SRAM_1024x32
*I *11524:BEN[15] I *D CF_SRAM_1024x32
*I *11533:BEN[8] I *D CF_SRAM_1024x32
*I *11533:BEN[9] I *D CF_SRAM_1024x32
*I *11533:BEN[10] I *D CF_SRAM_1024x32
*I *11533:BEN[11] I *D CF_SRAM_1024x32
*I *11533:BEN[12] I *D CF_SRAM_1024x32
*I *11533:BEN[13] I *D CF_SRAM_1024x32
*I *11533:BEN[14] I *D CF_SRAM_1024x32
*I *11542:BEN[8] I *D CF_SRAM_1024x32
*I *11542:BEN[9] I *D CF_SRAM_1024x32
*I *11542:BEN[10] I *D CF_SRAM_1024x32
*I *11542:BEN[11] I *D CF_SRAM_1024x32
*I *11542:BEN[12] I *D CF_SRAM_1024x32
*I *11542:BEN[13] I *D CF_SRAM_1024x32
*I *11542:BEN[14] I *D CF_SRAM_1024x32
*I *11542:BEN[15] I *D CF_SRAM_1024x32
*I *11533:BEN[15] I *D CF_SRAM_1024x32
*I *11515:BEN[8] I *D CF_SRAM_1024x32
*I *11515:BEN[9] I *D CF_SRAM_1024x32
*I *11515:BEN[10] I *D CF_SRAM_1024x32
*I *11515:BEN[11] I *D CF_SRAM_1024x32
*I *11515:BEN[12] I *D CF_SRAM_1024x32
*I *11515:BEN[13] I *D CF_SRAM_1024x32
*I *11515:BEN[14] I *D CF_SRAM_1024x32
*I *11515:BEN[15] I *D CF_SRAM_1024x32
*I *11416:X O *D sky130_fd_sc_hd__clkbuf_16
*CAP
1 *11524:BEN[8] 0.000853579
2 *11524:BEN[9] 0.000651155
3 *11524:BEN[10] 0.000609292
4 *11524:BEN[11] 0.000619145
5 *11524:BEN[12] 0.000628997
6 *11524:BEN[13] 0.000615955
7 *11524:BEN[14] 0.000669713
8 *11524:BEN[15] 0.000157542
9 *11533:BEN[8] 0.000707061
10 *11533:BEN[9] 0.000532814
11 *11533:BEN[10] 0.000482821
12 *11533:BEN[11] 0.000564923
13 *11533:BEN[12] 0.000573767
14 *11533:BEN[13] 0.000587458
15 *11533:BEN[14] 0.000903195
16 *11542:BEN[8] 0.000832853
17 *11542:BEN[9] 0.000611088
18 *11542:BEN[10] 0.000568183
19 *11542:BEN[11] 0.00056725
20 *11542:BEN[12] 0.000570011
21 *11542:BEN[13] 0.000641513
22 *11542:BEN[14] 0.000624491
23 *11542:BEN[15] 0.000621798
24 *11533:BEN[15] 0.000906774
25 *11515:BEN[8] 0.000572285
26 *11515:BEN[9] 0.000592968
27 *11515:BEN[10] 0.000593901
28 *11515:BEN[11] 0.000535139
29 *11515:BEN[12] 0.000581776
30 *11515:BEN[13] 0.000520666
31 *11515:BEN[14] 0.000576739
32 *11515:BEN[15] 0.000507933
33 *11416:X 0.000752485
34 *558:446 7.43298e-06
35 *558:439 0.00166415
36 *558:434 0
37 *558:427 0.000913188
38 *558:422 0
39 *558:415 0.000893223
40 *558:410 0
41 *558:403 0.00093501
42 *558:393 0.000939332
43 *558:381 0.0015221
44 *558:367 0.00327273
45 *558:359 0.0142028
46 *558:325 0.0014136
47 *558:320 7.92817e-06
48 *558:313 0.000830469
49 *558:301 0.000933755
50 *558:289 0.000943952
51 *558:277 0.00125366
52 *558:268 0
53 *558:257 0.00152327
54 *558:233 0.00163266
55 *558:228 7.92817e-06
56 *558:221 0.000928041
57 *558:216 6.99545e-06
58 *558:209 0.000960324
59 *558:204 0
60 *558:197 0.000956523
61 *558:185 0.000989555
62 *558:173 0.000952113
63 *558:161 0.000766886
64 *558:159 0.0196479
65 *558:157 0.0196479
66 *558:155 0.000164566
67 *558:141 0.00186169
68 *558:139 0.00131964
69 *558:129 0.00620065
70 *558:127 0.00687075
71 *558:123 0.00153932
72 *558:107 0.00126973
73 *558:93 0.00103787
74 *558:81 0.00106133
75 *558:69 0.00099681
76 *558:57 0.000999917
77 *558:47 0.000970616
78 *558:35 0.00111522
79 *558:23 0.0121007
80 *558:10 0.00128757
81 *11524:BEN[8] *576:8 0.000692755
82 *558:10 *590:14 7.31893e-05
83 *558:35 *590:14 6.22028e-05
84 *558:47 *590:14 0.000205696
85 *558:123 *588:22 0.000772752
86 *558:127 *631:12 0.000351904
87 *558:129 *629:58 0.000771215
88 *558:129 *629:72 0.000903483
89 *558:129 *630:54 0.000505136
90 *558:129 *630:66 0.00183074
91 *558:129 *631:66 0.00133687
92 *558:129 *631:68 0.00116466
93 *558:141 *629:74 0.00355544
94 *558:141 *631:68 0.000121894
95 *558:155 *629:74 0.000135709
96 *558:257 *629:74 0.00056583
97 *558:277 *629:74 0.000697657
98 *558:381 *574:16 0.000427417
99 *558:381 *576:8 0.000798586
100 *558:393 *576:8 0.000685362
101 *558:403 *576:8 0.000784937
102 *558:415 *576:8 0.000798586
103 *558:427 *576:8 0.000798579
104 *558:439 *576:8 0.000786048
105 *738:DIODE *558:129 0.000116481
106 *997:DIODE *558:277 0
107 *1192:DIODE *11542:BEN[8] 0
108 *11238:S *558:129 0.000371533
109 *11241:S *558:129 0.000144512
110 *11246:S *558:129 0.000179656
111 *11463:A *558:381 0.000123067
112 *11463:A *558:415 0.000123067
113 *11463:A *558:427 0.000123067
114 *11515:AD[4] *558:129 2.04825e-05
115 *11515:AD[5] *558:129 0.000158707
116 *11515:AD[9] *558:129 5.85961e-05
117 *11515:DI[12] *558:69 0.000164527
118 *11515:DI[9] *11515:BEN[9] 0
119 *11515:DI[15] *11515:BEN[15] 0
120 *11515:DI[15] *558:35 6.05161e-06
121 *11515:DI[13] *558:57 4.41767e-05
122 *11515:DI[10] *11515:BEN[10] 0
123 *11515:DI[24] *558:129 4.34543e-05
124 *11515:DI[26] *558:129 4.29471e-05
125 *11524:DI[14] *11524:BEN[14] 0
126 *11524:DI[11] *11524:BEN[11] 0
127 *11524:DI[15] *11524:BEN[15] 0
128 *11524:DI[15] *558:359 0.00294095
129 *11524:DI[15] *558:367 0.000903273
130 *11524:DI[13] *11524:BEN[13] 0
131 *11524:vpwrpc *558:367 0.001039
132 *11533:DI[14] *11533:BEN[14] 0
133 *11542:DI[12] *11542:BEN[12] 0
134 *11542:DI[14] *11542:BEN[14] 7.90353e-05
135 *11542:DI[11] *11542:BEN[11] 0
136 *11542:DI[9] *11542:BEN[9] 0
137 *11542:DI[15] *11542:BEN[15] 0
138 *11542:DI[13] *11542:BEN[13] 7.17435e-05
139 *11542:vpwrpc *558:159 0.00228555
140 *11604:A *558:129 0.000153047
141 *141:14 *558:141 0.000165412
142 *141:24 *558:129 0.000180928
143 *141:24 *558:141 0.000355312
144 *141:38 *558:129 0.000431827
145 *147:28 *11515:BEN[14] 1.32091e-05
146 *147:28 *558:10 0.00126143
147 *147:28 *558:23 9.67412e-05
148 *147:28 *558:35 0.000276409
149 *148:38 *558:10 0.00185453
150 *201:167 *558:129 0
151 *208:11 *558:47 0.000179738
152 *208:11 *558:57 0.000327173
153 *208:11 *558:69 0.000245035
154 *210:11 *558:10 0.00142065
155 *210:11 *558:23 0.000102189
156 *210:11 *558:35 0.000618372
157 *210:11 *558:47 0.000531131
158 *211:13 *11515:BEN[14] 0
159 *228:20 *558:129 0.000200413
160 *232:21 *558:127 0.00153021
161 *232:23 *558:69 7.84873e-05
162 *232:23 *558:81 7.00326e-05
163 *234:17 *558:123 1.32921e-05
164 *234:17 *558:127 0.000301513
165 *238:7 *11524:BEN[9] 0
166 *247:21 *558:367 6.78796e-05
167 *254:23 *558:367 6.87181e-05
168 *268:23 *11524:BEN[8] 1.57724e-05
169 *268:74 *11524:BEN[8] 0
170 *272:10 *11533:BEN[11] 0
171 *273:12 *11533:BEN[12] 0
172 *273:14 *558:141 0.002805
173 *273:14 *558:155 0.000142871
174 *273:14 *558:257 0.000573649
175 *273:14 *558:277 0.000706907
176 *274:10 *11533:BEN[13] 0
177 *300:11 *11533:BEN[8] 0
178 *306:14 *11542:BEN[15] 0.000105754
179 *306:14 *558:173 0.000408157
180 *306:14 *558:185 0.000176823
181 *332:7 *11542:BEN[8] 0
182 *353:10 *558:47 0.000453122
183 *353:10 *558:57 0.000668151
184 *353:10 *558:69 0.000845825
185 *353:10 *558:81 0.000918788
186 *353:10 *558:93 0.000765526
187 *353:10 *558:107 0.000714508
188 *365:28 *11515:BEN[9] 0
189 *365:68 *11524:BEN[9] 0
190 *367:28 *11515:BEN[8] 0
191 *367:28 *558:123 0
192 *374:24 *558:359 0.0255475
193 *374:83 *558:159 0
194 *378:81 *558:127 1.88933e-05
195 *378:89 *558:127 0.000627212
196 *378:89 *558:129 0
197 *383:48 *558:123 7.05143e-06
198 *383:48 *558:127 1.5942e-05
199 *383:54 *558:123 7.39203e-06
200 *383:54 *558:127 0.00215363
201 *383:62 *558:127 8.05808e-05
202 *383:62 *558:129 0.000919769
203 *387:50 *558:123 0.000746143
204 *389:24 *558:81 8.8089e-05
205 *389:36 *558:81 0.000294178
206 *389:36 *558:93 0.00040147
207 *389:36 *558:107 0.000371626
208 *391:68 *558:129 5.76465e-05
209 *391:86 *558:129 0.000607377
210 *394:54 *558:129 0.000292176
211 *394:68 *11533:BEN[8] 0.000644056
212 *394:68 *558:289 0.000777014
213 *394:68 *558:301 0.000765547
214 *394:68 *558:313 0.000872433
215 *394:68 *558:325 0.000796956
216 *396:104 *558:129 0.0128694
217 *405:44 *11542:BEN[8] 0.000227763
218 *405:44 *558:185 0.000179617
219 *405:44 *558:197 0.000254534
220 *405:44 *558:209 0.00028731
221 *405:44 *558:221 0.00031171
222 *405:44 *558:233 0.000331785
223 *461:36 *558:129 0.000412031
224 *463:36 *11533:BEN[8] 0.000653236
225 *463:36 *558:289 0.000777014
226 *463:36 *558:301 0.000774657
227 *463:36 *558:313 0.000881543
228 *463:36 *558:325 0.000806066
229 *463:73 *11542:BEN[15] 0.000193189
230 *463:73 *11542:BEN[8] 0.000636138
231 *463:73 *558:173 0.000738429
232 *463:73 *558:185 0.000796453
233 *463:73 *558:197 0.000670282
234 *463:73 *558:209 0.00078499
235 *463:73 *558:221 0.000798586
236 *463:73 *558:233 0.000848374
237 *467:82 *11542:BEN[8] 0.000103347
238 *467:82 *558:173 0.00015862
239 *467:82 *558:185 0.000164129
240 *467:82 *558:197 0.000130991
241 *467:82 *558:209 0.000108889
242 *467:82 *558:221 0.000179097
243 *467:82 *558:233 0.000190149
244 *474:78 *558:129 0.000993908
245 *476:52 *558:129 0.0030815
246 *483:44 *558:129 0.0018606
247 *483:44 *558:139 0.000262992
248 *483:44 *558:141 0.000374105
249 *483:44 *558:277 0.00016252
250 *515:16 *558:10 0.00185618
251 *526:22 *11524:BEN[14] 0.000135028
252 *526:24 *11524:BEN[8] 0.000683504
253 *526:24 *558:381 3.17148e-05
254 *526:24 *558:393 0.000676111
255 *526:24 *558:403 0.000775687
256 *526:24 *558:415 0.000789336
257 *526:24 *558:427 0.000789329
258 *526:24 *558:439 0.000776797
259 *552:70 *558:129 0.000172582
*RES
1 *11416:X *558:10 49.925 
2 *558:10 *11515:BEN[15] 11.6071 
3 *558:10 *558:23 1.33929 
4 *558:23 *558:35 17.6071 
5 *558:35 *11515:BEN[14] 12.8661 
6 *558:35 *558:47 11.0536 
7 *558:47 *11515:BEN[13] 11.5446 
8 *558:47 *558:57 8.625 
9 *558:57 *11515:BEN[12] 12.9018 
10 *558:57 *558:69 10.75 
11 *558:69 *11515:BEN[11] 12.0089 
12 *558:69 *558:81 11.6607 
13 *558:81 *11515:BEN[10] 13.1339 
14 *558:81 *558:93 9.83929 
15 *558:93 *11515:BEN[9] 13.1161 
16 *558:93 *558:107 13.7321 
17 *558:107 *11515:BEN[8] 7.99107 
18 *558:107 *558:123 18.4375 
19 *558:123 *558:127 40.7321 
20 *558:127 *558:129 228.214 
21 *558:129 *558:139 7.35267 
22 *558:139 *558:141 45.2054 
23 *558:141 *11533:BEN[15] 16.5089 
24 *558:141 *558:155 1.79464 
25 *558:155 *558:157 3.41 
26 *558:157 *558:159 54.4573 
27 *558:159 *558:161 3.41 
28 *558:161 *11542:BEN[15] 15.5893 
29 *558:161 *558:173 9.08036 
30 *558:173 *11542:BEN[14] 14.8125 
31 *558:173 *558:185 9.83929 
32 *558:185 *11542:BEN[13] 14.7946 
33 *558:185 *558:197 8.32143 
34 *558:197 *11542:BEN[12] 13.25 
35 *11542:BEN[12] *558:204 0.134615 
36 *558:197 *558:209 9.83929 
37 *558:209 *11542:BEN[11] 13.25 
38 *11542:BEN[11] *558:216 0.133929 
39 *558:209 *558:221 9.83929 
40 *558:221 *11542:BEN[10] 13.25 
41 *11542:BEN[10] *558:228 0.151786 
42 *558:221 *558:233 10.4464 
43 *558:233 *11542:BEN[9] 14.2232 
44 *558:233 *11542:BEN[8] 22.6696 
45 *558:155 *558:257 7.25893 
46 *558:257 *11533:BEN[14] 16.2679 
47 *11533:BEN[14] *558:268 0.194444 
48 *558:257 *558:277 17.6607 
49 *558:277 *11533:BEN[13] 8.41964 
50 *558:277 *558:289 14.3393 
51 *558:289 *11533:BEN[12] 12.9375 
52 *558:289 *558:301 9.83929 
53 *558:301 *11533:BEN[11] 12.9554 
54 *558:301 *558:313 11.0536 
55 *558:313 *11533:BEN[10] 11.6071 
56 *11533:BEN[10] *558:320 0.151786 
57 *558:313 *558:325 10.1429 
58 *558:325 *11533:BEN[9] 13.1339 
59 *558:325 *11533:BEN[8] 21.3304 
60 *558:23 *558:359 48.9765 
61 *558:359 *558:367 17.3088 
62 *558:367 *11524:BEN[15] 2.66964 
63 *558:367 *558:381 21.8571 
64 *558:381 *11524:BEN[14] 14.5446 
65 *558:381 *558:393 8.625 
66 *558:393 *11524:BEN[13] 13.1875 
67 *558:393 *558:403 9.83929 
68 *558:403 *11524:BEN[12] 13.25 
69 *11524:BEN[12] *558:410 0.194444 
70 *558:403 *558:415 9.83929 
71 *558:415 *11524:BEN[11] 13.25 
72 *11524:BEN[11] *558:422 0.159091 
73 *558:415 *558:427 9.83929 
74 *558:427 *11524:BEN[10] 13.25 
75 *11524:BEN[10] *558:434 0.134615 
76 *558:427 *558:439 9.83929 
77 *558:439 *11524:BEN[9] 13.25 
78 *11524:BEN[9] *558:446 0.133929 
79 *558:439 *11524:BEN[8] 23.2411 
*END

*D_NET *559 0.0289809
*CONN
*I *11505:A I *D sky130_fd_sc_hd__buf_12
*I *11573:X O *D sky130_fd_sc_hd__buf_12
*CAP
1 *11505:A 8.77254e-05
2 *11573:X 0.000712659
3 *559:12 0.00893842
4 *559:10 0.00956335
5 *559:10 *11609:A 0
6 *559:10 *582:22 0
7 *559:10 *589:20 0.0001982
8 *559:12 *11493:A 0.000206221
9 *559:12 *575:44 0.00597185
10 *559:12 *583:24 1.35057e-05
11 *744:DIODE *559:12 0.000180777
12 *871:DIODE *559:12 0.00048188
13 *872:DIODE *559:12 0.000188586
14 *891:DIODE *559:12 9.60939e-05
15 *1077:DIODE *559:12 0.000142856
16 *11332:A *559:12 9.83736e-05
17 *11397:A *559:10 0.000159845
18 *11398:A *559:10 8.49352e-05
19 *11481:A *559:10 0.000185911
20 *168:43 *559:12 0.000455659
21 *174:108 *11505:A 5.5782e-05
22 *247:43 *559:12 0.000918417
23 *247:59 *559:12 5.49489e-05
24 *247:61 *559:12 0.000184945
25 *461:14 *11505:A 0
*RES
1 *11573:X *559:10 31.4786 
2 *559:10 *559:12 119.232 
3 *559:12 *11505:A 20.2464 
*END

*D_NET *560 0.0464236
*CONN
*I *11452:A I *D sky130_fd_sc_hd__buf_12
*I *11574:X O *D sky130_fd_sc_hd__buf_12
*CAP
1 *11452:A 0.000327162
2 *11574:X 0.000271861
3 *560:16 0.00266514
4 *560:14 0.00233798
5 *560:12 0.00132258
6 *560:10 0.00159444
7 *560:10 *11623:A 0.00052989
8 *560:12 *569:12 0.0067074
9 *560:12 *614:18 0.0011041
10 *560:16 *573:16 0.00190342
11 *11309:A0 *560:16 3.09983e-05
12 *11351:A *560:10 0.000152658
13 *184:56 *560:16 0.000277562
14 *186:12 *560:16 0.00017206
15 *192:16 *560:16 0.000718216
16 *356:10 *560:16 0.00451718
17 *526:16 *560:16 0.00295733
18 *537:12 *560:12 0.00866971
19 *537:16 *560:16 0.0101639
*RES
1 *11574:X *560:10 25.4071 
2 *560:10 *560:12 82.6786 
3 *560:12 *560:14 4.5 
4 *560:14 *560:16 136.125 
5 *560:16 *11452:A 18.0321 
*END

*D_NET *561 0.00149134
*CONN
*I *11415:A I *D sky130_fd_sc_hd__dlygate4sd3_1
*I *11418:X O *D sky130_fd_sc_hd__dlygate4sd3_1
*CAP
1 *11415:A 0.000198064
2 *11418:X 0.000198064
3 *11415:A *592:20 0.000639685
4 *11418:A *11415:A 0.00031194
5 *11512:A *11415:A 8.8358e-05
6 *11593:A *11415:A 5.52302e-05
*RES
1 *11418:X *11415:A 25.3143 
*END

*D_NET *562 0.00021825
*CONN
*I *11584:A I *D sky130_fd_sc_hd__clkbuf_2
*I *11419:X O *D sky130_fd_sc_hd__dlygate4sd3_1
*CAP
1 *11584:A 3.37911e-05
2 *11419:X 3.37911e-05
3 *11584:A *598:14 7.24732e-05
4 *360:14 *11584:A 7.8195e-05
*RES
1 *11419:X *11584:A 19.9571 
*END

*D_NET *563 0.0245784
*CONN
*I *11202:A I *D sky130_fd_sc_hd__and3_2
*I *11204:A_N I *D sky130_fd_sc_hd__and4b_2
*I *11207:C I *D sky130_fd_sc_hd__and3b_1
*I *11210:A I *D sky130_fd_sc_hd__or2_1
*I *11420:X O *D sky130_fd_sc_hd__dlygate4sd3_1
*CAP
1 *11202:A 0
2 *11204:A_N 0.00107721
3 *11207:C 0
4 *11210:A 0.000445875
5 *11420:X 0
6 *563:57 0.000907962
7 *563:38 0.00269963
8 *563:36 0.00163393
9 *563:8 0.000551756
10 *563:6 0.00102536
11 *11204:A_N *11204:B 4.48835e-05
12 *11210:A *11210:B 0.000183726
13 *11210:A *567:31 0
14 *11210:A *582:14 4.5632e-05
15 *563:36 *589:22 0.00343954
16 *563:36 *602:14 0.000287401
17 *563:38 *567:43 0.00217078
18 *563:38 *597:12 0
19 *701:DIODE *11204:A_N 0.000221634
20 *3:25 *563:38 0.000294122
21 *114:10 *11210:A 4.63699e-05
22 *114:10 *563:8 5.37741e-06
23 *164:10 *563:38 8.22896e-05
24 *199:53 *11210:A 4.42631e-05
25 *199:82 *563:38 4.7024e-05
26 *199:82 *563:57 0.00222699
27 *212:35 *11204:A_N 0.000763005
28 *215:28 *563:36 0.00144761
29 *224:36 *563:38 0.00202187
30 *224:36 *563:57 0.00285333
31 *239:69 *563:57 1.08359e-05
*RES
1 *11420:X *563:6 13.8 
2 *563:6 *563:8 1.64286 
3 *563:8 *11210:A 20.5857 
4 *563:8 *11207:C 13.8 
5 *563:6 *563:36 46.25 
6 *563:36 *563:38 30.7857 
7 *563:38 *11204:A_N 27.8179 
8 *563:38 *563:57 42.1071 
9 *563:57 *11202:A 9.3 
*END

*D_NET *564 0.0165959
*CONN
*I *11203:A I *D sky130_fd_sc_hd__clkbuf_8
*I *11421:X O *D sky130_fd_sc_hd__dlygate4sd3_1
*CAP
1 *11203:A 1.47133e-05
2 *11421:X 4.38501e-05
3 *564:10 0.00335435
4 *564:8 0.00338349
5 *3:25 *564:10 0.000914891
6 *111:18 *564:8 1.83053e-05
7 *120:10 *564:10 0.00754331
8 *196:26 *564:10 0.000182101
9 *200:66 *564:10 0
10 *204:8 *11203:A 2.84109e-05
11 *220:20 *11203:A 5.49544e-05
12 *245:26 *564:10 0.00105749
*RES
1 *11421:X *564:8 14.3357 
2 *564:8 *564:10 96.0536 
3 *564:10 *11203:A 14.3357 
*END

*D_NET *565 0.0653665
*CONN
*I *11542:EN I *D CF_SRAM_1024x32
*I *11422:X O *D sky130_fd_sc_hd__dlygate4sd3_1
*CAP
1 *11542:EN 0.000414168
2 *11422:X 0
3 *565:10 0.00452959
4 *565:8 0.00411542
5 *565:6 0.00990938
6 *565:4 0.00990938
7 *11542:R_WB *11542:EN 0
8 *307:13 *565:10 0
9 *307:15 *565:6 0.0149152
10 *311:11 *565:10 0
11 *332:11 *565:10 0
12 *359:10 *565:10 0.0123563
13 *361:10 *565:10 0.000560795
14 *398:54 *565:10 0.00865621
*RES
1 *11422:X *565:4 9.3 
2 *565:4 *565:6 145.107 
3 *565:6 *565:8 4.5 
4 *565:8 *565:10 194.411 
5 *565:10 *11542:EN 11.5134 
*END

*D_NET *566 0.000194012
*CONN
*I *11595:A I *D sky130_fd_sc_hd__clkbuf_2
*I *11423:X O *D sky130_fd_sc_hd__dlygate4sd3_1
*CAP
1 *11595:A 7.01242e-05
2 *11423:X 7.01242e-05
3 *11475:A *11595:A 2.80015e-05
4 *11480:A *11595:A 2.57618e-05
*RES
1 *11423:X *11595:A 28.9393 
*END

*D_NET *567 0.0234274
*CONN
*I *11207:A_N I *D sky130_fd_sc_hd__and3b_1
*I *11204:B I *D sky130_fd_sc_hd__and4b_2
*I *11210:B I *D sky130_fd_sc_hd__or2_1
*I *11424:X O *D sky130_fd_sc_hd__dlygate4sd3_1
*CAP
1 *11207:A_N 0
2 *11204:B 0.00109135
3 *11210:B 0.000115522
4 *11424:X 0.00191444
5 *567:43 0.00219199
6 *567:35 0.00161215
7 *567:31 0.000680756
8 *567:18 0.000384539
9 *567:16 0.00201422
10 *11204:B *602:12 9.41642e-05
11 *11210:B *582:14 0.000353619
12 *567:35 *579:12 0.00328874
13 *567:35 *633:12 0.00329065
14 *567:43 *597:12 0
15 *567:43 *603:10 0.000567172
16 *701:DIODE *11204:B 2.55315e-05
17 *11201:A *567:43 2.49484e-05
18 *11204:A_N *11204:B 4.48835e-05
19 *11210:A *11210:B 0.000183726
20 *11210:A *567:31 0
21 *11272:A2 *11204:B 5.33005e-05
22 *11272:B1 *11204:B 2.57194e-05
23 *11272:B2 *11204:B 4.74336e-05
24 *11284:A1 *567:16 0.000300815
25 *11284:B1 *567:16 4.02462e-05
26 *11284:C1 *567:16 0.000211599
27 *3:25 *567:43 0.000415388
28 *110:18 *567:43 0.000109884
29 *112:8 *11204:B 5.39629e-06
30 *122:10 *567:43 0.000334351
31 *122:16 *567:31 0
32 *122:52 *567:16 0
33 *148:16 *567:16 0.000747674
34 *199:53 *567:31 1.41642e-05
35 *199:70 *567:43 0.000328553
36 *199:82 *567:43 0.0002623
37 *212:35 *11204:B 0.00010883
38 *215:32 *567:16 0
39 *338:26 *567:16 0.000226068
40 *404:18 *567:16 0.000146474
41 *563:38 *567:43 0.00217078
*RES
1 *11424:X *567:16 49.8357 
2 *567:16 *567:18 1.33929 
3 *567:18 *11210:B 17.2107 
4 *567:18 *567:31 7.05357 
5 *567:31 *567:35 35.8393 
6 *567:35 *567:43 41.4107 
7 *567:43 *11204:B 21.7464 
8 *567:31 *11207:A_N 9.3 
*END

*D_NET *568 0.000330917
*CONN
*I *11598:A I *D sky130_fd_sc_hd__buf_4
*I *11425:X O *D sky130_fd_sc_hd__dlygate4sd3_1
*CAP
1 *11598:A 0.000165459
2 *11425:X 0.000165459
*RES
1 *11425:X *11598:A 30.0821 
*END

*D_NET *569 0.041433
*CONN
*I *11454:A I *D sky130_fd_sc_hd__buf_12
*I *11575:X O *D sky130_fd_sc_hd__buf_12
*CAP
1 *11454:A 0
2 *11575:X 0.000611701
3 *569:30 0.001328
4 *569:16 0.00385449
5 *569:14 0.00252649
6 *569:12 0.00239521
7 *569:10 0.00300692
8 *569:12 *614:18 0.00207713
9 *569:16 *572:24 0.00661014
10 *569:30 *572:24 0.000442667
11 *985:DIODE *569:16 7.29452e-05
12 *986:DIODE *569:16 3.48235e-05
13 *11309:S *569:30 0.000198494
14 *11318:A0 *569:16 0.000282469
15 *11368:A *569:10 0
16 *11455:A *569:10 0
17 *11463:A *569:16 0.00129573
18 *11463:A *569:30 2.11419e-05
19 *11467:A *569:30 8.85369e-05
20 *168:114 *569:16 0
21 *168:114 *569:30 0.000464114
22 *193:8 *569:16 0.00567993
23 *266:83 *569:30 0.000125922
24 *418:18 *569:30 0.00029513
25 *422:16 *569:30 0.00259263
26 *493:16 *569:16 0.000721029
27 *560:12 *569:12 0.0067074
*RES
1 *11575:X *569:10 28.1393 
2 *569:10 *569:12 67.8929 
3 *569:12 *569:14 4.5 
4 *569:14 *569:16 101.062 
5 *569:16 *569:30 46.5089 
6 *569:30 *11454:A 9.3 
*END

*D_NET *570 0.0399242
*CONN
*I *11456:A I *D sky130_fd_sc_hd__buf_12
*I *11576:X O *D sky130_fd_sc_hd__buf_12
*CAP
1 *11456:A 0.000479559
2 *11576:X 0.000865715
3 *570:26 0.00163019
4 *570:24 0.00122367
5 *570:18 0.00175437
6 *570:16 0.00168133
7 *570:14 0.00459659
8 *570:12 0.0054623
9 *570:12 *617:16 7.40432e-05
10 *11312:A0 *570:26 0.00123056
11 *11368:A *570:12 0.000142434
12 *11576:A *570:12 4.94931e-05
13 *184:62 *570:26 0.001347
14 *189:10 *570:26 0.0024347
15 *194:18 *570:26 0.000785388
16 *194:32 *570:26 1.76719e-05
17 *253:29 *570:14 0.00069735
18 *258:22 *570:18 0.00608873
19 *258:22 *570:26 4.37659e-05
20 *355:10 *570:26 0.000102262
21 *355:20 *570:26 0.000564153
22 *365:78 *570:24 0.000135028
23 *385:38 *11456:A 0
24 *548:20 *570:18 0.00646881
25 *548:32 *570:26 0.00204905
26 *549:175 *11456:A 0
*RES
1 *11576:X *570:12 32.8357 
2 *570:12 *570:14 51.4643 
3 *570:14 *570:16 4.5 
4 *570:16 *570:18 82.0893 
5 *570:18 *570:24 10.3571 
6 *570:24 *570:26 58.1071 
7 *570:26 *11456:A 20.4964 
*END

*D_NET *571 0.037008
*CONN
*I *11458:A I *D sky130_fd_sc_hd__buf_12
*I *11577:X O *D sky130_fd_sc_hd__buf_12
*CAP
1 *11458:A 0.000462261
2 *11577:X 0.00114019
3 *571:34 0.00154363
4 *571:26 0.00130679
5 *571:16 0.00233104
6 *571:14 0.00396325
7 *571:10 0.00299782
8 *571:10 *11626:A 0.000330619
9 *939:DIODE *11458:A 0
10 *11371:A *571:10 0
11 *11524:BEN[2] *11458:A 0.0001899
12 *11524:DI[3] *571:34 0
13 *11577:A *571:10 0
14 *115:54 *571:10 0.000270856
15 *115:65 *571:10 7.0098e-05
16 *184:56 *571:26 1.21258e-05
17 *184:62 *571:16 0.00170399
18 *187:22 *571:26 6.05161e-06
19 *187:22 *571:34 0.00133677
20 *187:38 *571:16 0.00247427
21 *194:18 *571:34 9.20929e-06
22 *194:32 *571:34 0.0009584
23 *195:10 *571:16 0.00672347
24 *247:15 *571:34 0
25 *249:29 *571:14 0.000706795
26 *258:14 *571:34 0.00081817
27 *258:22 *571:26 0.000188756
28 *258:22 *571:34 3.40246e-05
29 *355:20 *571:26 1.24368e-05
30 *355:34 *571:16 0.000333532
31 *504:14 *571:14 0.00422941
32 *537:16 *571:16 0.000178555
33 *548:20 *571:26 0.00012797
34 *548:32 *571:26 1.22751e-05
35 *549:115 *571:26 2.72712e-05
36 *549:115 *571:34 0.000498505
37 *549:127 *571:34 0.0007817
38 *549:143 *571:34 0.000815871
39 *549:157 *571:34 0.000346072
40 *549:175 *11458:A 6.595e-05
*RES
1 *11577:X *571:10 39.675 
2 *571:10 *571:14 44.4643 
3 *571:14 *571:16 92.1071 
4 *571:16 *571:26 14.1161 
5 *571:26 *571:34 49.7589 
6 *571:34 *11458:A 17.2286 
*END

*D_NET *572 0.0397714
*CONN
*I *11461:A I *D sky130_fd_sc_hd__buf_12
*I *11578:X O *D sky130_fd_sc_hd__buf_12
*CAP
1 *11461:A 3.72704e-05
2 *11578:X 0.00147803
3 *572:24 0.00300043
4 *572:22 0.00296316
5 *572:20 0.00226513
6 *572:14 0.00374316
7 *572:20 *574:10 0
8 *572:24 *576:8 5.90443e-06
9 wbs_dat_o[27] *572:14 4.82859e-05
10 wbs_dat_o[29] *572:20 0
11 *11399:A *572:20 0.000105729
12 *11400:A *572:20 0
13 *11463:A *572:24 0.00123229
14 *115:67 *572:20 0.00145617
15 *253:19 *572:20 0.00010283
16 *398:10 *572:24 0.0030172
17 *418:30 *572:24 0.000541341
18 *422:16 *572:24 0.000185446
19 *427:14 *572:24 0.00231314
20 *427:16 *572:24 1.43349e-05
21 *482:14 *572:14 0.000333271
22 *493:16 *572:24 0.00743573
23 *504:18 *572:24 0.000207024
24 *548:16 *572:14 0.00223277
25 *569:16 *572:24 0.00661014
26 *569:30 *572:24 0.000442667
*RES
1 *11578:X *572:14 45.2107 
2 *572:14 *572:20 47.25 
3 *572:20 *572:22 4.5 
4 *572:22 *572:24 138.25 
5 *572:24 *11461:A 14.3357 
*END

*D_NET *573 0.0345153
*CONN
*I *11465:A I *D sky130_fd_sc_hd__buf_12
*I *11579:X O *D sky130_fd_sc_hd__buf_12
*CAP
1 *11465:A 0.000229773
2 *11579:X 0.00109323
3 *573:16 0.00293631
4 *573:14 0.00420576
5 *573:10 0.00259245
6 *573:16 *574:16 0.0113266
7 *573:16 *576:8 0
8 wbs_dat_o[28] *573:10 0
9 *11464:A *573:10 0.000157297
10 *11524:BEN[1] *11465:A 6.57032e-05
11 *192:16 *573:16 0.00056842
12 *254:25 *573:14 0.000704306
13 *258:26 *573:14 1.88536e-05
14 *356:10 *573:16 0.0064702
15 *526:16 *573:16 0.00224306
16 *560:16 *573:16 0.00190342
*RES
1 *11579:X *573:10 36.9429 
2 *573:10 *573:14 23.1071 
3 *573:14 *573:16 151.304 
4 *573:16 *11465:A 17.2107 
*END

*D_NET *574 0.0334195
*CONN
*I *11478:A I *D sky130_fd_sc_hd__buf_12
*I *11580:X O *D sky130_fd_sc_hd__buf_12
*CAP
1 *11478:A 0.00020654
2 *11580:X 0.00151048
3 *574:16 0.00255221
4 *574:14 0.00271279
5 *574:10 0.0018776
6 *574:16 *576:8 0.000247775
7 wbs_dat_o[29] *574:10 6.26466e-05
8 *11400:A *574:10 0
9 *11580:A *574:10 9.93414e-05
10 *185:14 *574:14 0.000760469
11 *192:16 *574:16 0.000567314
12 *254:23 *574:10 0.000594799
13 *256:19 *574:16 0.00325109
14 *356:10 *574:16 0.000222389
15 *376:87 *11478:A 3.14163e-05
16 *418:26 *574:16 0.00014281
17 *526:24 *574:16 0.00682582
18 *548:20 *574:10 0
19 *558:381 *574:16 0.000427417
20 *572:20 *574:10 0
21 *573:16 *574:16 0.0113266
*RES
1 *11580:X *574:10 47.5679 
2 *574:10 *574:14 12.0179 
3 *574:14 *574:16 145.536 
4 *574:16 *11478:A 16.8 
*END

*D_NET *575 0.0404197
*CONN
*I *11436:A I *D sky130_fd_sc_hd__buf_12
*I *11581:X O *D sky130_fd_sc_hd__buf_12
*CAP
1 *11436:A 0.000150309
2 *11581:X 0.001511
3 *575:44 0.00156467
4 *575:42 0.00199443
5 *575:36 0.00354192
6 *575:30 0.00438268
7 *575:26 0.00156441
8 *575:22 0.00165459
9 *575:22 *591:28 0.000107031
10 *575:22 *600:12 1.21398e-05
11 *575:22 *623:8 3.06025e-05
12 *575:26 *598:12 3.40161e-05
13 *575:26 *601:10 0.000122766
14 *575:30 *600:16 0.000566426
15 *575:30 *600:18 2.571e-05
16 *575:42 *583:14 0.000848383
17 *575:42 *583:22 1.02937e-05
18 *575:44 *11329:A 3.37161e-05
19 *575:44 *582:24 0.00572287
20 *575:44 *583:22 0.000414908
21 *871:DIODE *575:44 0.000353638
22 *11200:A *575:22 0.000181796
23 *11231:B2 *575:22 5.52302e-05
24 *11324:D *575:26 8.64475e-05
25 *11324:RESET_B *575:22 0.000268587
26 *11409:A *575:22 0
27 *11502:A *575:22 0.000488025
28 *11512:A *575:22 0
29 *11581:A *575:22 5.52238e-05
30 *11585:A *575:22 5.52238e-05
31 *11599:A *575:22 0.000145477
32 *119:26 *575:30 0.00219661
33 *145:8 *575:36 9.91086e-05
34 *145:35 *575:36 0.000278409
35 *199:26 *575:30 0.00299856
36 *201:46 *575:26 1.95625e-05
37 *201:46 *575:30 1.98839e-05
38 *338:12 *575:30 0.000725495
39 *338:12 *575:36 0.00210711
40 *382:47 *575:26 2.06178e-05
41 *559:12 *575:44 0.00597185
*RES
1 *11581:X *575:22 48.425 
2 *575:22 *575:26 7.96429 
3 *575:26 *575:30 42.6518 
4 *575:30 *575:36 46.7768 
5 *575:36 *575:42 13.2679 
6 *575:42 *575:44 66.25 
7 *575:44 *11436:A 20.55 
*END

*D_NET *576 0.0338663
*CONN
*I *11500:A I *D sky130_fd_sc_hd__buf_12
*I *11582:X O *D sky130_fd_sc_hd__buf_12
*CAP
1 *11500:A 0.000134481
2 *11582:X 0
3 *576:8 0.00405809
4 *576:6 0.00392361
5 *765:DIODE *576:8 0.000248143
6 *11401:A *576:8 0
7 *11463:A *576:8 0.00125748
8 *11524:BEN[8] *576:8 0.000692755
9 *11524:BEN[0] *576:8 0.000748091
10 *256:19 *576:8 0.000385929
11 *266:68 *576:8 0.000168293
12 *376:87 *576:8 0.00304022
13 *398:10 *576:8 0.000527073
14 *418:26 *576:8 0.00289842
15 *422:32 *576:8 0.00025263
16 *493:16 *576:8 0.000910796
17 *504:18 *576:8 0.00843999
18 *526:16 *576:8 0
19 *526:24 *576:8 0.000503275
20 *549:187 *576:8 0.00077127
21 *558:381 *576:8 0.000798586
22 *558:393 *576:8 0.000685362
23 *558:403 *576:8 0.000784937
24 *558:415 *576:8 0.000798586
25 *558:427 *576:8 0.000798579
26 *558:439 *576:8 0.000786048
27 *572:24 *576:8 5.90443e-06
28 *573:16 *576:8 0
29 *574:16 *576:8 0.000247775
*RES
1 *11582:X *576:6 13.8 
2 *576:6 *576:8 179.839 
3 *576:8 *11500:A 15.5679 
*END

*D_NET *577 0.0223267
*CONN
*I *11509:A I *D sky130_fd_sc_hd__buf_12
*I *11583:X O *D sky130_fd_sc_hd__buf_12
*CAP
1 *11509:A 0.000271427
2 *11583:X 0.00136174
3 *577:12 0.0068095
4 *577:10 0.00789981
5 *577:10 *11631:A 3.31909e-05
6 wbs_dat_o[31] *577:10 0
7 *11403:A *577:10 7.58571e-05
8 *11508:A *577:10 0.000122065
9 *374:60 *577:12 0.00418336
10 *407:10 *577:12 0.000121259
11 *409:10 *577:12 0.00144847
*RES
1 *11583:X *577:10 39.3446 
2 *577:10 *577:12 159.812 
3 *577:12 *11509:A 17.6214 
*END

*D_NET *578 0.0076977
*CONN
*I *11420:A I *D sky130_fd_sc_hd__dlygate4sd3_1
*I *11584:X O *D sky130_fd_sc_hd__clkbuf_2
*CAP
1 *11420:A 0.00135965
2 *11584:X 0.00113145
3 *578:10 0.0024911
4 *11420:A *600:26 0.00149383
5 *578:10 *11610:A 0
6 *11479:A *578:10 0
7 *11483:A *578:10 3.78803e-05
8 *140:16 *11420:A 0.000971506
9 *145:35 *11420:A 0.000141326
10 *371:30 *578:10 7.09632e-05
*RES
1 *11584:X *578:10 35.425 
2 *578:10 *11420:A 44.7464 
*END

*D_NET *579 0.0369363
*CONN
*I *11430:A I *D sky130_fd_sc_hd__buf_12
*I *11585:X O *D sky130_fd_sc_hd__buf_12
*CAP
1 *11430:A 0.000786409
2 *11585:X 0.000694929
3 *579:12 0.00335949
4 *579:10 0.00326801
5 *11430:A *11336:A 6.10501e-05
6 *11430:A *581:12 0.000349801
7 *11430:A *633:20 0.00334122
8 *579:10 *598:12 0
9 *579:10 *599:10 0.000236602
10 *579:10 *611:10 0
11 *579:10 *625:12 0.000159341
12 *579:12 *624:14 0.000199734
13 *579:12 *624:26 0.000736302
14 *579:12 *633:12 0.00112104
15 *579:12 *633:18 0.0014639
16 *579:12 *633:20 0.00247748
17 wbs_dat_o[3] *579:10 0.000100378
18 *11263:A1 *579:10 9.83358e-05
19 *11269:C1 *579:10 0.000194348
20 *382:20 *579:10 5.7599e-05
21 *382:47 *579:10 7.25114e-05
22 *515:16 *11430:A 0.00106915
23 *515:16 *579:12 0.0137999
24 *567:35 *579:12 0.00328874
*RES
1 *11585:X *579:10 32.9964 
2 *579:10 *579:12 131.348 
3 *579:12 *11430:A 42.4161 
*END

*D_NET *580 0.0375581
*CONN
*I *11417:A I *D sky130_fd_sc_hd__buf_12
*I *11586:X O *D sky130_fd_sc_hd__buf_12
*CAP
1 *11417:A 0.000159426
2 *11586:X 0.000344872
3 *580:42 0.00228886
4 *580:24 0.00620668
5 *580:22 0.00418973
6 *580:12 0.0047976
7 *580:10 0.00502999
8 *11417:A *584:64 0.00024292
9 *580:10 *588:20 0.00044521
10 *580:12 *601:12 0.000781817
11 *580:24 *584:40 0.00219588
12 *580:24 *584:56 0.000100215
13 *580:42 *584:56 0.000873165
14 *11213:A *580:24 0.000357704
15 *11214:A *580:12 0.00140331
16 *11214:A *580:22 2.04825e-05
17 *11298:B1 *580:42 1.93512e-05
18 *11301:B2 *11417:A 2.74584e-05
19 *11489:A *580:12 2.44318e-05
20 *11489:A *580:24 0.000134617
21 *11494:A *580:12 5.04705e-05
22 *110:8 *580:12 0.00232695
23 *117:102 *580:42 0.00154192
24 *118:57 *580:42 0.000949536
25 *122:58 *580:24 0.00225314
26 *165:20 *580:42 4.57872e-05
27 *165:111 *580:42 0.000263878
28 *170:16 *580:42 2.06112e-05
29 *170:76 *580:42 0.000112662
30 *173:63 *580:42 8.25843e-06
31 *173:76 *580:42 4.74387e-05
32 *201:18 *580:22 2.04825e-05
33 *201:18 *580:24 5.52238e-05
34 *338:38 *11417:A 0.000218019
*RES
1 *11586:X *580:10 24.1929 
2 *580:10 *580:12 64.6071 
3 *580:12 *580:22 10.5 
4 *580:22 *580:24 58.4464 
5 *580:24 *580:42 46.3804 
6 *580:42 *11417:A 18.175 
*END

*D_NET *581 0.035942
*CONN
*I *11373:A I *D sky130_fd_sc_hd__buf_12
*I *11587:X O *D sky130_fd_sc_hd__buf_12
*CAP
1 *11373:A 3.80696e-05
2 *11587:X 0.000927869
3 *581:12 0.0106379
4 *581:10 0.0115277
5 *581:10 *586:34 0
6 *581:10 *592:30 0
7 *581:12 *11336:A 0.000622947
8 *581:12 *633:20 2.13481e-06
9 *11333:A *581:10 9.28243e-05
10 *11334:A *581:12 0.000255109
11 *11430:A *581:12 0.000349801
12 *114:12 *581:12 0.00586399
13 *145:58 *581:10 0.000128224
14 *167:86 *581:12 0.00010805
15 *199:53 *581:12 0.00371719
16 *515:16 *581:12 0.00167011
*RES
1 *11587:X *581:10 33.9071 
2 *581:10 *581:12 150.857 
3 *581:12 *11373:A 10.0321 
*END

*D_NET *582 0.0331176
*CONN
*I *11329:A I *D sky130_fd_sc_hd__buf_12
*I *11588:X O *D sky130_fd_sc_hd__buf_12
*CAP
1 *11329:A 0.000672489
2 *11588:X 0.000749712
3 *582:24 0.00169319
4 *582:22 0.00163903
5 *582:14 0.00233595
6 *582:10 0.00246733
7 *11329:A *583:24 0.00332775
8 *582:10 *597:12 0
9 *582:10 *626:16 0
10 *582:22 *583:14 6.4157e-05
11 *582:22 *583:22 0.000858982
12 *582:24 *583:22 0.0035579
13 *582:24 *583:24 0.000973606
14 *871:DIODE *11329:A 0.00124392
15 *11210:A *582:14 4.5632e-05
16 *11210:B *582:14 0.000353619
17 *11211:A *582:14 0.000472268
18 *11211:A *582:22 5.33005e-05
19 *11494:A *582:10 0
20 *11552:A *582:10 0
21 *11588:A *582:10 0.000100246
22 *110:14 *582:10 0
23 *110:40 *582:14 0.00470838
24 *110:40 *582:22 2.1806e-05
25 *118:12 *582:22 5.47001e-05
26 *168:43 *11329:A 0.00193131
27 *199:26 *582:10 0
28 *247:43 *11329:A 3.57693e-05
29 *559:10 *582:22 0
30 *575:44 *11329:A 3.37161e-05
31 *575:44 *582:24 0.00572287
*RES
1 *11588:X *582:10 30.5679 
2 *582:10 *582:14 45.7321 
3 *582:14 *582:22 20.5357 
4 *582:22 *582:24 54.3393 
5 *582:24 *11329:A 41.8893 
*END

*D_NET *583 0.0310339
*CONN
*I *11493:A I *D sky130_fd_sc_hd__buf_12
*I *11589:X O *D sky130_fd_sc_hd__buf_12
*CAP
1 *11493:A 0.000379587
2 *11589:X 0.000886947
3 *583:24 0.00265852
4 *583:22 0.00418942
5 *583:14 0.00340202
6 *583:10 0.00237848
7 *583:10 *628:22 0
8 *11329:A *583:24 0.00332775
9 *11332:A *583:24 0.000306333
10 *11482:A *583:10 9.4736e-05
11 *11491:A *583:10 6.42007e-05
12 *11553:A *583:10 4.60232e-06
13 *11589:A *583:10 3.53412e-05
14 *110:40 *583:14 0.00351284
15 *167:93 *583:24 0.000183726
16 *167:100 *583:24 0.000185117
17 *167:107 *583:24 0.000183721
18 *167:128 *583:24 0.000310612
19 *167:135 *583:24 0.000185117
20 *167:142 *583:24 0.000185117
21 *167:149 *583:24 0.000183721
22 *167:166 *583:24 9.63157e-05
23 *168:43 *583:24 0.000164949
24 *169:20 *583:24 0.000347928
25 *247:43 *583:24 0.000818887
26 *559:12 *11493:A 0.000206221
27 *559:12 *583:24 1.35057e-05
28 *575:42 *583:14 0.000848383
29 *575:42 *583:22 1.02937e-05
30 *575:44 *583:22 0.000414908
31 *582:22 *583:14 6.4157e-05
32 *582:22 *583:22 0.000858982
33 *582:24 *583:22 0.0035579
34 *582:24 *583:24 0.000973606
*RES
1 *11589:X *583:10 33.3 
2 *583:10 *583:14 36.1786 
3 *583:14 *583:22 45.7679 
4 *583:22 *583:24 57.2098 
5 *583:24 *11493:A 16.0187 
*END

*D_NET *584 0.0298305
*CONN
*I *11471:A I *D sky130_fd_sc_hd__buf_12
*I *11590:X O *D sky130_fd_sc_hd__buf_12
*CAP
1 *11471:A 0.000560424
2 *11590:X 0.00109192
3 *584:64 0.00131716
4 *584:56 0.00307248
5 *584:40 0.00299851
6 *584:28 0.00177468
7 *11471:A *585:22 0.00252666
8 *584:28 *601:12 0.000230482
9 *584:28 *601:22 0.00018327
10 *584:56 *608:12 4.15592e-05
11 *584:64 *608:12 3.69047e-06
12 *11213:A *584:28 1.69961e-05
13 *11213:A *584:40 0.000270078
14 *11214:A *584:28 1.5424e-05
15 *11289:A1 *584:56 5.33005e-05
16 *11289:A2 *584:56 0
17 *11301:B2 *584:64 5.33978e-05
18 *11392:A *584:28 0
19 *11393:A *584:28 0.000229207
20 *11397:A *584:40 0.000141734
21 *11417:A *584:64 0.00024292
22 *11438:A *584:28 0.000546187
23 *11489:A *584:28 0.000579959
24 *11503:A *584:40 0.000206519
25 *11510:A *584:28 0.000228508
26 *11590:A *584:28 2.64941e-05
27 *11591:A *584:40 0.000137561
28 *115:30 *584:64 4.13496e-05
29 *117:65 *584:40 0.000121573
30 *117:131 *11471:A 0.000559259
31 *118:43 *584:40 0.000488071
32 *118:75 *584:64 0.00152045
33 *122:52 *584:40 0.000317848
34 *122:58 *584:40 9.80173e-05
35 *165:20 *584:56 0.000345001
36 *165:34 *584:56 0.001027
37 *170:16 *584:56 1.90936e-05
38 *170:18 *584:64 5.33005e-05
39 *170:48 *584:64 0.000517553
40 *172:34 *584:56 0.00055613
41 *202:16 *584:64 0
42 *217:32 *584:56 3.17148e-05
43 *338:28 *584:56 7.62834e-05
44 *338:28 *584:64 7.49387e-06
45 *338:38 *584:64 0.00250352
46 *371:18 *584:28 0.00029892
47 *371:18 *584:40 0.000169096
48 *371:30 *584:56 0.000316184
49 *404:24 *11471:A 0.00104427
50 *580:24 *584:40 0.00219588
51 *580:24 *584:56 0.000100215
52 *580:42 *584:56 0.000873165
*RES
1 *11590:X *584:28 49.8893 
2 *584:28 *584:40 35.1429 
3 *584:40 *584:56 42.214 
4 *584:56 *584:64 37.3393 
5 *584:64 *11471:A 33.6571 
*END

*D_NET *585 0.0271206
*CONN
*I *11449:A I *D sky130_fd_sc_hd__buf_12
*I *11591:X O *D sky130_fd_sc_hd__buf_12
*CAP
1 *11449:A 0.000117358
2 *11591:X 0.000343356
3 *585:22 0.00238886
4 *585:20 0.00292052
5 *585:14 0.00262673
6 *585:12 0.00232106
7 *585:12 *601:24 3.14078e-05
8 *585:14 *608:14 0.00136539
9 *585:14 *622:14 0.000894883
10 *585:20 *11614:A 0
11 *585:20 *622:24 0.00120842
12 wbs_dat_o[10] *585:12 0.000180397
13 *718:DIODE *585:20 0
14 *11247:A *585:22 0.000175892
15 *11310:B2 *11449:A 0
16 *11355:A *585:20 0.000396454
17 *11356:A *585:20 0
18 *11394:A *585:12 0.000314493
19 *11438:A *585:12 0.000402965
20 *11471:A *585:22 0.00252666
21 *11488:A *585:12 0.000715425
22 *115:16 *585:22 0.000140933
23 *115:30 *585:20 6.31653e-05
24 *117:131 *585:22 0.00102313
25 *167:121 *585:22 0.000437756
26 *229:46 *11449:A 3.87701e-05
27 *404:24 *585:22 0.000378565
28 *415:12 *585:14 0.00581783
29 *449:16 *585:14 0.000290226
*RES
1 *11591:X *585:12 29.6929 
2 *585:12 *585:14 69.9464 
3 *585:14 *585:20 25.5179 
4 *585:20 *585:22 46.9464 
5 *585:22 *11449:A 20.2464 
*END

*D_NET *586 0.024585
*CONN
*I *11407:A I *D sky130_fd_sc_hd__buf_12
*I *11592:X O *D sky130_fd_sc_hd__buf_12
*CAP
1 *11407:A 0.000788253
2 *11592:X 0.00186895
3 *586:34 0.00197893
4 *586:28 0.00260906
5 *586:18 0.00328733
6 *11407:A *588:22 0.00267148
7 *11407:A *591:57 5.09751e-05
8 *586:18 *11629:A 0.000211697
9 *586:28 *622:14 0.00104574
10 *586:28 *627:16 0.00173271
11 *586:28 *627:18 0.000698149
12 *586:34 *591:57 0
13 *586:34 *592:30 0.00023716
14 *586:34 *633:10 0
15 wbs_dat_o[1] *586:18 0.000489571
16 wbs_dat_o[5] *586:34 0
17 *11362:A *586:34 0.000125731
18 *11390:A *586:18 0
19 *11495:A *586:34 0.000727464
20 *11512:A *586:18 0
21 *201:46 *586:34 0
22 *201:167 *586:34 0.000765169
23 *234:19 *11407:A 0.00279552
24 *382:16 *586:28 0.00250114
25 *581:10 *586:34 0
*RES
1 *11592:X *586:18 41.9786 
2 *586:18 *586:28 49.5893 
3 *586:28 *586:34 30.4196 
4 *586:34 *11407:A 49.8982 
*END

*D_NET *587 0.00523803
*CONN
*I *11416:A I *D sky130_fd_sc_hd__clkbuf_16
*I *11593:X O *D sky130_fd_sc_hd__clkbuf_16
*CAP
1 *11416:A 0
2 *11593:X 0.00129858
3 *587:12 0.00129858
4 *587:12 *588:12 9.77118e-05
5 *587:12 *593:12 0.000908441
6 *587:12 *595:12 0.000327614
7 *587:12 *627:12 0.000640119
8 *11266:C1 *587:12 0.00016306
9 *140:89 *587:12 0.000185185
10 *148:57 *587:12 0.000217025
11 *154:20 *587:12 0.000101722
*RES
1 *11593:X *587:12 47.6036 
2 *587:12 *11416:A 9.3 
*END

*D_NET *588 0.0259883
*CONN
*I *11410:A I *D sky130_fd_sc_hd__buf_12
*I *11594:X O *D sky130_fd_sc_hd__buf_12
*CAP
1 *11410:A 0
2 *11594:X 0.0012505
3 *588:22 0.00192564
4 *588:20 0.0035505
5 *588:12 0.00287536
6 *588:12 *590:12 0.000357333
7 *588:12 *598:14 0.000322419
8 *588:20 *611:12 0.000808666
9 *588:20 *624:26 0
10 *588:22 *591:57 2.16719e-05
11 *11407:A *588:22 0.00267148
12 *135:10 *588:20 5.31541e-05
13 *139:18 *588:20 9.25014e-06
14 *156:24 *588:20 0.000332887
15 *211:13 *588:20 0
16 *234:19 *588:22 5.19343e-05
17 *234:23 *588:20 5.89005e-05
18 *236:11 *588:22 0.00584247
19 *383:48 *588:22 0.00431571
20 *387:50 *588:22 0.000224789
21 *558:123 *588:22 0.000772752
22 *580:10 *588:20 0.00044521
23 *587:12 *588:12 9.77118e-05
*RES
1 *11594:X *588:12 36.6571 
2 *588:12 *588:20 38.9107 
3 *588:20 *588:22 90.2857 
4 *588:22 *11410:A 13.8 
*END

*D_NET *589 0.0304393
*CONN
*I *11424:A I *D sky130_fd_sc_hd__dlygate4sd3_1
*I *11202:B I *D sky130_fd_sc_hd__and3_2
*I *11595:X O *D sky130_fd_sc_hd__clkbuf_2
*CAP
1 *11424:A 0
2 *11202:B 0
3 *11595:X 0.00121826
4 *589:26 0.00156786
5 *589:24 0.00156786
6 *589:22 0.00111306
7 *589:20 0.00199292
8 *589:14 0.00209812
9 *589:14 *11609:A 0.000198493
10 *589:20 *11609:A 0
11 *589:22 *602:14 0.00030941
12 *589:22 *611:12 0.00175304
13 *589:26 *602:12 0.00121405
14 *11201:A *589:22 9.41642e-05
15 *11397:A *589:20 9.11048e-06
16 *11433:A *589:14 5.71472e-05
17 *11479:A *589:14 0.0004004
18 *11483:A *589:14 0.000439629
19 *3:25 *589:26 0.000799861
20 *117:65 *589:14 0.000271898
21 *122:16 *589:22 0.00304523
22 *162:10 *589:26 0.000497074
23 *199:70 *589:22 5.52238e-05
24 *199:70 *589:26 0.00202009
25 *199:82 *589:26 7.72634e-05
26 *215:28 *589:22 0.000624833
27 *240:22 *589:26 0.00145918
28 *242:21 *589:26 0.00298408
29 *338:28 *589:14 9.55178e-05
30 *448:14 *589:14 0.000837746
31 *559:10 *589:20 0.0001982
32 *563:36 *589:22 0.00343954
*RES
1 *11595:X *589:14 45.1929 
2 *589:14 *589:20 23.3929 
3 *589:20 *589:22 59.6786 
4 *589:22 *589:24 4.5 
5 *589:24 *589:26 65.3929 
6 *589:26 *11202:B 13.8 
7 *589:14 *11424:A 9.3 
*END

*D_NET *590 0.03118
*CONN
*I *11413:A I *D sky130_fd_sc_hd__buf_12
*I *11596:X O *D sky130_fd_sc_hd__buf_12
*CAP
1 *11413:A 0.000312408
2 *11596:X 0.000554032
3 *590:14 0.00394037
4 *590:12 0.004182
5 *11413:A *631:12 0
6 *590:12 *598:14 0.00101817
7 *590:12 *633:10 0
8 *743:DIODE *11413:A 0
9 *11335:A *590:12 0.000139998
10 *11515:DI[3] *11413:A 2.12805e-05
11 *11586:A *590:12 5.33005e-05
12 *147:28 *590:14 0.0018171
13 *154:10 *590:14 0.00904959
14 *197:18 *590:14 0
15 *209:25 *590:14 4.38604e-05
16 *210:11 *590:14 0.000108771
17 *353:10 *590:14 0.00835737
18 *354:10 *590:14 0.000254049
19 *376:48 *590:14 0.000629308
20 *558:10 *590:14 7.31893e-05
21 *558:35 *590:14 6.22028e-05
22 *558:47 *590:14 0.000205696
23 *588:12 *590:12 0.000357333
*RES
1 *11596:X *590:12 27.8089 
2 *590:12 *590:14 149.152 
3 *590:14 *11413:A 18.4429 
*END

*D_NET *591 0.0268253
*CONN
*I *11204:D I *D sky130_fd_sc_hd__and4b_2
*I *11200:B I *D sky130_fd_sc_hd__nand2_2
*I *11597:X O *D sky130_fd_sc_hd__clkbuf_2
*CAP
1 *11204:D 0
2 *11200:B 0
3 *11597:X 6.3685e-05
4 *591:57 0.00127808
5 *591:51 0.0022292
6 *591:28 0.00216436
7 *591:12 0.0038794
8 *591:10 0.00272986
9 *591:28 *11632:A 0.000283577
10 *591:28 *593:10 0.000192099
11 *591:28 *611:10 4.71964e-05
12 *591:28 *621:16 0.000183726
13 *591:28 *623:8 3.68898e-05
14 *591:51 *601:12 0.000864254
15 *591:51 *623:8 0.000110146
16 *591:51 *633:10 0.000660474
17 *11200:A *591:28 0.00022459
18 *11200:A *591:51 6.76256e-05
19 *11204:C *591:57 0.000586458
20 *11324:D *591:28 0.000566264
21 *11342:A *591:28 1.87955e-05
22 *11377:A *591:51 0.000186669
23 *11381:A *591:28 0
24 *11407:A *591:57 5.09751e-05
25 *11409:A *591:28 0
26 *11411:A *591:28 7.92975e-05
27 *11425:A *591:10 0
28 *11429:A *591:28 9.90431e-05
29 *11497:A *591:51 0.000315165
30 *11502:A *591:28 0.000225616
31 *11594:A *591:28 0.000118488
32 *11597:A *591:10 3.79467e-05
33 *110:8 *591:51 0.0018744
34 *112:8 *591:57 2.22999e-05
35 *197:28 *591:28 1.02504e-05
36 *206:11 *591:57 0.00259558
37 *236:11 *591:57 0.00222207
38 *382:16 *591:12 0.00219524
39 *382:51 *591:51 0.000386734
40 *382:51 *591:57 9.00926e-05
41 *575:22 *591:28 0.000107031
42 *586:34 *591:57 0
43 *588:22 *591:57 2.16719e-05
*RES
1 *11597:X *591:10 19.6393 
2 *591:10 *591:12 53.1071 
3 *591:12 *591:28 41.875 
4 *591:28 *11200:B 9.3 
5 *591:28 *591:51 36.0982 
6 *591:51 *591:57 46.7768 
7 *591:57 *11204:D 9.3 
*END

*D_NET *592 0.0359808
*CONN
*I *11217:A I *D sky130_fd_sc_hd__nor2_2
*I *11199:A I *D sky130_fd_sc_hd__inv_16
*I *11598:X O *D sky130_fd_sc_hd__buf_4
*CAP
1 *11217:A 0.000264312
2 *11199:A 0
3 *11598:X 0.000979663
4 *592:34 0.00168578
5 *592:32 0.00168578
6 *592:30 0.00124168
7 *592:24 0.0032202
8 *592:20 0.00365225
9 *592:12 0.00238908
10 *592:12 *593:12 0.0025213
11 *592:20 *600:12 0.000312769
12 *592:20 *621:16 0.000701012
13 *592:24 *11632:A 0.000480262
14 *592:24 *599:12 0.000692757
15 *592:24 *621:16 0.000141003
16 *592:34 *596:12 0
17 wbs_dat_o[0] *592:12 5.28427e-05
18 wbs_dat_o[3] *592:24 0.000111501
19 *11337:A *592:12 9.39125e-05
20 *11337:A *592:20 2.59355e-05
21 *11338:A *592:12 9.23883e-05
22 *11362:A *592:24 9.15291e-05
23 *11362:A *592:30 0.000125731
24 *11378:A *592:24 5.33005e-05
25 *11382:A *592:24 5.49544e-05
26 *11406:A *592:24 7.61932e-05
27 *11415:A *592:20 0.000639685
28 *11418:A *592:20 0.000133977
29 *11435:A *592:20 1.51571e-05
30 *11437:A *592:12 5.33005e-05
31 *11498:A *592:24 5.71472e-05
32 *11501:A *592:24 0.000271352
33 *11512:A *592:20 0.000389497
34 *11586:A *592:24 0.000135028
35 *11601:A *592:24 5.47047e-05
36 *125:14 *592:34 0.00509306
37 *133:14 *592:34 0.00549928
38 *140:34 *11217:A 0.000823213
39 *140:36 *11217:A 0.00012867
40 *140:36 *592:30 0.000563289
41 *140:113 *592:34 7.68478e-05
42 *145:58 *592:30 0
43 *145:58 *592:34 0
44 *148:24 *11217:A 0.000521125
45 *201:167 *592:30 0.000542174
46 *581:10 *592:30 0
47 *586:34 *592:30 0.00023716
*RES
1 *11598:X *592:12 43.9964 
2 *592:12 *592:20 24.6071 
3 *592:20 *592:24 44.0536 
4 *592:24 *592:30 24.9643 
5 *592:30 *592:32 4.5 
6 *592:32 *592:34 72.9821 
7 *592:34 *11199:A 13.8 
8 *592:30 *11217:A 18.4607 
*END

*D_NET *593 0.0128234
*CONN
*I *11606:A I *D sky130_fd_sc_hd__buf_12
*I *11324:Q O *D sky130_fd_sc_hd__dfrtp_1
*CAP
1 *11606:A 8.67031e-05
2 *11324:Q 0.000181139
3 *593:12 0.00439227
4 *593:10 0.00448671
5 *11342:A *593:10 0
6 *11409:A *593:10 0
7 *11581:A *593:10 0
8 *11593:A *593:12 5.47047e-05
9 *587:12 *593:12 0.000908441
10 *591:28 *593:10 0.000192099
11 *592:12 *593:12 0.0025213
*RES
1 *11324:Q *593:10 21.7643 
2 *593:10 *593:12 54.9554 
3 *593:12 *11606:A 10.8982 
*END

*D_NET *594 0.00200935
*CONN
*I *11607:A I *D sky130_fd_sc_hd__buf_12
*I *11219:X O *D sky130_fd_sc_hd__o221a_1
*CAP
1 *11607:A 0.000910483
2 *11219:X 0.000910483
3 *698:DIODE *11607:A 3.92032e-05
4 *11219:A2 *11607:A 6.05161e-06
5 *11219:B1 *11607:A 0.000143131
6 *11225:C1 *11607:A 0
7 *11408:A *11607:A 0
*RES
1 *11219:X *11607:A 43.1536 
*END

*D_NET *595 0.024659
*CONN
*I *11608:A I *D sky130_fd_sc_hd__buf_12
*I *11254:X O *D sky130_fd_sc_hd__o221a_2
*CAP
1 *11608:A 9.67763e-05
2 *11254:X 0.00110792
3 *595:18 0.0053195
4 *595:16 0.0060677
5 *595:12 0.00195289
6 *595:12 *627:12 0.000112385
7 *595:16 *11633:A 0.00105362
8 *595:16 *627:16 0.00124166
9 *595:18 *604:14 0.000547431
10 *595:18 *627:16 2.42662e-05
11 *595:18 *627:18 0.00547458
12 wbs_dat_o[10] *11608:A 3.0285e-05
13 *11249:A1 *595:12 0
14 *11249:B2 *595:12 0
15 *11254:B1 *595:12 0.000141734
16 *11254:C1 *595:12 0
17 *11266:C1 *595:12 0.00016457
18 *11381:A *595:12 0
19 *11394:A *595:18 0.000531461
20 *11397:A *11608:A 0
21 *11502:A *595:12 0.000162295
22 *119:26 *595:12 0
23 *148:57 *595:12 0.000254557
24 *382:16 *595:16 4.7812e-05
25 *587:12 *595:12 0.000327614
*RES
1 *11254:X *595:12 40.425 
2 *595:12 *595:16 23.1429 
3 *595:16 *595:18 75.6964 
4 *595:18 *11608:A 19.9429 
*END

*D_NET *596 0.0238641
*CONN
*I *11609:A I *D sky130_fd_sc_hd__buf_12
*I *11257:X O *D sky130_fd_sc_hd__o221a_2
*CAP
1 *11609:A 0.00146855
2 *11257:X 0.000102172
3 *596:14 0.0041942
4 *596:12 0.00407609
5 *596:8 0.0014526
6 *596:14 *603:12 5.92665e-05
7 *596:14 *611:12 0.00051859
8 *11257:A2 *596:8 4.13496e-05
9 *11257:B1 *596:8 0.000125355
10 *11278:B2 *596:14 0.00182816
11 *112:10 *596:12 0.000710291
12 *125:14 *596:12 0
13 *131:14 *596:14 8.23726e-05
14 *145:58 *596:12 9.97648e-05
15 *207:15 *596:8 0.000175892
16 *212:31 *596:12 9.10431e-06
17 *217:26 *596:14 0.00598691
18 *229:40 *596:12 0.00273493
19 *559:10 *11609:A 0
20 *589:14 *11609:A 0.000198493
21 *589:20 *11609:A 0
22 *592:34 *596:12 0
*RES
1 *11257:X *596:8 16.3893 
2 *596:8 *596:12 41.9643 
3 *596:12 *596:14 74.0536 
4 *596:14 *11609:A 41.8 
*END

*D_NET *597 0.0240165
*CONN
*I *11610:A I *D sky130_fd_sc_hd__buf_12
*I *11260:X O *D sky130_fd_sc_hd__o221a_2
*CAP
1 *11610:A 0.000105407
2 *11260:X 0.00101397
3 *597:14 0.00524822
4 *597:12 0.00694828
5 *597:8 0.00281944
6 *597:14 *11636:A 0.000361911
7 *597:14 *601:24 0.00384269
8 wbs_dat_o[12] *11610:A 0.000121842
9 wbs_dat_o[7] *597:14 6.6128e-05
10 wbs_dat_o[8] *597:14 0.000158312
11 *11260:A2 *597:8 0.000175892
12 *11260:B1 *597:8 0.000593382
13 *11331:A *597:12 4.25809e-05
14 *11383:A *597:12 0.000308489
15 *11385:A *597:12 0
16 *11431:A *11610:A 0
17 *11487:A *597:14 0.000145812
18 *11488:A *597:14 0.000115921
19 *11490:A *597:14 9.94899e-05
20 *11514:A *597:14 0.000324022
21 *11588:A *597:12 0
22 *110:18 *597:12 0
23 *140:34 *597:12 0
24 *143:16 *597:12 0.000360394
25 *145:45 *597:8 0.000839203
26 *164:10 *597:12 0.000325102
27 *214:22 *597:12 0
28 *563:38 *597:12 0
29 *567:43 *597:12 0
30 *578:10 *11610:A 0
31 *582:10 *597:12 0
*RES
1 *11260:X *597:8 31.9964 
2 *597:8 *597:12 39.8393 
3 *597:12 *597:14 70.7679 
4 *597:14 *11610:A 20.2464 
*END

*D_NET *598 0.0298604
*CONN
*I *11611:A I *D sky130_fd_sc_hd__buf_12
*I *11263:X O *D sky130_fd_sc_hd__o221a_2
*CAP
1 *11611:A 0.000538997
2 *11263:X 0.000831685
3 *598:14 0.00976239
4 *598:12 0.0100551
5 *598:12 *601:10 0
6 *598:12 *625:12 0.000223202
7 *598:14 *628:22 0.000128635
8 wbs_dat_o[12] *11611:A 0.00014285
9 wbs_dat_o[12] *598:14 4.20505e-05
10 wbs_dat_o[13] *11611:A 5.49544e-05
11 *11269:B1 *598:12 7.19199e-06
12 *11324:D *598:12 4.30699e-05
13 *11414:A *598:12 0
14 *11419:A *598:14 8.90314e-05
15 *11423:A *11611:A 0.000575099
16 *11491:A *598:14 9.41642e-05
17 *11553:A *598:14 1.98839e-05
18 *11584:A *598:14 7.24732e-05
19 *11585:A *598:12 0.000126375
20 *140:76 *598:12 3.51917e-05
21 *145:68 *598:12 7.14469e-05
22 *201:46 *598:12 6.52495e-05
23 *232:35 *598:12 3.32573e-06
24 *360:10 *598:14 0.00453389
25 *360:14 *11611:A 0.000242294
26 *360:14 *598:14 0.000140528
27 *382:20 *598:12 0.000304225
28 *382:47 *598:12 0.000282469
29 *575:26 *598:12 3.40161e-05
30 *579:10 *598:12 0
31 *588:12 *598:14 0.000322419
32 *590:12 *598:14 0.00101817
*RES
1 *11263:X *598:12 33.2821 
2 *598:12 *598:14 115.536 
3 *598:14 *11611:A 21.6571 
*END

*D_NET *599 0.0281457
*CONN
*I *11612:A I *D sky130_fd_sc_hd__buf_12
*I *11266:X O *D sky130_fd_sc_hd__o221a_2
*CAP
1 *11612:A 0.000732103
2 *11266:X 0.00022622
3 *599:12 0.00563874
4 *599:10 0.00513285
5 *599:10 *611:10 0.000238899
6 *599:12 *11632:A 0.000116887
7 wbs_dat_o[13] *11612:A 0.000185541
8 wbs_dat_o[14] *11612:A 9.66977e-05
9 wbs_dat_o[3] *599:12 0.000265453
10 *11328:A *599:12 0.000344232
11 *11331:A *599:12 0.000142157
12 *11362:A *599:12 0.000177815
13 *11378:A *599:12 2.59355e-05
14 *11380:A *599:12 0.000271026
15 *11383:A *599:12 0.000166407
16 *11385:A *599:12 9.83388e-05
17 *11386:A *599:12 2.89016e-05
18 *11392:A *599:12 0.000555958
19 *11406:A *599:12 0.0001399
20 *11460:A *599:12 0.000167208
21 *11473:A *11612:A 0.000142856
22 *11476:A *11612:A 0
23 *11476:A *599:12 6.05161e-06
24 *11481:A *599:12 0.000166616
25 *11486:A *599:12 0.000128331
26 *11491:A *599:12 5.03772e-05
27 *11496:A *599:12 3.18676e-05
28 *11498:A *599:12 3.18676e-05
29 *11510:A *599:12 5.52302e-05
30 *11553:A *599:12 3.30337e-05
31 *11587:A *599:12 2.03624e-05
32 *11589:A *599:12 1.2104e-05
33 *349:12 *599:12 0.00824344
34 *360:14 *11612:A 0.000459943
35 *448:10 *599:12 0.000353838
36 *448:14 *599:12 0.00270349
37 *448:16 *599:12 2.57017e-05
38 *579:10 *599:10 0.000236602
39 *592:24 *599:12 0.000692757
*RES
1 *11266:X *599:10 24.4964 
2 *599:10 *599:12 129.911 
3 *599:12 *11612:A 33.1929 
*END

*D_NET *600 0.0371201
*CONN
*I *11349:A I *D sky130_fd_sc_hd__buf_12
*I *11599:X O *D sky130_fd_sc_hd__buf_12
*CAP
1 *11349:A 4.06336e-05
2 *11599:X 0.000359271
3 *600:26 0.00662577
4 *600:24 0.00706518
5 *600:18 0.00249165
6 *600:16 0.00259397
7 *600:12 0.000941635
8 *600:16 *626:8 0.00110221
9 *600:16 *626:16 8.43535e-06
10 *600:18 *626:16 0.00319649
11 *11218:A *600:24 5.94923e-05
12 *11231:B2 *600:12 2.73349e-05
13 *11381:A *600:16 0.00035112
14 *11414:A *600:16 0.000309441
15 *11420:A *600:26 0.00149383
16 *11435:A *600:12 9.01388e-05
17 *11513:A *600:12 5.85008e-05
18 *11599:A *600:12 0.000143967
19 *119:26 *600:16 3.8274e-05
20 *122:16 *600:24 0.000171615
21 *123:10 *600:24 0.000196276
22 *140:16 *600:26 0.00158249
23 *167:86 *600:26 0.000287814
24 *199:26 *600:18 0.000956458
25 *201:18 *600:18 0.000618912
26 *201:46 *600:18 0.00159835
27 *201:50 *600:16 0.00208053
28 *338:12 *600:18 0.00171323
29 *575:22 *600:12 1.21398e-05
30 *575:30 *600:16 0.000566426
31 *575:30 *600:18 2.571e-05
32 *592:20 *600:12 0.000312769
*RES
1 *11599:X *600:12 26.5857 
2 *600:12 *600:16 26.7321 
3 *600:16 *600:18 61.7321 
4 *600:18 *600:24 18.5357 
5 *600:24 *600:26 83.5 
6 *600:26 *11349:A 10.0321 
*END

*D_NET *601 0.0287651
*CONN
*I *11613:A I *D sky130_fd_sc_hd__buf_12
*I *11269:X O *D sky130_fd_sc_hd__o221a_2
*CAP
1 *11613:A 0.000423996
2 *11269:X 0.000472559
3 *601:24 0.0031136
4 *601:22 0.00329706
5 *601:12 0.00412262
6 *601:10 0.00398772
7 *11613:A *607:16 0.000175158
8 wbs_dat_o[10] *601:24 0.000209145
9 wbs_dat_o[15] *11613:A 6.05161e-06
10 wbs_dat_o[9] *601:22 7.8327e-05
11 *11200:A *601:12 1.24368e-05
12 *11214:A *601:12 0.000156917
13 *11214:A *601:22 0.000883439
14 *11339:A *601:12 0.000181381
15 *11340:A *11613:A 1.21258e-05
16 *11377:A *601:12 0.000186669
17 *11384:A *601:24 7.40922e-05
18 *11393:A *601:22 0.000229207
19 *11394:A *601:24 0.000134419
20 *11414:A *601:10 6.32536e-05
21 *11426:A *601:24 0.000420044
22 *11431:A *601:24 0.000165603
23 *11438:A *601:22 0.000117956
24 *11460:A *601:22 3.76849e-05
25 *11468:A *11613:A 0.000142856
26 *11474:A *11613:A 0.000174322
27 *11480:A *601:24 5.71472e-05
28 *11483:A *601:24 2.84109e-05
29 *11488:A *601:24 0.000647532
30 *11494:A *601:12 0.000142856
31 *11495:A *601:12 0.000356028
32 *11497:A *601:12 0.000315165
33 *11510:A *601:22 0.000228508
34 *11552:A *601:12 5.33005e-05
35 *11559:A *601:24 3.18676e-05
36 *11560:A *601:24 0.000122101
37 *11563:A *601:24 4.87953e-05
38 *11588:A *601:12 5.52238e-05
39 *11596:A *601:12 0.000219289
40 *110:8 *601:12 0.000481866
41 *360:18 *11613:A 0.000985873
42 *371:18 *601:22 1.21289e-05
43 *382:47 *601:10 3.43367e-05
44 *449:14 *601:24 9.35794e-06
45 *575:26 *601:10 0.000122766
46 *580:12 *601:12 0.000781817
47 *584:28 *601:12 0.000230482
48 *584:28 *601:22 0.00018327
49 *585:12 *601:24 3.14078e-05
50 *591:51 *601:12 0.000864254
51 *597:14 *601:24 0.00384269
52 *598:12 *601:10 0
*RES
1 *11269:X *601:10 25.7107 
2 *601:10 *601:12 67.8929 
3 *601:12 *601:22 25.1786 
4 *601:22 *601:24 64.1964 
5 *601:24 *11613:A 30.1214 
*END

*D_NET *602 0.0343133
*CONN
*I *11614:A I *D sky130_fd_sc_hd__buf_12
*I *11272:X O *D sky130_fd_sc_hd__o221a_2
*CAP
1 *11614:A 0.00108288
2 *11272:X 0.00122127
3 *602:14 0.00402674
4 *602:12 0.00416513
5 *602:14 *611:12 0
6 wbs_dat_o[16] *11614:A 5.52302e-05
7 *701:DIODE *602:12 2.79421e-05
8 *718:DIODE *11614:A 0.000235611
9 *11204:B *602:12 9.41642e-05
10 *11298:B2 *11614:A 0
11 *11356:A *11614:A 0.000161723
12 *11462:A *11614:A 1.55885e-05
13 *3:25 *602:12 0.000378609
14 *117:102 *11614:A 0.000204216
15 *145:41 *602:14 0.000114096
16 *162:10 *602:12 0.000908679
17 *167:121 *11614:A 1.72961e-05
18 *170:63 *11614:A 7.69776e-06
19 *175:12 *602:14 0.00182942
20 *199:12 *602:12 7.83587e-05
21 *199:70 *602:12 7.80714e-06
22 *215:28 *602:14 0.00424228
23 *220:30 *11614:A 0.00092062
24 *223:28 *602:14 0.0121562
25 *228:26 *602:14 0.000326329
26 *360:18 *11614:A 0.00022459
27 *385:16 *11614:A 0
28 *485:14 *11614:A 0
29 *563:36 *602:14 0.000287401
30 *585:20 *11614:A 0
31 *589:22 *602:14 0.00030941
32 *589:26 *602:12 0.00121405
*RES
1 *11272:X *602:12 49.7286 
2 *602:12 *602:14 123.339 
3 *602:14 *11614:A 40.6393 
*END

*D_NET *603 0.0368034
*CONN
*I *11615:A I *D sky130_fd_sc_hd__buf_12
*I *11275:X O *D sky130_fd_sc_hd__o221a_2
*CAP
1 *11615:A 0.00146001
2 *11275:X 0.000313311
3 *603:12 0.00376386
4 *603:10 0.00261716
5 *11615:A *610:16 0.000174286
6 *11615:A *612:12 0.000103204
7 *11566:A *11615:A 2.80881e-05
8 *3:25 *603:10 0.000164129
9 *143:12 *603:12 8.71079e-05
10 *173:97 *11615:A 0
11 *199:70 *603:10 0.00106492
12 *217:26 *603:12 4.61858e-05
13 *220:26 *603:12 0.0120562
14 *221:32 *11615:A 0
15 *222:40 *11615:A 0
16 *226:30 *603:12 0.0137459
17 *229:42 *603:12 0.000116994
18 *380:18 *11615:A 9.60337e-06
19 *478:14 *11615:A 2.9755e-05
20 *483:14 *11615:A 0.000396251
21 *567:43 *603:10 0.000567172
22 *596:14 *603:12 5.92665e-05
*RES
1 *11275:X *603:10 31.7821 
2 *603:10 *603:12 135.661 
3 *603:12 *11615:A 43.9786 
*END

*D_NET *604 0.0315005
*CONN
*I *11616:A I *D sky130_fd_sc_hd__buf_12
*I *11278:X O *D sky130_fd_sc_hd__o221a_2
*CAP
1 *11616:A 0.000234415
2 *11278:X 0.00141034
3 *604:14 0.00288274
4 *604:12 0.00405866
5 *11616:A *610:28 0.000157867
6 *604:12 *628:22 0
7 *604:14 *607:18 0.00576476
8 *604:14 *613:14 0.00149473
9 *604:14 *622:14 0.0105746
10 *604:14 *627:18 0.000362007
11 wbs_dat_o[18] *11616:A 0.000136958
12 wbs_dat_o[19] *11616:A 0
13 *11278:A1 *604:12 1.58163e-05
14 *11278:A2 *604:12 1.55936e-05
15 *11278:B1 *604:12 3.58979e-06
16 *11278:B2 *604:12 7.97383e-06
17 *11346:A *11616:A 0.000148054
18 *11386:A *604:12 0
19 *11387:A *604:12 0.000374346
20 *11394:A *604:14 0.000209059
21 *11486:A *604:12 6.96182e-05
22 *11514:A *604:12 0.00030232
23 *148:16 *604:12 0.000208457
24 *415:12 *604:14 0.00141569
25 *426:12 *604:14 0.00110553
26 *595:18 *604:14 0.000547431
*RES
1 *11278:X *604:12 42.5679 
2 *604:12 *604:14 137.714 
3 *604:14 *11616:A 22.925 
*END

*D_NET *605 0.0282368
*CONN
*I *11617:A I *D sky130_fd_sc_hd__buf_12
*I *11284:X O *D sky130_fd_sc_hd__o221a_2
*CAP
1 *11617:A 0.00343091
2 *11284:X 0
3 *605:6 0.00944507
4 *605:4 0.00601415
5 *11617:A *609:20 5.47001e-05
6 *11617:A *620:10 0
7 wbs_dat_o[19] *11617:A 3.18676e-05
8 *11284:B1 *605:6 0.00176984
9 *11307:A1 *11617:A 0
10 *11310:A1 *11617:A 0
11 *11310:B2 *11617:A 0
12 *11313:C1 *11617:A 9.87983e-06
13 *11322:B1 *11617:A 4.65158e-06
14 *11322:B2 *11617:A 0
15 *11322:C1 *11617:A 2.47697e-05
16 *117:131 *11617:A 0
17 *118:75 *11617:A 1.90936e-05
18 *169:28 *605:6 1.38323e-05
19 *170:89 *11617:A 0
20 *170:102 *11617:A 0
21 *170:106 *11617:A 0
22 *183:28 *11617:A 3.69697e-05
23 *367:18 *11617:A 5.16106e-05
24 *371:38 *605:6 0.00387387
25 *404:20 *605:6 1.02936e-05
26 *404:24 *605:6 0.00344527
27 *504:12 *11617:A 0
*RES
1 *11284:X *605:4 9.3 
2 *605:4 *605:6 87.1964 
3 *605:6 *11617:A 38.9362 
*END

*D_NET *606 0.00163762
*CONN
*I *11618:A I *D sky130_fd_sc_hd__buf_12
*I *11222:X O *D sky130_fd_sc_hd__o221a_1
*CAP
1 *11618:A 0.000576322
2 *11222:X 0.000576322
3 *11618:A *618:18 0.000314458
4 *11338:A *11618:A 0
5 *11418:A *11618:A 0
6 *11569:A *11618:A 0
7 *515:10 *11618:A 0.000170515
*RES
1 *11222:X *11618:A 39.2607 
*END

*D_NET *607 0.0215285
*CONN
*I *11619:A I *D sky130_fd_sc_hd__buf_12
*I *11289:X O *D sky130_fd_sc_hd__o221a_2
*CAP
1 *11619:A 0.00017593
2 *11289:X 0.000992509
3 *607:18 0.00127454
4 *607:16 0.00209111
5 *607:16 *608:12 0
6 *607:18 *613:14 0.000840005
7 *11289:A1 *607:16 0.00010096
8 *11289:A2 *607:16 0.000954427
9 *11292:C1 *607:16 0.000785242
10 *11353:A *11619:A 0
11 *11474:A *607:16 0.000115969
12 *11613:A *607:16 0.000175158
13 *122:89 *607:16 0
14 *165:22 *607:16 3.95804e-05
15 *165:34 *607:16 9.34548e-05
16 *426:12 *607:18 0.000591656
17 *449:14 *607:16 3.92992e-05
18 *460:14 *607:18 0.00682531
19 *526:12 *607:18 0.00066861
20 *604:14 *607:18 0.00576476
*RES
1 *11289:X *607:16 41.7286 
2 *607:16 *607:18 74.875 
3 *607:18 *11619:A 20.8536 
*END

*D_NET *608 0.0212473
*CONN
*I *11620:A I *D sky130_fd_sc_hd__buf_12
*I *11292:X O *D sky130_fd_sc_hd__o221a_2
*CAP
1 *11620:A 0.000374628
2 *11292:X 0.000900201
3 *608:14 0.00144721
4 *608:12 0.00197278
5 wbs_dat_o[21] *11620:A 0.000225609
6 *11292:A1 *608:12 5.42698e-05
7 *11434:A *11620:A 0
8 *11468:A *608:12 0.000212761
9 *117:102 *608:12 7.1299e-05
10 *122:89 *608:12 0
11 *170:16 *608:12 2.68445e-05
12 *170:18 *608:12 8.25843e-06
13 *338:28 *608:12 5.52302e-05
14 *415:12 *608:14 0.00161568
15 *449:16 *608:14 0.00857782
16 *493:12 *608:14 0.00429408
17 *584:56 *608:12 4.15592e-05
18 *584:64 *608:12 3.69047e-06
19 *585:14 *608:14 0.00136539
20 *607:16 *608:12 0
*RES
1 *11292:X *608:12 33.2286 
2 *608:12 *608:14 80.625 
3 *608:14 *11620:A 24.55 
*END

*D_NET *609 0.0183463
*CONN
*I *11621:A I *D sky130_fd_sc_hd__buf_12
*I *11295:X O *D sky130_fd_sc_hd__o221a_2
*CAP
1 *11621:A 0.000525102
2 *11295:X 0.000241505
3 *609:20 0.00213894
4 *609:16 0.00407013
5 *609:12 0.00269779
6 *11621:A *617:14 0.000374756
7 *11621:A *617:16 0.000628865
8 *609:20 *617:14 0.0028302
9 wbs_dat_o[19] *609:20 0.000145685
10 wbs_dat_o[22] *11621:A 0.000307336
11 *716:DIODE *609:12 1.41642e-05
12 *11330:A *609:16 1.57414e-05
13 *11350:A *609:20 7.77751e-05
14 *11353:A *609:20 0.00012356
15 *11361:A *609:16 9.20484e-05
16 *11363:A *609:16 9.12639e-05
17 *11363:A *609:20 0.000525643
18 *11444:A *609:20 0.000173921
19 *11469:A *609:12 1.96149e-05
20 *11564:A *609:12 7.29646e-05
21 *11617:A *609:20 5.47001e-05
22 *170:63 *609:12 5.49489e-05
23 *173:63 *609:12 5.49489e-05
24 *360:18 *609:16 0.00296134
25 *504:12 *609:20 5.33334e-05
*RES
1 *11295:X *609:12 22.6036 
2 *609:12 *609:16 34.2321 
3 *609:16 *609:20 39.9821 
4 *609:20 *11621:A 22.5679 
*END

*D_NET *610 0.0197271
*CONN
*I *11622:A I *D sky130_fd_sc_hd__buf_12
*I *11298:X O *D sky130_fd_sc_hd__o221a_2
*CAP
1 *11622:A 0
2 *11298:X 0.000941938
3 *610:34 0.00331523
4 *610:28 0.00545528
5 *610:16 0.00308199
6 *610:16 *612:12 0.00014285
7 wbs_dat_o[17] *610:16 0.000243221
8 wbs_dat_o[18] *610:28 0.000687187
9 wbs_dat_o[20] *610:34 0.000273046
10 wbs_dat_o[21] *610:34 0.000822108
11 wbs_dat_o[23] *610:34 0.000102207
12 *11346:A *610:28 0.00133852
13 *11347:A *610:28 5.20692e-05
14 *11357:A *610:16 0
15 *11358:A *610:16 0.000148516
16 *11358:A *610:28 3.77389e-05
17 *11359:A *610:34 0.000148002
18 *11364:A *610:34 0.000634918
19 *11442:A *610:28 0.000231277
20 *11446:A *610:34 0.000236164
21 *11448:A *610:34 2.02508e-05
22 *11466:A *610:28 0.000149188
23 *11566:A *610:16 0
24 *11615:A *610:16 0.000174286
25 *11616:A *610:28 0.000157867
26 *165:130 *610:16 0.000203658
27 *170:76 *610:16 0.000145365
28 *173:76 *610:16 0.000623478
29 *173:97 *610:16 0.000219064
30 *482:14 *610:16 9.71259e-06
31 *482:14 *610:28 0.000131918
*RES
1 *11298:X *610:16 36.55 
2 *610:16 *610:28 35.8393 
3 *610:28 *610:34 44.1071 
4 *610:34 *11622:A 9.3 
*END

*D_NET *611 0.0288931
*CONN
*I *11343:A I *D sky130_fd_sc_hd__buf_12
*I *11600:X O *D sky130_fd_sc_hd__buf_12
*CAP
1 *11343:A 0.000244636
2 *11600:X 0.00126707
3 *611:12 0.00668212
4 *611:10 0.00770455
5 *611:10 *625:12 4.56548e-05
6 wbs_dat_o[3] *611:10 0
7 *11201:A *611:12 0.000304394
8 *11263:A1 *611:10 0.000370723
9 *11266:A2 *611:10 5.4826e-05
10 *11278:B2 *611:12 0.000510767
11 *11501:A *611:10 0
12 *122:16 *611:12 0.00304523
13 *139:24 *611:12 0.00187323
14 *143:10 *11343:A 0.000213876
15 *154:20 *611:10 0
16 *156:24 *611:10 0.000244077
17 *175:12 *611:12 0.000174401
18 *197:28 *611:10 0
19 *199:6 *611:12 1.21258e-05
20 *217:26 *611:12 0
21 *218:26 *611:12 0
22 *219:26 *611:12 0
23 *220:26 *611:12 0
24 *234:23 *611:12 0
25 *236:17 *611:12 0.00267139
26 *391:20 *11343:A 0.000107625
27 *491:18 *11343:A 0
28 *579:10 *611:10 0
29 *588:20 *611:12 0.000808666
30 *589:22 *611:12 0.00175304
31 *591:28 *611:10 4.71964e-05
32 *596:14 *611:12 0.00051859
33 *599:10 *611:10 0.000238899
34 *602:14 *611:12 0
*RES
1 *11600:X *611:10 43.0143 
2 *611:10 *611:12 163.179 
3 *611:12 *11343:A 23.5857 
*END

*D_NET *612 0.0227827
*CONN
*I *11623:A I *D sky130_fd_sc_hd__buf_12
*I *11301:X O *D sky130_fd_sc_hd__o221a_2
*CAP
1 *11623:A 0.000939085
2 *11301:X 0.000344304
3 *612:24 0.00379074
4 *612:20 0.0036054
5 *612:12 0.00109805
6 *11623:A *617:16 0.00114462
7 *612:24 *614:16 0.000195697
8 *612:24 *614:18 0.00348105
9 wbs_dat_o[24] *11623:A 0.000142856
10 *734:DIODE *612:24 0.000182694
11 *11304:A1 *612:12 0
12 *11322:B2 *612:20 0.000180072
13 *11351:A *11623:A 0
14 *11360:A *11623:A 2.84026e-05
15 *11366:A *11623:A 0.00018597
16 *11451:A *11623:A 0
17 *11574:A *11623:A 5.71472e-05
18 *11615:A *612:12 0.000103204
19 *115:37 *612:20 0.00324455
20 *118:75 *612:20 0.00048638
21 *165:130 *612:12 6.42095e-05
22 *181:22 *612:20 9.11048e-06
23 *183:28 *612:20 0.00247192
24 *222:40 *612:12 0
25 *226:51 *612:24 0.00031432
26 *229:46 *612:20 4.01319e-05
27 *560:10 *11623:A 0.00052989
28 *610:16 *612:12 0.00014285
*RES
1 *11301:X *612:12 23.7464 
2 *612:12 *612:20 41.6786 
3 *612:20 *612:24 45.6964 
4 *612:24 *11623:A 37.175 
*END

*D_NET *613 0.0212743
*CONN
*I *11624:A I *D sky130_fd_sc_hd__buf_12
*I *11304:X O *D sky130_fd_sc_hd__o221a_2
*CAP
1 *11624:A 0.000400528
2 *11304:X 0.000658998
3 *613:14 0.00171652
4 *613:12 0.00197499
5 *11304:A1 *613:12 9.25014e-06
6 *11361:A *613:12 0.0003571
7 *11367:A *11624:A 9.54798e-06
8 *11368:A *11624:A 0
9 *11466:A *613:12 0
10 *165:134 *613:12 5.52302e-05
11 *415:12 *613:14 0.00424732
12 *493:12 *613:14 0.00295039
13 *526:12 *613:14 0.00655971
14 *604:14 *613:14 0.00149473
15 *607:18 *613:14 0.000840005
*RES
1 *11304:X *613:12 28.675 
2 *613:12 *613:14 90.0714 
3 *613:14 *11624:A 23.6393 
*END

*D_NET *614 0.021032
*CONN
*I *11625:A I *D sky130_fd_sc_hd__buf_12
*I *11307:X O *D sky130_fd_sc_hd__o221a_2
*CAP
1 *11625:A 0.000463289
2 *11307:X 0.000633408
3 *614:18 0.00297384
4 *614:16 0.00314396
5 *734:DIODE *614:16 0.000169359
6 *1232:DIODE *614:18 0.000186662
7 *11307:A1 *614:16 7.4048e-05
8 *11330:A *614:16 0.000188102
9 *11371:A *11625:A 7.77441e-05
10 *115:37 *614:16 0.00251385
11 *115:37 *614:18 0.00142375
12 *173:125 *614:16 5.33005e-05
13 *178:97 *614:18 0.000142856
14 *181:22 *614:16 1.54142e-05
15 *224:48 *614:16 0
16 *226:51 *614:16 0.000995536
17 *371:44 *614:16 0.000950035
18 *537:12 *614:18 0.000168858
19 *560:12 *614:18 0.0011041
20 *569:12 *614:18 0.00207713
21 *612:24 *614:16 0.000195697
22 *612:24 *614:18 0.00348105
*RES
1 *11307:X *614:16 45.9696 
2 *614:16 *614:18 71.3839 
3 *614:18 *11625:A 26.0143 
*END

*D_NET *615 0.0185839
*CONN
*I *11626:A I *D sky130_fd_sc_hd__buf_12
*I *11310:X O *D sky130_fd_sc_hd__o221a_2
*CAP
1 *11626:A 0.000378564
2 *11310:X 0.00075785
3 *615:14 0.00230798
4 *615:12 0.00268726
5 *11626:A *616:22 0.000449067
6 *11626:A *617:16 0.000998725
7 *615:12 *616:8 0.00152085
8 *615:12 *616:10 0.000218606
9 *615:14 *616:10 0.00514757
10 wbs_dat_o[27] *11626:A 5.49544e-05
11 *11313:A1 *615:12 0.000366107
12 *11313:A2 *615:12 0.000117557
13 *11313:B1 *615:12 0.000963678
14 *11313:C1 *615:12 0.000141131
15 *11322:A1 *615:12 2.78056e-05
16 *11322:B1 *615:12 7.45939e-06
17 *11375:A *11626:A 0.000142856
18 *183:14 *615:12 0.00111619
19 *183:14 *615:14 0.000836921
20 *183:28 *615:12 1.21289e-05
21 *571:10 *11626:A 0.000330619
*RES
1 *11310:X *615:12 40.5946 
2 *615:12 *615:14 55.7768 
3 *615:14 *11626:A 32.2464 
*END

*D_NET *616 0.0214739
*CONN
*I *11627:A I *D sky130_fd_sc_hd__buf_12
*I *11313:X O *D sky130_fd_sc_hd__o221a_2
*CAP
1 *11627:A 0
2 *11313:X 0.000719197
3 *616:22 0.00165389
4 *616:10 0.00522666
5 *616:8 0.00429197
6 *616:22 *617:16 0.00119723
7 wbs_dat_o[26] *616:22 0.000269385
8 wbs_dat_o[27] *616:22 0.000270257
9 wbs_dat_o[28] *616:22 5.52302e-05
10 *11375:A *616:22 0.000142856
11 *11459:A *616:22 0.000311121
12 *11626:A *616:22 0.000449067
13 *615:12 *616:8 0.00152085
14 *615:12 *616:10 0.000218606
15 *615:14 *616:10 0.00514757
*RES
1 *11313:X *616:8 24.2286 
2 *616:8 *616:10 52.6964 
3 *616:10 *616:22 43.4107 
4 *616:22 *11627:A 9.3 
*END

*D_NET *617 0.0242564
*CONN
*I *11628:A I *D sky130_fd_sc_hd__buf_12
*I *11316:X O *D sky130_fd_sc_hd__o221a_2
*CAP
1 *11628:A 0.000241854
2 *11316:X 0.000189191
3 *617:16 0.00481223
4 *617:14 0.00706516
5 *617:10 0.00268397
6 wbs_dat_o[22] *617:16 0.000111491
7 wbs_dat_o[24] *617:16 0.000122159
8 wbs_dat_o[26] *617:16 0.000142963
9 wbs_dat_o[27] *617:16 0.000115858
10 wbs_dat_o[28] *617:16 0.000115587
11 wbs_dat_o[29] *11628:A 5.52302e-05
12 *11313:B1 *617:10 2.34043e-05
13 *11316:A2 *617:10 5.7903e-06
14 *11347:A *617:10 5.99616e-05
15 *11360:A *617:16 0.000187483
16 *11368:A *617:16 0.000355987
17 *11399:A *617:16 5.33433e-05
18 *11455:A *617:16 0.000598074
19 *11477:A *11628:A 1.21258e-05
20 *11574:A *617:16 5.60962e-05
21 *11621:A *617:14 0.000374756
22 *11621:A *617:16 0.000628865
23 *11623:A *617:16 0.00114462
24 *11626:A *617:16 0.000998725
25 *504:12 *617:10 0
26 *570:12 *617:16 7.40432e-05
27 *609:20 *617:14 0.0028302
28 *616:22 *617:16 0.00119723
*RES
1 *11316:X *617:10 21.7643 
2 *617:10 *617:14 34.8482 
3 *617:14 *617:16 86.375 
4 *617:16 *11628:A 13.3446 
*END

*D_NET *618 0.00616785
*CONN
*I *11629:A I *D sky130_fd_sc_hd__buf_12
*I *11225:X O *D sky130_fd_sc_hd__o221a_1
*CAP
1 *11629:A 0.000361869
2 *11225:X 0.00105672
3 *618:18 0.00141859
4 *11231:C1 *618:18 2.8266e-06
5 *11324:RESET_B *618:18 0.000564322
6 *11390:A *618:18 0.000790267
7 *11409:A *11629:A 5.65955e-05
8 *11411:A *11629:A 0.000315117
9 *11618:A *618:18 0.000314458
10 *119:44 *618:18 0.000215726
11 *119:48 *618:18 0.000521318
12 *515:10 *618:18 0.000338351
13 *586:18 *11629:A 0.000211697
*RES
1 *11225:X *618:18 47.4607 
2 *618:18 *11629:A 21.8893 
*END

*D_NET *619 0.028468
*CONN
*I *11630:A I *D sky130_fd_sc_hd__buf_12
*I *11319:X O *D sky130_fd_sc_hd__o221a_2
*CAP
1 *11630:A 0.000170976
2 *11319:X 0
3 *619:6 0.00726482
4 *619:4 0.00709385
5 *619:6 *620:12 0.0135464
6 *11313:B1 *619:6 0.000185643
7 *11402:A *11630:A 0
8 *11470:A *619:6 0.000162827
9 *11568:A *619:6 1.07719e-05
10 *11582:A *11630:A 3.2643e-05
11 *493:16 *11630:A 0
*RES
1 *11319:X *619:4 9.3 
2 *619:4 *619:6 144.286 
3 *619:6 *11630:A 21.1571 
*END

*D_NET *620 0.0263648
*CONN
*I *11631:A I *D sky130_fd_sc_hd__buf_12
*I *11322:X O *D sky130_fd_sc_hd__o221a_2
*CAP
1 *11631:A 0.000124955
2 *11322:X 0.000103214
3 *620:12 0.00517612
4 *620:10 0.00515438
5 *11313:B1 *620:10 9.11048e-06
6 *11352:A *620:12 0.000184745
7 *11365:A *620:12 0.000115723
8 *11367:A *620:12 0.000293402
9 *11369:A *620:12 9.41642e-05
10 *11376:A *620:12 0.000185118
11 *11389:A *620:12 5.71472e-05
12 *11451:A *620:12 0.000572324
13 *11453:A *620:12 9.83388e-05
14 *11464:A *620:12 0.000258947
15 *11508:A *11631:A 0.000122065
16 *11508:A *620:12 5.33005e-05
17 *11570:A *620:12 1.75642e-05
18 *11571:A *620:12 1.75642e-05
19 *11576:A *620:12 3.23672e-05
20 *11577:A *620:12 4.71586e-05
21 *11578:A *620:12 3.23614e-05
22 *11580:A *620:12 1.75642e-05
23 *11582:A *620:12 1.75642e-05
24 *11617:A *620:10 0
25 *577:10 *11631:A 3.31909e-05
26 *619:6 *620:12 0.0135464
*RES
1 *11322:X *620:10 19.9429 
2 *620:10 *620:12 138.536 
3 *620:12 *11631:A 20.8536 
*END

*D_NET *621 0.00672529
*CONN
*I *11632:A I *D sky130_fd_sc_hd__buf_12
*I *11228:X O *D sky130_fd_sc_hd__o221a_1
*CAP
1 *11632:A 0.000331311
2 *11228:X 0.00140368
3 *621:16 0.00173499
4 *621:16 *626:8 3.97902e-05
5 wbs_dat_o[3] *11632:A 5.33005e-05
6 *745:DIODE *621:16 0
7 *11240:B1 *621:16 1.3312e-05
8 *11240:B2 *621:16 5.05484e-05
9 *11240:C1 *621:16 1.92789e-05
10 *11382:A *11632:A 5.49544e-05
11 *11391:A *621:16 5.6394e-05
12 *11429:A *11632:A 9.90431e-05
13 *11435:A *621:16 0.000361766
14 *11501:A *11632:A 0.000271352
15 *11512:A *621:16 9.11048e-06
16 *201:50 *621:16 0.000308595
17 *201:69 *621:16 5.64413e-06
18 *201:71 *621:16 5.74499e-06
19 *231:21 *621:16 0
20 *591:28 *11632:A 0.000283577
21 *591:28 *621:16 0.000183726
22 *592:20 *621:16 0.000701012
23 *592:24 *11632:A 0.000480262
24 *592:24 *621:16 0.000141003
25 *599:12 *11632:A 0.000116887
*RES
1 *11228:X *621:16 42.7464 
2 *621:16 *11632:A 20.2464 
*END

*D_NET *622 0.0343892
*CONN
*I *11341:A I *D sky130_fd_sc_hd__buf_12
*I *11601:X O *D sky130_fd_sc_hd__buf_12
*CAP
1 *11341:A 0
2 *11601:X 0.000429749
3 *622:24 0.00149725
4 *622:14 0.00519559
5 *622:12 0.00412809
6 *622:14 *627:18 0.00108281
7 *11339:A *622:12 0.000303972
8 *11378:A *622:12 0.000262082
9 *11497:A *622:12 0.000177982
10 *118:75 *622:24 3.71496e-05
11 *143:10 *622:24 0
12 *165:12 *622:24 0
13 *169:20 *622:24 9.34707e-05
14 *172:14 *622:24 0.00109309
15 *177:6 *622:24 0.000500184
16 *391:20 *622:24 9.00983e-05
17 *415:12 *622:14 0.00577403
18 *585:14 *622:14 0.000894883
19 *585:20 *622:24 0.00120842
20 *586:28 *622:14 0.00104574
21 *604:14 *622:14 0.0105746
*RES
1 *11601:X *622:12 27.0321 
2 *622:12 *622:14 147.571 
3 *622:14 *622:24 44.5714 
4 *622:24 *11341:A 9.3 
*END

*D_NET *623 0.0109726
*CONN
*I *11633:A I *D sky130_fd_sc_hd__buf_12
*I *11231:X O *D sky130_fd_sc_hd__o221a_1
*CAP
1 *11633:A 0.00158917
2 *11231:X 0.00202895
3 *623:8 0.00361812
4 *11633:A *624:26 0
5 wbs_dat_o[4] *11633:A 0.000123295
6 *11324:D *623:8 0.000736227
7 *11324:RESET_B *623:8 0.00116956
8 *11412:A *11633:A 1.87955e-05
9 *11414:A *11633:A 0
10 *11497:A *11633:A 0
11 *11502:A *623:8 8.42191e-05
12 *11596:A *11633:A 0.000148844
13 *110:8 *623:8 0.000224161
14 *575:22 *623:8 3.06025e-05
15 *591:28 *623:8 3.68898e-05
16 *591:51 *623:8 0.000110146
17 *595:16 *11633:A 0.00105362
*RES
1 *11231:X *623:8 41.4429 
2 *623:8 *11633:A 44.2643 
*END

*D_NET *624 0.0124546
*CONN
*I *11634:A I *D sky130_fd_sc_hd__buf_12
*I *11234:X O *D sky130_fd_sc_hd__o221a_1
*CAP
1 *11634:A 0.00108149
2 *11234:X 0.00117137
3 *624:26 0.00307372
4 *624:14 0.0031636
5 *624:26 *625:22 0
6 wbs_dat_o[4] *624:26 0
7 *11372:A *11634:A 0.000731561
8 *11379:A *11634:A 0.000183222
9 *11406:A *624:26 6.05462e-05
10 *11497:A *624:26 0.000149035
11 *11633:A *624:26 0
12 *211:13 *624:26 0.00014784
13 *515:14 *624:14 0.00152396
14 *515:16 *624:14 0.000232219
15 *579:12 *624:14 0.000199734
16 *579:12 *624:26 0.000736302
17 *588:20 *624:26 0
*RES
1 *11234:X *624:14 40.9339 
2 *624:14 *624:26 39.8482 
3 *624:26 *11634:A 23.7107 
*END

*D_NET *625 0.0151624
*CONN
*I *11635:A I *D sky130_fd_sc_hd__buf_12
*I *11237:X O *D sky130_fd_sc_hd__o221a_2
*CAP
1 *11635:A 0.00113893
2 *11237:X 0.00150058
3 *625:22 0.00354044
4 *625:12 0.0039021
5 *11635:A *11636:A 9.90431e-05
6 *11635:A *626:16 0
7 *625:22 *628:8 0.00024842
8 *625:22 *628:10 2.76301e-05
9 *11234:A1 *625:12 0.000271132
10 *11234:A2 *625:12 5.33005e-05
11 *11234:B1 *625:12 6.57032e-05
12 *11237:A1 *625:12 0.000223846
13 *11237:B1 *625:12 9.37026e-06
14 *11263:A1 *625:12 0.000223854
15 *11266:A1 *625:22 0.00121394
16 *11380:A *11635:A 0.000123359
17 *11504:A *11635:A 9.07988e-05
18 *110:14 *11635:A 0
19 *140:76 *625:12 9.05198e-05
20 *140:89 *625:12 1.28809e-05
21 *145:60 *625:22 0.000492749
22 *211:13 *625:22 0.000187569
23 *232:35 *625:12 0.000302959
24 *382:47 *625:22 0.000915064
25 *579:10 *625:12 0.000159341
26 *598:12 *625:12 0.000223202
27 *611:10 *625:12 4.56548e-05
28 *624:26 *625:22 0
*RES
1 *11237:X *625:12 45.3179 
2 *625:12 *625:22 47.3393 
3 *625:22 *11635:A 36.9429 
*END

*D_NET *626 0.0185476
*CONN
*I *11636:A I *D sky130_fd_sc_hd__buf_12
*I *11240:X O *D sky130_fd_sc_hd__o221a_2
*CAP
1 *11636:A 0.00105183
2 *11240:X 0.00160419
3 *626:16 0.00351969
4 *626:8 0.00407205
5 wbs_dat_o[6] *11636:A 0.000186669
6 wbs_dat_o[7] *11636:A 0.000369374
7 *11342:A *626:8 0.000270653
8 *11381:A *626:8 0.00035112
9 *11391:A *626:8 5.49544e-05
10 *11414:A *626:8 0.000309441
11 *11482:A *11636:A 0.000243369
12 *11490:A *11636:A 0.000272321
13 *11492:A *626:16 0.000137054
14 *11494:A *626:16 0.000576056
15 *11513:A *626:8 9.60939e-05
16 *11635:A *11636:A 9.90431e-05
17 *11635:A *626:16 0
18 *110:14 *626:16 9.91086e-05
19 *201:50 *626:8 0.000159745
20 *201:69 *626:8 5.33005e-05
21 *338:10 *626:16 0.000312743
22 *582:10 *626:16 0
23 *597:14 *11636:A 0.000361911
24 *600:16 *626:8 0.00110221
25 *600:16 *626:16 8.43535e-06
26 *600:18 *626:16 0.00319649
27 *621:16 *626:8 3.97902e-05
*RES
1 *11240:X *626:8 41.4786 
2 *626:8 *626:16 49.7679 
3 *626:16 *11636:A 30.9429 
*END

*D_NET *627 0.0200492
*CONN
*I *11637:A I *D sky130_fd_sc_hd__buf_12
*I *11243:X O *D sky130_fd_sc_hd__o221a_2
*CAP
1 *11637:A 0.000105342
2 *11243:X 0.00163927
3 *627:18 0.00109238
4 *627:16 0.00141186
5 *627:12 0.00206408
6 *627:12 *628:8 0.000354332
7 wbs_dat_o[8] *11637:A 0
8 *11249:B1 *627:12 8.35892e-05
9 *11381:A *627:12 0
10 *11392:A *11637:A 4.44267e-05
11 *11429:A *627:12 0.000445809
12 *11501:A *627:12 4.84453e-05
13 *119:34 *627:12 0.000677479
14 *119:36 *627:12 7.20217e-06
15 *197:28 *627:12 8.22145e-05
16 *382:16 *627:16 0.000624093
17 *586:28 *627:16 0.00173271
18 *586:28 *627:18 0.000698149
19 *587:12 *627:12 0.000640119
20 *595:12 *627:12 0.000112385
21 *595:16 *627:16 0.00124166
22 *595:18 *627:16 2.42662e-05
23 *595:18 *627:18 0.00547458
24 *604:14 *627:18 0.000362007
25 *622:14 *627:18 0.00108281
*RES
1 *11243:X *627:12 48.1214 
2 *627:12 *627:16 23.0357 
3 *627:16 *627:18 51.875 
4 *627:18 *11637:A 20.2464 
*END

*D_NET *628 0.0206281
*CONN
*I *11638:A I *D sky130_fd_sc_hd__buf_12
*I *11249:X O *D sky130_fd_sc_hd__o221a_2
*CAP
1 *11638:A 0
2 *11249:X 0.000407892
3 *628:22 0.00182052
4 *628:10 0.00569322
5 *628:8 0.00428059
6 wbs_dat_o[9] *628:22 0.000227539
7 *11249:B1 *628:8 0.000355986
8 *11266:A1 *628:8 4.88637e-05
9 *11266:B1 *628:8 0.000162691
10 *11386:A *628:22 0.000104631
11 *11555:A *628:22 3.18676e-05
12 *11589:A *628:22 0
13 *123:14 *628:10 0.00363251
14 *123:16 *628:8 6.27374e-05
15 *123:16 *628:10 6.8377e-06
16 *360:10 *628:22 0.000918161
17 *382:47 *628:10 0.00211502
18 *583:10 *628:22 0
19 *598:14 *628:22 0.000128635
20 *604:12 *628:22 0
21 *625:22 *628:8 0.00024842
22 *625:22 *628:10 2.76301e-05
23 *627:12 *628:8 0.000354332
*RES
1 *11249:X *628:8 19.5054 
2 *628:8 *628:10 55.7768 
3 *628:10 *628:22 42.9286 
4 *628:22 *11638:A 9.3 
*END

*D_NET *629 0.137948
*CONN
*I *11542:BEN[31] I *D CF_SRAM_1024x32
*I *11542:BEN[30] I *D CF_SRAM_1024x32
*I *11542:BEN[29] I *D CF_SRAM_1024x32
*I *11542:BEN[28] I *D CF_SRAM_1024x32
*I *11542:BEN[27] I *D CF_SRAM_1024x32
*I *11542:BEN[26] I *D CF_SRAM_1024x32
*I *11542:BEN[25] I *D CF_SRAM_1024x32
*I *11542:BEN[24] I *D CF_SRAM_1024x32
*I *11533:BEN[31] I *D CF_SRAM_1024x32
*I *11533:BEN[30] I *D CF_SRAM_1024x32
*I *11533:BEN[29] I *D CF_SRAM_1024x32
*I *11533:BEN[28] I *D CF_SRAM_1024x32
*I *11533:BEN[27] I *D CF_SRAM_1024x32
*I *11533:BEN[26] I *D CF_SRAM_1024x32
*I *11533:BEN[25] I *D CF_SRAM_1024x32
*I *11533:BEN[24] I *D CF_SRAM_1024x32
*I *11515:BEN[31] I *D CF_SRAM_1024x32
*I *11515:BEN[30] I *D CF_SRAM_1024x32
*I *11515:BEN[29] I *D CF_SRAM_1024x32
*I *11515:BEN[28] I *D CF_SRAM_1024x32
*I *11603:X O *D sky130_fd_sc_hd__clkbuf_16
*CAP
1 *11542:BEN[31] 0.000657263
2 *11542:BEN[30] 0.00169046
3 *11542:BEN[29] 0.000534077
4 *11542:BEN[28] 0.000462433
5 *11542:BEN[27] 0.000377387
6 *11542:BEN[26] 0.000105639
7 *11542:BEN[25] 0.000539324
8 *11542:BEN[24] 0.000134342
9 *11533:BEN[31] 0.00100048
10 *11533:BEN[30] 0.000448185
11 *11533:BEN[29] 0.000383827
12 *11533:BEN[28] 0.000377298
13 *11533:BEN[27] 0.000445387
14 *11533:BEN[26] 0.000444454
15 *11533:BEN[25] 0.000395953
16 *11533:BEN[24] 0.000370821
17 *11515:BEN[31] 0.000916153
18 *11515:BEN[30] 0.000328009
19 *11515:BEN[29] 0.000355013
20 *11515:BEN[28] 0.000504279
21 *11603:X 0.000351114
22 *629:255 0.00201934
23 *629:250 0
24 *629:243 0.0017689
25 *629:219 0.000897392
26 *629:215 0.0016018
27 *629:203 0.00167242
28 *629:189 0.000945494
29 *629:183 0.0128062
30 *629:181 0.0128322
31 *629:155 0.00190345
32 *629:150 6.52908e-06
33 *629:143 0.00136534
34 *629:138 0
35 *629:131 0.0015338
36 *629:119 0.0016309
37 *629:107 0.00147674
38 *629:95 0.00136415
39 *629:82 0.00111358
40 *629:78 0.000332915
41 *629:74 0.00945468
42 *629:72 0.00968139
43 *629:58 0.00201491
44 *629:44 0.00133965
45 *629:30 0.00107319
46 *629:17 0
47 *629:10 0.00138274
48 *629:74 *11533:BEN[23] 0
49 *629:74 *630:74 0
50 *629:74 *630:266 0
51 *629:74 *631:68 0.00149475
52 *629:74 *631:80 0.000167607
53 *629:74 *631:199 0.000192038
54 *1131:DIODE *629:203 0
55 *1134:DIODE *11542:BEN[25] 0
56 *1153:DIODE *11542:BEN[31] 0
57 *11515:BEN[27] *629:10 1.32056e-05
58 *11515:DI[29] *11515:BEN[29] 0
59 *11515:DI[29] *629:30 6.05161e-06
60 *11533:DI[10] *629:74 1.05524e-05
61 *11533:DI[27] *11533:BEN[27] 0
62 *11533:DI[19] *629:74 0
63 *11533:DI[21] *629:74 0
64 *11533:DI[24] *11533:BEN[24] 0
65 *11533:DI[24] *629:74 0
66 *11533:DI[24] *629:82 0
67 *11533:DI[26] *11533:BEN[26] 0
68 *11533:DI[31] *11533:BEN[31] 0
69 *11603:A *629:10 0.000381858
70 *141:24 *629:58 0.000771215
71 *141:24 *629:72 0.000956344
72 *141:24 *629:74 4.82813e-05
73 *141:34 *629:30 5.49489e-05
74 *229:22 *629:30 1.07719e-05
75 *273:14 *629:74 0.000270387
76 *279:15 *629:74 0.00266093
77 *284:15 *629:74 0.00571789
78 *292:11 *629:74 0.00126156
79 *292:11 *629:78 4.58764e-05
80 *292:11 *629:181 0.000113778
81 *318:5 *11542:BEN[24] 0
82 *318:11 *629:189 1.94945e-05
83 *319:5 *11542:BEN[25] 0
84 *319:15 *629:189 1.94945e-05
85 *320:20 *11542:BEN[27] 0.000315594
86 *321:26 *11542:BEN[27] 0.000646686
87 *325:5 *11542:BEN[31] 0
88 *325:24 *11542:BEN[31] 4.97708e-05
89 *383:64 *629:44 0.000988064
90 *387:66 *629:44 0.000988064
91 *391:88 *629:44 0.000183248
92 *394:60 *629:10 0.000661515
93 *394:60 *629:30 0.000457481
94 *396:104 *629:72 1.721e-05
95 *396:104 *629:74 0.0154557
96 *409:70 *629:183 0.00629995
97 *411:74 *629:183 0.0062057
98 *416:96 *11542:BEN[27] 5.46879e-05
99 *420:50 *629:203 0.000314527
100 *420:50 *629:215 0.000284415
101 *420:50 *629:243 0.000417824
102 *433:82 *11542:BEN[28] 0.000382382
103 *456:57 *11542:BEN[30] 0
104 *456:57 *629:243 0
105 *456:57 *629:255 0
106 *461:36 *629:74 0.000245651
107 *463:36 *629:10 0.000659868
108 *463:36 *629:30 0.000575827
109 *465:46 *11542:BEN[30] 0
110 *474:80 *629:74 0.000147012
111 *483:44 *629:72 0.000176806
112 *483:44 *629:74 0.00053435
113 *558:129 *629:58 0.000771215
114 *558:129 *629:72 0.000903483
115 *558:141 *629:74 0.00355544
116 *558:155 *629:74 0.000135709
117 *558:257 *629:74 0.00056583
118 *558:277 *629:74 0.000697657
*RES
1 *11603:X *629:10 25.9429 
2 *629:10 *11515:BEN[28] 11.6071 
3 *11515:BEN[28] *629:17 0.21875 
4 *629:10 *629:30 17.3036 
5 *629:30 *11515:BEN[29] 5.42857 
6 *629:30 *629:44 21.2679 
7 *629:44 *11515:BEN[30] 4.75 
8 *629:44 *629:58 21.8571 
9 *629:58 *11515:BEN[31] 16.625 
10 *629:58 *629:72 12.6518 
11 *629:72 *629:74 311.589 
12 *629:74 *629:78 1.11607 
13 *629:78 *629:82 8.73214 
14 *629:82 *11533:BEN[24] 7.10714 
15 *629:82 *629:95 14.0357 
16 *629:95 *11533:BEN[25] 11.9643 
17 *629:95 *629:107 8.92857 
18 *629:107 *11533:BEN[26] 12.8929 
19 *629:107 *629:119 9.83929 
20 *629:119 *11533:BEN[27] 12.9107 
21 *629:119 *629:131 11.0536 
22 *629:131 *11533:BEN[28] 11.6071 
23 *11533:BEN[28] *629:138 0.145833 
24 *629:131 *629:143 9.83929 
25 *629:143 *11533:BEN[29] 11.6071 
26 *11533:BEN[29] *629:150 0.125 
27 *629:143 *629:155 8.625 
28 *629:155 *11533:BEN[30] 12.9643 
29 *629:155 *11533:BEN[31] 22.8214 
30 *629:78 *629:181 4.90107 
31 *629:181 *629:183 53.0881 
32 *629:183 *629:189 8.18679 
33 *629:189 *11542:BEN[24] 2.25 
34 *629:189 *629:203 22.2679 
35 *629:203 *11542:BEN[25] 14.5357 
36 *629:203 *629:215 8.92857 
37 *629:215 *629:219 12.0179 
38 *629:219 *11542:BEN[26] 1.71429 
39 *629:219 *11542:BEN[27] 19.9821 
40 *629:215 *629:243 19.25 
41 *629:243 *11542:BEN[28] 13.25 
42 *11542:BEN[28] *629:250 0.145833 
43 *629:243 *629:255 8.625 
44 *629:255 *11542:BEN[29] 14.5893 
45 *629:255 *11542:BEN[30] 24.4464 
46 *11542:BEN[30] *11542:BEN[31] 21.6964 
*END

*D_NET *630 0.168425
*CONN
*I *11533:BEN[23] I *D CF_SRAM_1024x32
*I *11533:BEN[22] I *D CF_SRAM_1024x32
*I *11533:BEN[21] I *D CF_SRAM_1024x32
*I *11533:BEN[20] I *D CF_SRAM_1024x32
*I *11533:BEN[19] I *D CF_SRAM_1024x32
*I *11533:BEN[18] I *D CF_SRAM_1024x32
*I *11533:BEN[17] I *D CF_SRAM_1024x32
*I *11542:BEN[23] I *D CF_SRAM_1024x32
*I *11542:BEN[22] I *D CF_SRAM_1024x32
*I *11542:BEN[21] I *D CF_SRAM_1024x32
*I *11542:BEN[20] I *D CF_SRAM_1024x32
*I *11542:BEN[19] I *D CF_SRAM_1024x32
*I *11542:BEN[18] I *D CF_SRAM_1024x32
*I *11542:BEN[17] I *D CF_SRAM_1024x32
*I *11542:BEN[16] I *D CF_SRAM_1024x32
*I *11533:BEN[16] I *D CF_SRAM_1024x32
*I *11515:BEN[23] I *D CF_SRAM_1024x32
*I *11515:BEN[22] I *D CF_SRAM_1024x32
*I *11515:BEN[21] I *D CF_SRAM_1024x32
*I *11515:BEN[20] I *D CF_SRAM_1024x32
*I *11604:X O *D sky130_fd_sc_hd__clkbuf_16
*CAP
1 *11533:BEN[23] 0.000934944
2 *11533:BEN[22] 0.000377298
3 *11533:BEN[21] 0.000377298
4 *11533:BEN[20] 0.000449118
5 *11533:BEN[19] 0.000475138
6 *11533:BEN[18] 0.000474205
7 *11533:BEN[17] 0.00041306
8 *11542:BEN[23] 0.00092021
9 *11542:BEN[22] 0.000491831
10 *11542:BEN[21] 0.000501609
11 *11542:BEN[20] 0.000501705
12 *11542:BEN[19] 0.000520767
13 *11542:BEN[18] 0.000541288
14 *11542:BEN[17] 0.000627212
15 *11542:BEN[16] 0.000687749
16 *11533:BEN[16] 0.000720997
17 *11515:BEN[23] 0.000972732
18 *11515:BEN[22] 0.000560754
19 *11515:BEN[21] 0.000535059
20 *11515:BEN[20] 0.000535992
21 *11604:X 0.000423148
22 *630:266 0.00186766
23 *630:253 0.00140505
24 *630:241 0.00160206
25 *630:225 0.00170098
26 *630:213 0.0014801
27 *630:201 0.00140292
28 *630:172 0.00179613
29 *630:159 0.00110988
30 *630:146 0.000948094
31 *630:134 0.00100951
32 *630:122 0.00103284
33 *630:110 0.00101532
34 *630:96 0.00242595
35 *630:92 0.0102057
36 *630:88 0.00863056
37 *630:86 0.000767917
38 *630:74 0.00810419
39 *630:72 0.00720994
40 *630:66 0.00144581
41 *630:54 0.00299367
42 *630:36 0.00135214
43 *630:22 0.000872748
44 *630:10 0.00114603
45 *630:54 *631:68 0.000668326
46 *630:66 *631:68 0.00464339
47 *630:74 *631:68 0.0123069
48 *630:74 *631:80 0.000453943
49 *630:74 *631:199 0.000524839
50 *1081:DIODE *630:72 2.59355e-05
51 *11238:S *630:66 0.000368111
52 *11241:S *630:66 0.000153054
53 *11246:S *630:66 0.000176234
54 *11515:DI[24] *630:66 4.15183e-05
55 *11515:DI[22] *11515:BEN[22] 5.99305e-05
56 *11515:DI[22] *630:54 1.64113e-05
57 *11515:DI[26] *630:66 4.11218e-05
58 *11533:CLKin *11533:BEN[17] 0
59 *11533:CLKin *630:92 0.0161283
60 *11533:TM *11533:BEN[16] 0
61 *11533:DI[18] *630:213 0.000114235
62 *11533:DI[16] *630:74 4.53834e-05
63 *11542:WLBI *11542:BEN[16] 0
64 *11542:CLKin *630:92 0.0148609
65 *11542:CLKin *630:96 0.00123461
66 *11542:TM *11542:BEN[16] 2.48721e-05
67 *141:38 *630:66 0.00044037
68 *217:11 *630:10 4.66781e-05
69 *277:15 *11533:BEN[16] 0
70 *279:15 *630:213 0
71 *279:15 *630:225 0
72 *282:11 *11533:BEN[20] 0
73 *292:11 *630:74 0.00107435
74 *292:11 *630:86 0.000220424
75 *292:11 *630:201 0.000183802
76 *309:19 *630:96 0.00031602
77 *309:116 *11542:BEN[16] 0
78 *310:7 *11542:BEN[17] 0
79 *310:52 *11542:BEN[17] 0
80 *311:9 *11542:BEN[18] 0
81 *315:9 *11542:BEN[21] 0
82 *394:60 *630:10 0.000612783
83 *394:60 *630:22 0.000765526
84 *394:60 *630:36 0.000648749
85 *405:44 *11542:BEN[16] 9.66725e-05
86 *405:44 *630:110 0.000198171
87 *405:44 *630:122 0.000255092
88 *405:44 *630:134 0.000289621
89 *405:44 *630:146 0.000311701
90 *405:44 *630:159 0.000310104
91 *405:44 *630:172 2.75651e-06
92 *405:48 *11542:BEN[21] 0.00021057
93 *420:50 *11542:BEN[23] 0.000267009
94 *420:50 *630:122 0.000167474
95 *420:50 *630:134 0.000292447
96 *420:50 *630:146 0.000314527
97 *420:50 *630:159 0.000314527
98 *420:50 *630:172 0.000298763
99 *422:102 *630:92 0.00575458
100 *422:102 *630:96 0.000692432
101 *427:64 *11542:BEN[16] 0.000140952
102 *427:64 *630:110 0.000289604
103 *427:64 *630:122 0.000136737
104 *463:36 *630:10 0.000611136
105 *463:36 *630:22 0.000774636
106 *463:36 *630:36 0.000657859
107 *476:64 *630:74 0.0191821
108 *483:44 *630:54 0.000148893
109 *483:44 *630:66 0.00105509
110 *491:44 *630:74 0.00355215
111 *558:129 *630:54 0.000505136
112 *558:129 *630:66 0.00183074
113 *629:74 *11533:BEN[23] 0
114 *629:74 *630:74 0
115 *629:74 *630:266 0
*RES
1 *11604:X *630:10 25.3357 
2 *630:10 *11515:BEN[20] 12.2143 
3 *630:10 *630:22 9.83929 
4 *630:22 *11515:BEN[21] 12.1964 
5 *630:22 *630:36 12.8214 
6 *630:36 *11515:BEN[22] 8.58929 
7 *630:36 *630:54 19.2321 
8 *630:54 *11515:BEN[23] 17.625 
9 *630:54 *630:66 59.0179 
10 *630:66 *630:72 9.94643 
11 *630:72 *630:74 267.268 
12 *630:74 *11533:BEN[16] 17.1429 
13 *630:74 *630:86 5.4375 
14 *630:86 *630:88 3.41 
15 *630:88 *630:92 48.9536 
16 *630:92 *630:96 8.89803 
17 *630:96 *11542:BEN[16] 18.0089 
18 *630:96 *630:110 6.65179 
19 *630:110 *11542:BEN[17] 14.6786 
20 *630:110 *630:122 8.625 
21 *630:122 *11542:BEN[18] 13.4464 
22 *630:122 *630:134 9.83929 
23 *630:134 *11542:BEN[19] 13.4286 
24 *630:134 *630:146 9.83929 
25 *630:146 *11542:BEN[20] 13.25 
26 *630:146 *630:159 9.83929 
27 *630:159 *11542:BEN[21] 13.25 
28 *630:159 *630:172 9.83929 
29 *630:172 *11542:BEN[22] 13.25 
30 *630:172 *11542:BEN[23] 23.1071 
31 *630:86 *630:201 14.0804 
32 *630:201 *11533:BEN[17] 7.73214 
33 *630:201 *630:213 13.125 
34 *630:213 *11533:BEN[18] 13.4643 
35 *630:213 *630:225 9.83929 
36 *630:225 *11533:BEN[19] 13.4821 
37 *630:225 *630:241 13.2321 
38 *630:241 *11533:BEN[20] 12.9821 
39 *630:241 *630:253 8.625 
40 *630:253 *11533:BEN[21] 11.6071 
41 *630:253 *630:266 9.83929 
42 *630:266 *11533:BEN[22] 11.6071 
43 *630:266 *11533:BEN[23] 21.4643 
*END

*D_NET *631 0.1528
*CONN
*I *11533:BEN[0] I *D CF_SRAM_1024x32
*I *11533:BEN[1] I *D CF_SRAM_1024x32
*I *11533:BEN[2] I *D CF_SRAM_1024x32
*I *11533:BEN[3] I *D CF_SRAM_1024x32
*I *11533:BEN[4] I *D CF_SRAM_1024x32
*I *11533:BEN[5] I *D CF_SRAM_1024x32
*I *11533:BEN[6] I *D CF_SRAM_1024x32
*I *11542:BEN[7] I *D CF_SRAM_1024x32
*I *11542:BEN[0] I *D CF_SRAM_1024x32
*I *11542:BEN[1] I *D CF_SRAM_1024x32
*I *11542:BEN[2] I *D CF_SRAM_1024x32
*I *11542:BEN[3] I *D CF_SRAM_1024x32
*I *11542:BEN[4] I *D CF_SRAM_1024x32
*I *11542:BEN[5] I *D CF_SRAM_1024x32
*I *11542:BEN[6] I *D CF_SRAM_1024x32
*I *11533:BEN[7] I *D CF_SRAM_1024x32
*I *11515:BEN[0] I *D CF_SRAM_1024x32
*I *11515:BEN[1] I *D CF_SRAM_1024x32
*I *11515:BEN[2] I *D CF_SRAM_1024x32
*I *11515:BEN[3] I *D CF_SRAM_1024x32
*I *11605:X O *D sky130_fd_sc_hd__clkbuf_16
*CAP
1 *11533:BEN[0] 0.000724637
2 *11533:BEN[1] 0.000486369
3 *11533:BEN[2] 0.000447503
4 *11533:BEN[3] 0.000416281
5 *11533:BEN[4] 0.000434876
6 *11533:BEN[5] 0.000509087
7 *11533:BEN[6] 0.000510063
8 *11542:BEN[7] 0.000279479
9 *11542:BEN[0] 0.000813789
10 *11542:BEN[1] 0.000629956
11 *11542:BEN[2] 0.000562023
12 *11542:BEN[3] 0.000592336
13 *11542:BEN[4] 0.000559263
14 *11542:BEN[5] 0.000550364
15 *11542:BEN[6] 0.00105243
16 *11533:BEN[7] 0.000879234
17 *11515:BEN[0] 0.000541958
18 *11515:BEN[1] 0.000534143
19 *11515:BEN[2] 0.000561696
20 *11515:BEN[3] 0.000525866
21 *11605:X 0.000522217
22 *631:265 0.00135554
23 *631:248 0.000774354
24 *631:235 0.000785578
25 *631:223 0.000766387
26 *631:211 0.000818989
27 *631:199 0.00120725
28 *631:159 0.00159868
29 *631:146 0.000947641
30 *631:134 0.00103437
31 *631:122 0.000949678
32 *631:110 0.00144996
33 *631:86 0.000611378
34 *631:84 0.018629
35 *631:82 0.018629
36 *631:80 0.000666871
37 *631:68 0.00838
38 *631:66 0.00811317
39 *631:50 0.00147247
40 *631:36 0.000924768
41 *631:24 0.000923093
42 *631:12 0.0012019
43 *11515:BEN[0] *11515:ScanInDL 0
44 *631:66 *11515:ScanInDL 0
45 *738:DIODE *631:68 3.25078e-05
46 *1081:DIODE *631:68 0.000112432
47 *1118:DIODE *11542:BEN[0] 0
48 *1142:DIODE *11542:BEN[1] 0
49 *1176:DIODE *631:68 6.34166e-05
50 *1184:DIODE *631:68 0.000189279
51 *11413:A *631:12 0
52 *11515:AD[0] *631:68 0.000160149
53 *11515:AD[4] *631:68 7.69776e-06
54 *11515:DI[27] *631:68 0.000359801
55 *11515:DI[19] *631:68 2.04825e-05
56 *11515:DI[21] *631:68 2.04825e-05
57 *11515:DI[28] *631:68 9.27418e-05
58 *11515:DI[18] *631:68 2.46553e-05
59 *11515:DI[16] *631:68 1.08359e-05
60 *11515:DI[25] *631:68 0.000165494
61 *11515:DI[30] *631:68 9.36119e-05
62 *11515:DI[22] *631:68 0.000296613
63 *11515:DI[20] *631:68 0.00021236
64 *11533:DI[3] *11533:BEN[3] 0
65 *11533:DI[5] *11533:BEN[5] 0
66 *11533:DI[6] *11533:BEN[6] 2.09869e-05
67 *11533:DI[10] *631:68 1.94879e-05
68 *11542:DI[1] *11542:BEN[0] 2.09826e-05
69 *11542:DI[6] *631:110 0
70 *11542:DI[2] *11542:BEN[2] 0
71 *11542:DI[7] *11542:BEN[7] 1.05901e-05
72 *11604:A *631:68 7.92879e-05
73 *141:14 *631:68 0.000172948
74 *141:24 *631:68 0.00252593
75 *228:20 *631:68 8.02536e-05
76 *228:22 *631:68 0.000328536
77 *273:14 *631:68 0.00472876
78 *280:9 *11533:BEN[0] 0
79 *291:11 *11533:BEN[1] 0
80 *304:69 *631:68 0.000153047
81 *312:5 *11542:BEN[0] 0
82 *318:25 *11542:BEN[6] 0
83 *323:7 *11542:BEN[1] 0
84 *327:9 *11542:BEN[6] 0.000165258
85 *327:9 *11542:BEN[7] 0.000265449
86 *329:21 *11542:BEN[7] 6.05161e-06
87 *329:51 *631:68 0.000198219
88 *330:7 *11542:BEN[6] 0
89 *330:21 *11542:BEN[6] 1.94945e-05
90 *330:21 *631:84 0.00258905
91 *331:95 *631:68 7.6644e-05
92 *353:10 *631:24 0.000657628
93 *353:10 *631:36 0.000940776
94 *353:10 *631:50 0.000767045
95 *357:10 *11533:BEN[0] 0
96 *383:62 *631:12 0.000688095
97 *387:58 *631:24 0.000657628
98 *387:58 *631:36 0.000949887
99 *387:58 *631:50 0.000776156
100 *394:54 *631:66 0.00130509
101 *394:68 *11533:BEN[0] 0.000363117
102 *394:68 *631:211 0.000784078
103 *394:68 *631:223 0.000677502
104 *394:68 *631:235 0.000765547
105 *394:68 *631:248 0.00074125
106 *394:68 *631:265 0.000677502
107 *396:102 *631:66 9.99931e-06
108 *396:102 *631:68 0.00152178
109 *405:44 *11542:BEN[0] 0.000321748
110 *405:44 *631:110 0.000314537
111 *405:44 *631:122 0.00031171
112 *405:44 *631:134 0.000267235
113 *405:44 *631:146 0.000307405
114 *405:44 *631:159 0.000261522
115 *427:64 *11542:BEN[0] 0.000361404
116 *463:36 *11533:BEN[0] 0.000808444
117 *463:36 *631:211 0.000784078
118 *463:36 *631:223 0.000686612
119 *463:36 *631:235 0.000774657
120 *463:36 *631:248 0.00075036
121 *463:36 *631:265 0.000686612
122 *463:73 *11542:BEN[0] 0.000157906
123 *463:73 *631:110 0.000798586
124 *463:73 *631:122 0.000798586
125 *463:73 *631:134 0.000735202
126 *463:73 *631:146 0.000834845
127 *463:73 *631:159 0.000674117
128 *467:82 *631:110 0.000179097
129 *467:82 *631:122 0.000179097
130 *467:82 *631:159 0.000151469
131 *476:52 *631:68 0.00126437
132 *476:62 *631:68 0.00181941
133 *476:64 *631:68 0.00169508
134 *491:44 *631:68 0.00314641
135 *491:44 *631:199 0.000114414
136 *552:30 *631:68 1.9036e-05
137 *552:50 *631:68 0.000298228
138 *552:70 *631:68 0.000652967
139 *555:20 *631:68 0.000237746
140 *558:127 *631:12 0.000351904
141 *558:129 *631:66 0.00133687
142 *558:129 *631:68 0.00116466
143 *558:141 *631:68 0.000121894
144 *629:74 *631:68 0.00149475
145 *629:74 *631:80 0.000167607
146 *629:74 *631:199 0.000192038
147 *630:54 *631:68 0.000668326
148 *630:66 *631:68 0.00464339
149 *630:74 *631:68 0.0123069
150 *630:74 *631:80 0.000453943
151 *630:74 *631:199 0.000524839
*RES
1 *11605:X *631:12 31.05 
2 *631:12 *11515:BEN[3] 7.70536 
3 *631:12 *631:24 12.8214 
4 *631:24 *11515:BEN[2] 13.0804 
5 *631:24 *631:36 11.9643 
6 *631:36 *11515:BEN[1] 12.3661 
7 *631:36 *631:50 14.3393 
8 *631:50 *11515:BEN[0] 7.84821 
9 *631:50 *631:66 26.9554 
10 *631:66 *631:68 305.973 
11 *631:68 *11533:BEN[7] 17.6518 
12 *631:68 *631:80 5.74107 
13 *631:80 *631:82 3.41 
14 *631:82 *631:84 52.9439 
15 *631:84 *631:86 3.41 
16 *631:86 *11542:BEN[6] 12 
17 *11542:BEN[6] *631:110 23.2946 
18 *631:110 *11542:BEN[5] 13.4375 
19 *631:110 *631:122 9.83929 
20 *631:122 *11542:BEN[4] 13.4196 
21 *631:122 *631:134 9.23214 
22 *631:134 *11542:BEN[3] 14.2411 
23 *631:134 *631:146 10.4464 
24 *631:146 *11542:BEN[2] 13.6607 
25 *631:146 *631:159 8.32143 
26 *631:159 *11542:BEN[1] 14.7768 
27 *631:159 *11542:BEN[0] 24.6339 
28 *631:86 *11542:BEN[7] 10.1964 
29 *631:80 *631:199 16.2054 
30 *631:199 *11533:BEN[6] 8.52679 
31 *631:199 *631:211 14.3393 
32 *631:211 *11533:BEN[5] 13.0089 
33 *631:211 *631:223 8.625 
34 *631:223 *11533:BEN[4] 11.7768 
35 *631:223 *631:235 9.83929 
36 *631:235 *11533:BEN[3] 11.6071 
37 *631:235 *631:248 9.53571 
38 *631:248 *11533:BEN[2] 12.5714 
39 *631:248 *631:265 8.625 
40 *631:265 *11533:BEN[1] 13.1339 
41 *631:265 *11533:BEN[0] 22.9911 
*END

*D_NET *632 0.00165726
*CONN
*I *11515:SM I *D CF_SRAM_1024x32
*I *11518:LO O *D sky130_fd_sc_hd__conb_1
*CAP
1 *11515:SM 0.000828631
2 *11518:LO 0.000828631
3 *11515:SM *11515:ScanInDR 0
4 *474:78 *11515:SM 0
*RES
1 *11518:LO *11515:SM 20.5187 
*END

*D_NET *633 0.0348766
*CONN
*I *11336:A I *D sky130_fd_sc_hd__buf_12
*I *11602:X O *D sky130_fd_sc_hd__buf_12
*CAP
1 *11336:A 0.000424164
2 *11602:X 0.000701773
3 *633:20 0.00574134
4 *633:18 0.00597215
5 *633:12 0.00421737
6 *633:10 0.00426417
7 *11207:B *633:18 9.66977e-05
8 *11334:A *11336:A 0.000186669
9 *11335:A *633:10 0
10 *11374:A *633:10 6.14594e-05
11 *11430:A *11336:A 6.10501e-05
12 *11430:A *633:20 0.00334122
13 *11495:A *633:10 0
14 *11602:A *633:10 0
15 *119:16 *633:10 0.000123295
16 *201:46 *633:10 4.66107e-05
17 *567:35 *633:12 0.00329065
18 *579:12 *633:12 0.00112104
19 *579:12 *633:18 0.0014639
20 *579:12 *633:20 0.00247748
21 *581:12 *11336:A 0.000622947
22 *581:12 *633:20 2.13481e-06
23 *586:34 *633:10 0
24 *590:12 *633:10 0
25 *591:51 *633:10 0.000660474
*RES
1 *11602:X *633:10 32.3893 
2 *633:10 *633:12 51.0536 
3 *633:12 *633:18 14.7411 
4 *633:18 *633:20 75.4911 
5 *633:20 *11336:A 21.1393 
*END

*D_NET *634 0.00220735
*CONN
*I *11515:ScanInCC I *D CF_SRAM_1024x32
*I *11519:LO O *D sky130_fd_sc_hd__conb_1
*CAP
1 *11515:ScanInCC 0.000515684
2 *11519:LO 0.000515684
3 *699:DIODE *11515:ScanInCC 0
4 *11515:AD[3] *11515:ScanInCC 0.000703267
5 *205:7 *11515:ScanInCC 0
6 *385:79 *11515:ScanInCC 6.14834e-05
7 *387:64 *11515:ScanInCC 1.57547e-05
8 *478:28 *11515:ScanInCC 0.000382143
9 *478:33 *11515:ScanInCC 1.33343e-05
*RES
1 *11519:LO *11515:ScanInCC 20.6304 
*END

*D_NET *635 0.00164785
*CONN
*I *11515:ScanInDL I *D CF_SRAM_1024x32
*I *11520:LO O *D sky130_fd_sc_hd__conb_1
*CAP
1 *11515:ScanInDL 0.000823925
2 *11520:LO 0.000823925
3 *11515:BEN[0] *11515:ScanInDL 0
4 *11515:DI[0] *11515:ScanInDL 0
5 *631:66 *11515:ScanInDL 0
*RES
1 *11520:LO *11515:ScanInDL 21.3625 
*END

*D_NET *636 0.0026726
*CONN
*I *11515:ScanInDR I *D CF_SRAM_1024x32
*I *11521:LO O *D sky130_fd_sc_hd__conb_1
*CAP
1 *11515:ScanInDR 0.000686982
2 *11521:LO 0.000686982
3 *11515:SM *11515:ScanInDR 0
4 *11515:DI[16] *11515:ScanInDR 0.000135028
5 *212:12 *11515:ScanInDR 0.000962663
6 *378:89 *11515:ScanInDR 0.000101233
7 *461:36 *11515:ScanInDR 9.97164e-05
*RES
1 *11521:LO *11515:ScanInDR 31.6214 
*END

*D_NET *637 0.00272387
*CONN
*I *11515:TM I *D CF_SRAM_1024x32
*I *11522:LO O *D sky130_fd_sc_hd__conb_1
*CAP
1 *11515:TM 0.000800929
2 *11522:LO 0.000800929
3 *11515:TM *11515:WLBI 0.00112202
4 *11515:BEN[16] *11515:TM 0
*RES
1 *11522:LO *11515:TM 23.2911 
*END

*D_NET *638 0.00290086
*CONN
*I *11515:WLBI I *D CF_SRAM_1024x32
*I *11523:LO O *D sky130_fd_sc_hd__conb_1
*CAP
1 *11515:WLBI 0.000408088
2 *11523:LO 0.000408088
3 *11515:BEN[16] *11515:WLBI 0
4 *11515:TM *11515:WLBI 0.00112202
5 *213:18 *11515:WLBI 0.000962663
*RES
1 *11523:LO *11515:WLBI 21.5902 
*END

*D_NET *639 0.00163255
*CONN
*I *11524:SM I *D CF_SRAM_1024x32
*I *11528:LO O *D sky130_fd_sc_hd__conb_1
*CAP
1 *11524:SM 0.000766588
2 *11528:LO 0.000766588
3 *11524:SM *11524:ScanInDR 0
4 *837:DIODE *11524:SM 9.85753e-06
5 *244:93 *11524:SM 7.6698e-05
6 *427:24 *11524:SM 1.28171e-05
*RES
1 *11528:LO *11524:SM 21.6616 
*END

*D_NET *640 0.00159244
*CONN
*I *11524:ScanInCC I *D CF_SRAM_1024x32
*I *11529:LO O *D sky130_fd_sc_hd__conb_1
*CAP
1 *11524:ScanInCC 0.000612166
2 *11529:LO 0.000612166
3 *11524:AD[3] *11524:ScanInCC 4.35306e-05
4 *237:7 *11524:ScanInCC 0
5 *237:57 *11524:ScanInCC 0
6 *478:78 *11524:ScanInCC 0.000324577
*RES
1 *11529:LO *11524:ScanInCC 20.6304 
*END

*D_NET *641 0.00156896
*CONN
*I *11524:ScanInDL I *D CF_SRAM_1024x32
*I *11530:LO O *D sky130_fd_sc_hd__conb_1
*CAP
1 *11524:ScanInDL 0.000784479
2 *11530:LO 0.000784479
3 *11524:BEN[0] *11524:ScanInDL 0
*RES
1 *11530:LO *11524:ScanInDL 21.0946 
*END

*D_NET *642 0.00175416
*CONN
*I *11524:ScanInDR I *D CF_SRAM_1024x32
*I *11531:LO O *D sky130_fd_sc_hd__conb_1
*CAP
1 *11524:ScanInDR 0.000650997
2 *11531:LO 0.000650997
3 *11524:SM *11524:ScanInDR 0
4 *11524:DI[16] *11524:ScanInDR 0
5 *244:9 *11524:ScanInDR 7.32658e-05
6 *244:93 *11524:ScanInDR 0.00019883
7 *244:97 *11524:ScanInDR 0.000180066
8 *418:72 *11524:ScanInDR 0
*RES
1 *11531:LO *11524:ScanInDR 21.5857 
*END

*D_NET *643 0.00241469
*CONN
*I *11524:TM I *D CF_SRAM_1024x32
*I *11532:LO O *D sky130_fd_sc_hd__conb_1
*CAP
1 *11524:TM 0.000799715
2 *11532:LO 0.000799715
3 *11524:BEN[16] *11524:TM 3.08179e-05
4 *11524:WLBI *11524:TM 0.000745374
5 *245:120 *11524:TM 2.60054e-05
6 *245:140 *11524:TM 1.30607e-05
*RES
1 *11532:LO *11524:TM 23.5411 
*END
