*SPEF "ieee 1481-1999"
*DESIGN "CF_SRAM_4096x32"
*DATE "19:58:19 Sunday September 20, 2026"
*VENDOR "The OpenROAD Project"
*PROGRAM "OpenROAD"
*VERSION "edf00dff99f6c40d67a30c0e22a8191c5d2ed9d6"
*DESIGN_FLOW "NAME_SCOPE LOCAL" "PIN_CAP NONE"
*DIVIDER /
*DELIMITER :
*BUS_DELIMITER []
*T_UNIT 1 NS
*C_UNIT 1 PF
*R_UNIT 1 OHM
*L_UNIT 1 HENRY

*NAME_MAP
*3 wb_clk_i
*4 wb_rst_i
*5 wbs_ack_o
*6 wbs_adr_i[0]
*7 wbs_adr_i[10]
*8 wbs_adr_i[11]
*9 wbs_adr_i[12]
*10 wbs_adr_i[13]
*11 wbs_adr_i[14]
*12 wbs_adr_i[15]
*13 wbs_adr_i[16]
*14 wbs_adr_i[17]
*15 wbs_adr_i[18]
*16 wbs_adr_i[19]
*17 wbs_adr_i[1]
*18 wbs_adr_i[20]
*19 wbs_adr_i[21]
*20 wbs_adr_i[22]
*21 wbs_adr_i[23]
*22 wbs_adr_i[24]
*23 wbs_adr_i[25]
*24 wbs_adr_i[26]
*25 wbs_adr_i[27]
*26 wbs_adr_i[28]
*27 wbs_adr_i[29]
*28 wbs_adr_i[2]
*29 wbs_adr_i[30]
*30 wbs_adr_i[31]
*31 wbs_adr_i[3]
*32 wbs_adr_i[4]
*33 wbs_adr_i[5]
*34 wbs_adr_i[6]
*35 wbs_adr_i[7]
*36 wbs_adr_i[8]
*37 wbs_adr_i[9]
*38 wbs_cyc_i
*39 wbs_dat_i[0]
*40 wbs_dat_i[10]
*41 wbs_dat_i[11]
*42 wbs_dat_i[12]
*43 wbs_dat_i[13]
*44 wbs_dat_i[14]
*45 wbs_dat_i[15]
*46 wbs_dat_i[16]
*47 wbs_dat_i[17]
*48 wbs_dat_i[18]
*49 wbs_dat_i[19]
*50 wbs_dat_i[1]
*51 wbs_dat_i[20]
*52 wbs_dat_i[21]
*53 wbs_dat_i[22]
*54 wbs_dat_i[23]
*55 wbs_dat_i[24]
*56 wbs_dat_i[25]
*57 wbs_dat_i[26]
*58 wbs_dat_i[27]
*59 wbs_dat_i[28]
*60 wbs_dat_i[29]
*61 wbs_dat_i[2]
*62 wbs_dat_i[30]
*63 wbs_dat_i[31]
*64 wbs_dat_i[3]
*65 wbs_dat_i[4]
*66 wbs_dat_i[5]
*67 wbs_dat_i[6]
*68 wbs_dat_i[7]
*69 wbs_dat_i[8]
*70 wbs_dat_i[9]
*71 wbs_dat_o[0]
*72 wbs_dat_o[10]
*73 wbs_dat_o[11]
*74 wbs_dat_o[12]
*75 wbs_dat_o[13]
*76 wbs_dat_o[14]
*77 wbs_dat_o[15]
*78 wbs_dat_o[16]
*79 wbs_dat_o[17]
*80 wbs_dat_o[18]
*81 wbs_dat_o[19]
*82 wbs_dat_o[1]
*83 wbs_dat_o[20]
*84 wbs_dat_o[21]
*85 wbs_dat_o[22]
*86 wbs_dat_o[23]
*87 wbs_dat_o[24]
*88 wbs_dat_o[25]
*89 wbs_dat_o[26]
*90 wbs_dat_o[27]
*91 wbs_dat_o[28]
*92 wbs_dat_o[29]
*93 wbs_dat_o[2]
*94 wbs_dat_o[30]
*95 wbs_dat_o[31]
*96 wbs_dat_o[3]
*97 wbs_dat_o[4]
*98 wbs_dat_o[5]
*99 wbs_dat_o[6]
*100 wbs_dat_o[7]
*101 wbs_dat_o[8]
*102 wbs_dat_o[9]
*103 wbs_sel_i[0]
*104 wbs_sel_i[1]
*105 wbs_sel_i[2]
*106 wbs_sel_i[3]
*107 wbs_stb_i
*108 wbs_we_i
*109 _000_
*110 _001_
*111 _002_
*112 _003_
*113 _004_
*114 _005_
*115 _006_
*116 _007_
*117 _008_
*118 _009_
*119 _010_
*120 _011_
*121 _012_
*122 _013_
*123 _014_
*124 _015_
*125 _016_
*126 _017_
*127 _018_
*128 _019_
*129 _020_
*130 _021_
*131 _022_
*132 _023_
*133 _024_
*134 _025_
*135 _026_
*136 _027_
*137 _028_
*138 _029_
*139 _030_
*140 _031_
*141 _032_
*142 _033_
*143 _034_
*144 _035_
*145 _036_
*146 _037_
*147 _038_
*148 _039_
*149 _040_
*150 _041_
*151 _042_
*152 _043_
*153 _044_
*154 _045_
*155 _046_
*156 _047_
*157 _048_
*158 _049_
*159 _050_
*160 _051_
*161 _052_
*162 _053_
*163 _054_
*164 _055_
*165 _056_
*166 _057_
*167 _058_
*168 _059_
*169 _060_
*170 _061_
*171 _062_
*172 _063_
*173 _064_
*174 _065_
*175 _066_
*176 _067_
*177 clknet_0_wb_clk_i
*178 clknet_1_0__leaf_wb_clk_i
*179 clknet_1_1__leaf_wb_clk_i
*180 i_ram_wb_controller\.EN
*181 i_ram_wb_controller\.R_WB
*182 i_sram\.sram_cs\[0\]
*183 i_sram\.sram_cs\[1\]
*184 i_sram\.sram_cs\[2\]
*185 i_sram\.sram_cs\[3\]
*186 i_sram\.sram_do_0\[0\]
*187 i_sram\.sram_do_0\[10\]
*188 i_sram\.sram_do_0\[11\]
*189 i_sram\.sram_do_0\[12\]
*190 i_sram\.sram_do_0\[13\]
*191 i_sram\.sram_do_0\[14\]
*192 i_sram\.sram_do_0\[15\]
*193 i_sram\.sram_do_0\[16\]
*194 i_sram\.sram_do_0\[17\]
*195 i_sram\.sram_do_0\[18\]
*196 i_sram\.sram_do_0\[19\]
*197 i_sram\.sram_do_0\[1\]
*198 i_sram\.sram_do_0\[20\]
*199 i_sram\.sram_do_0\[21\]
*200 i_sram\.sram_do_0\[22\]
*201 i_sram\.sram_do_0\[23\]
*202 i_sram\.sram_do_0\[24\]
*203 i_sram\.sram_do_0\[25\]
*204 i_sram\.sram_do_0\[26\]
*205 i_sram\.sram_do_0\[27\]
*206 i_sram\.sram_do_0\[28\]
*207 i_sram\.sram_do_0\[29\]
*208 i_sram\.sram_do_0\[2\]
*209 i_sram\.sram_do_0\[30\]
*210 i_sram\.sram_do_0\[31\]
*211 i_sram\.sram_do_0\[3\]
*212 i_sram\.sram_do_0\[4\]
*213 i_sram\.sram_do_0\[5\]
*214 i_sram\.sram_do_0\[6\]
*215 i_sram\.sram_do_0\[7\]
*216 i_sram\.sram_do_0\[8\]
*217 i_sram\.sram_do_0\[9\]
*218 i_sram\.sram_do_1\[0\]
*219 i_sram\.sram_do_1\[10\]
*220 i_sram\.sram_do_1\[11\]
*221 i_sram\.sram_do_1\[12\]
*222 i_sram\.sram_do_1\[13\]
*223 i_sram\.sram_do_1\[14\]
*224 i_sram\.sram_do_1\[15\]
*225 i_sram\.sram_do_1\[16\]
*226 i_sram\.sram_do_1\[17\]
*227 i_sram\.sram_do_1\[18\]
*228 i_sram\.sram_do_1\[19\]
*229 i_sram\.sram_do_1\[1\]
*230 i_sram\.sram_do_1\[20\]
*231 i_sram\.sram_do_1\[21\]
*232 i_sram\.sram_do_1\[22\]
*233 i_sram\.sram_do_1\[23\]
*234 i_sram\.sram_do_1\[24\]
*235 i_sram\.sram_do_1\[25\]
*236 i_sram\.sram_do_1\[26\]
*237 i_sram\.sram_do_1\[27\]
*238 i_sram\.sram_do_1\[28\]
*239 i_sram\.sram_do_1\[29\]
*240 i_sram\.sram_do_1\[2\]
*241 i_sram\.sram_do_1\[30\]
*242 i_sram\.sram_do_1\[31\]
*243 i_sram\.sram_do_1\[3\]
*244 i_sram\.sram_do_1\[4\]
*245 i_sram\.sram_do_1\[5\]
*246 i_sram\.sram_do_1\[6\]
*247 i_sram\.sram_do_1\[7\]
*248 i_sram\.sram_do_1\[8\]
*249 i_sram\.sram_do_1\[9\]
*250 i_sram\.sram_do_2\[0\]
*251 i_sram\.sram_do_2\[10\]
*252 i_sram\.sram_do_2\[11\]
*253 i_sram\.sram_do_2\[12\]
*254 i_sram\.sram_do_2\[13\]
*255 i_sram\.sram_do_2\[14\]
*256 i_sram\.sram_do_2\[15\]
*257 i_sram\.sram_do_2\[16\]
*258 i_sram\.sram_do_2\[17\]
*259 i_sram\.sram_do_2\[18\]
*260 i_sram\.sram_do_2\[19\]
*261 i_sram\.sram_do_2\[1\]
*262 i_sram\.sram_do_2\[20\]
*263 i_sram\.sram_do_2\[21\]
*264 i_sram\.sram_do_2\[22\]
*265 i_sram\.sram_do_2\[23\]
*266 i_sram\.sram_do_2\[24\]
*267 i_sram\.sram_do_2\[25\]
*268 i_sram\.sram_do_2\[26\]
*269 i_sram\.sram_do_2\[27\]
*270 i_sram\.sram_do_2\[28\]
*271 i_sram\.sram_do_2\[29\]
*272 i_sram\.sram_do_2\[2\]
*273 i_sram\.sram_do_2\[30\]
*274 i_sram\.sram_do_2\[31\]
*275 i_sram\.sram_do_2\[3\]
*276 i_sram\.sram_do_2\[4\]
*277 i_sram\.sram_do_2\[5\]
*278 i_sram\.sram_do_2\[6\]
*279 i_sram\.sram_do_2\[7\]
*280 i_sram\.sram_do_2\[8\]
*281 i_sram\.sram_do_2\[9\]
*282 i_sram\.sram_do_3\[0\]
*283 i_sram\.sram_do_3\[10\]
*284 i_sram\.sram_do_3\[11\]
*285 i_sram\.sram_do_3\[12\]
*286 i_sram\.sram_do_3\[13\]
*287 i_sram\.sram_do_3\[14\]
*288 i_sram\.sram_do_3\[15\]
*289 i_sram\.sram_do_3\[16\]
*290 i_sram\.sram_do_3\[17\]
*291 i_sram\.sram_do_3\[18\]
*292 i_sram\.sram_do_3\[19\]
*293 i_sram\.sram_do_3\[1\]
*294 i_sram\.sram_do_3\[20\]
*295 i_sram\.sram_do_3\[21\]
*296 i_sram\.sram_do_3\[22\]
*297 i_sram\.sram_do_3\[23\]
*298 i_sram\.sram_do_3\[24\]
*299 i_sram\.sram_do_3\[25\]
*300 i_sram\.sram_do_3\[26\]
*301 i_sram\.sram_do_3\[27\]
*302 i_sram\.sram_do_3\[28\]
*303 i_sram\.sram_do_3\[29\]
*304 i_sram\.sram_do_3\[2\]
*305 i_sram\.sram_do_3\[30\]
*306 i_sram\.sram_do_3\[31\]
*307 i_sram\.sram_do_3\[3\]
*308 i_sram\.sram_do_3\[4\]
*309 i_sram\.sram_do_3\[5\]
*310 i_sram\.sram_do_3\[6\]
*311 i_sram\.sram_do_3\[7\]
*312 i_sram\.sram_do_3\[8\]
*313 i_sram\.sram_do_3\[9\]
*314 i_sram\.sram_scan_out_cc_0
*315 i_sram\.sram_scan_out_cc_1
*316 i_sram\.sram_scan_out_cc_2
*317 i_sram\.sram_scan_out_cc_3
*318 net1
*319 net10
*320 net100
*321 net101
*322 net102
*323 net103
*324 net104
*325 net105
*326 net106
*327 net107
*328 net108
*329 net109
*330 net11
*331 net110
*332 net111
*333 net112
*334 net113
*335 net114
*336 net115
*337 net116
*338 net117
*339 net118
*340 net119
*341 net12
*342 net120
*343 net121
*344 net122
*345 net123
*346 net124
*347 net125
*348 net126
*349 net127
*350 net128
*351 net129
*352 net13
*353 net130
*354 net131
*355 net132
*356 net133
*357 net134
*358 net135
*359 net136
*360 net137
*361 net138
*362 net139
*363 net14
*364 net140
*365 net141
*366 net142
*367 net143
*368 net144
*369 net145
*370 net146
*371 net147
*372 net148
*373 net149
*374 net15
*375 net150
*376 net151
*377 net152
*378 net153
*379 net154
*380 net155
*381 net156
*382 net157
*383 net158
*384 net159
*385 net16
*386 net160
*387 net161
*388 net162
*389 net163
*390 net164
*391 net165
*392 net166
*393 net167
*394 net168
*395 net169
*396 net17
*397 net170
*398 net171
*399 net172
*400 net173
*401 net174
*402 net175
*403 net176
*404 net177
*405 net178
*406 net179
*407 net18
*408 net180
*409 net181
*410 net182
*411 net183
*412 net184
*413 net185
*414 net186
*415 net187
*416 net188
*417 net189
*418 net19
*419 net190
*420 net191
*421 net192
*422 net193
*423 net194
*424 net195
*425 net196
*426 net197
*427 net198
*428 net199
*429 net2
*430 net20
*431 net200
*432 net201
*433 net202
*434 net203
*435 net204
*436 net205
*437 net206
*438 net207
*439 net208
*440 net209
*441 net21
*442 net210
*443 net211
*444 net212
*445 net213
*446 net214
*447 net215
*448 net216
*449 net217
*450 net218
*451 net219
*452 net22
*453 net220
*454 net221
*455 net222
*456 net223
*457 net224
*458 net225
*459 net226
*460 net227
*461 net228
*462 net229
*463 net23
*464 net230
*465 net231
*466 net232
*467 net233
*468 net234
*469 net235
*470 net236
*471 net237
*472 net238
*473 net239
*474 net24
*475 net240
*476 net241
*477 net242
*478 net243
*479 net244
*480 net245
*481 net246
*482 net247
*483 net248
*484 net249
*485 net25
*486 net250
*487 net251
*488 net252
*489 net253
*490 net254
*491 net255
*492 net256
*493 net257
*494 net258
*495 net259
*496 net26
*497 net260
*498 net261
*499 net262
*500 net263
*501 net264
*502 net265
*503 net266
*504 net267
*505 net268
*506 net269
*507 net27
*508 net270
*509 net271
*510 net272
*511 net273
*512 net274
*513 net275
*514 net276
*515 net277
*516 net278
*517 net279
*518 net28
*519 net280
*520 net281
*521 net282
*522 net283
*523 net284
*524 net285
*525 net286
*526 net287
*527 net288
*528 net289
*529 net29
*530 net290
*531 net291
*532 net292
*533 net293
*534 net294
*535 net295
*536 net296
*537 net297
*538 net298
*539 net299
*540 net3
*541 net30
*542 net300
*543 net301
*544 net302
*545 net303
*546 net304
*547 net305
*548 net306
*549 net307
*550 net308
*551 net309
*552 net31
*553 net310
*554 net311
*555 net312
*556 net313
*557 net314
*558 net315
*559 net316
*560 net317
*561 net318
*562 net319
*563 net32
*564 net320
*565 net321
*566 net322
*567 net33
*568 net34
*569 net35
*570 net36
*571 net37
*572 net38
*573 net39
*574 net4
*575 net40
*576 net41
*577 net42
*578 net43
*579 net44
*580 net45
*581 net46
*582 net47
*583 net48
*584 net49
*585 net5
*586 net50
*587 net51
*588 net52
*589 net53
*590 net54
*591 net55
*592 net56
*593 net57
*594 net58
*595 net59
*596 net6
*597 net60
*598 net61
*599 net62
*600 net63
*601 net64
*602 net65
*603 net66
*604 net67
*605 net68
*606 net69
*607 net7
*608 net70
*609 net71
*610 net72
*611 net73
*612 net74
*613 net75
*614 net76
*615 net77
*616 net78
*617 net79
*618 net8
*619 net80
*620 net81
*621 net82
*622 net83
*623 net84
*624 net85
*625 net86
*626 net87
*627 net88
*628 net89
*629 net9
*630 net90
*631 net91
*632 net92
*633 net93
*634 net94
*635 net95
*636 net96
*637 net97
*638 net98
*639 net99
*640 ANTENNA_1
*641 ANTENNA_10
*642 ANTENNA_100
*643 ANTENNA_101
*644 ANTENNA_102
*645 ANTENNA_103
*646 ANTENNA_104
*647 ANTENNA_105
*648 ANTENNA_106
*649 ANTENNA_107
*650 ANTENNA_108
*651 ANTENNA_109
*652 ANTENNA_11
*653 ANTENNA_110
*654 ANTENNA_111
*655 ANTENNA_112
*656 ANTENNA_113
*657 ANTENNA_114
*658 ANTENNA_115
*659 ANTENNA_116
*660 ANTENNA_117
*661 ANTENNA_118
*662 ANTENNA_119
*663 ANTENNA_12
*664 ANTENNA_120
*665 ANTENNA_121
*666 ANTENNA_122
*667 ANTENNA_123
*668 ANTENNA_124
*669 ANTENNA_125
*670 ANTENNA_126
*671 ANTENNA_127
*672 ANTENNA_128
*673 ANTENNA_129
*674 ANTENNA_13
*675 ANTENNA_130
*676 ANTENNA_131
*677 ANTENNA_132
*678 ANTENNA_133
*679 ANTENNA_134
*680 ANTENNA_135
*681 ANTENNA_136
*682 ANTENNA_137
*683 ANTENNA_138
*684 ANTENNA_139
*685 ANTENNA_14
*686 ANTENNA_140
*687 ANTENNA_141
*688 ANTENNA_142
*689 ANTENNA_143
*690 ANTENNA_144
*691 ANTENNA_145
*692 ANTENNA_146
*693 ANTENNA_147
*694 ANTENNA_148
*695 ANTENNA_149
*696 ANTENNA_15
*697 ANTENNA_150
*698 ANTENNA_151
*699 ANTENNA_152
*700 ANTENNA_153
*701 ANTENNA_154
*702 ANTENNA_155
*703 ANTENNA_156
*704 ANTENNA_157
*705 ANTENNA_158
*706 ANTENNA_159
*707 ANTENNA_16
*708 ANTENNA_160
*709 ANTENNA_161
*710 ANTENNA_162
*711 ANTENNA_163
*712 ANTENNA_164
*713 ANTENNA_165
*714 ANTENNA_166
*715 ANTENNA_167
*716 ANTENNA_168
*717 ANTENNA_169
*718 ANTENNA_17
*719 ANTENNA_170
*720 ANTENNA_171
*721 ANTENNA_172
*722 ANTENNA_173
*723 ANTENNA_174
*724 ANTENNA_175
*725 ANTENNA_176
*726 ANTENNA_177
*727 ANTENNA_178
*728 ANTENNA_179
*729 ANTENNA_18
*730 ANTENNA_180
*731 ANTENNA_181
*732 ANTENNA_182
*733 ANTENNA_183
*734 ANTENNA_184
*735 ANTENNA_185
*736 ANTENNA_186
*737 ANTENNA_187
*738 ANTENNA_188
*739 ANTENNA_189
*740 ANTENNA_19
*741 ANTENNA_190
*742 ANTENNA_191
*743 ANTENNA_192
*744 ANTENNA_193
*745 ANTENNA_194
*746 ANTENNA_195
*747 ANTENNA_196
*748 ANTENNA_197
*749 ANTENNA_198
*750 ANTENNA_199
*751 ANTENNA_2
*752 ANTENNA_20
*753 ANTENNA_200
*754 ANTENNA_201
*755 ANTENNA_202
*756 ANTENNA_203
*757 ANTENNA_204
*758 ANTENNA_205
*759 ANTENNA_206
*760 ANTENNA_207
*761 ANTENNA_208
*762 ANTENNA_209
*763 ANTENNA_21
*764 ANTENNA_210
*765 ANTENNA_211
*766 ANTENNA_212
*767 ANTENNA_213
*768 ANTENNA_214
*769 ANTENNA_215
*770 ANTENNA_216
*771 ANTENNA_217
*772 ANTENNA_218
*773 ANTENNA_219
*774 ANTENNA_22
*775 ANTENNA_220
*776 ANTENNA_221
*777 ANTENNA_222
*778 ANTENNA_223
*779 ANTENNA_224
*780 ANTENNA_225
*781 ANTENNA_226
*782 ANTENNA_227
*783 ANTENNA_228
*784 ANTENNA_229
*785 ANTENNA_23
*786 ANTENNA_230
*787 ANTENNA_231
*788 ANTENNA_232
*789 ANTENNA_233
*790 ANTENNA_234
*791 ANTENNA_235
*792 ANTENNA_236
*793 ANTENNA_237
*794 ANTENNA_238
*795 ANTENNA_239
*796 ANTENNA_24
*797 ANTENNA_240
*798 ANTENNA_241
*799 ANTENNA_242
*800 ANTENNA_243
*801 ANTENNA_244
*802 ANTENNA_245
*803 ANTENNA_246
*804 ANTENNA_247
*805 ANTENNA_248
*806 ANTENNA_249
*807 ANTENNA_25
*808 ANTENNA_250
*809 ANTENNA_251
*810 ANTENNA_252
*811 ANTENNA_253
*812 ANTENNA_254
*813 ANTENNA_255
*814 ANTENNA_256
*815 ANTENNA_257
*816 ANTENNA_258
*817 ANTENNA_259
*818 ANTENNA_26
*819 ANTENNA_260
*820 ANTENNA_261
*821 ANTENNA_262
*822 ANTENNA_263
*823 ANTENNA_264
*824 ANTENNA_265
*825 ANTENNA_266
*826 ANTENNA_267
*827 ANTENNA_268
*828 ANTENNA_269
*829 ANTENNA_27
*830 ANTENNA_270
*831 ANTENNA_271
*832 ANTENNA_272
*833 ANTENNA_273
*834 ANTENNA_274
*835 ANTENNA_275
*836 ANTENNA_276
*837 ANTENNA_277
*838 ANTENNA_278
*839 ANTENNA_279
*840 ANTENNA_28
*841 ANTENNA_280
*842 ANTENNA_281
*843 ANTENNA_282
*844 ANTENNA_283
*845 ANTENNA_284
*846 ANTENNA_285
*847 ANTENNA_286
*848 ANTENNA_287
*849 ANTENNA_288
*850 ANTENNA_289
*851 ANTENNA_29
*852 ANTENNA_290
*853 ANTENNA_291
*854 ANTENNA_292
*855 ANTENNA_293
*856 ANTENNA_294
*857 ANTENNA_295
*858 ANTENNA_296
*859 ANTENNA_297
*860 ANTENNA_298
*861 ANTENNA_299
*862 ANTENNA_3
*863 ANTENNA_30
*864 ANTENNA_300
*865 ANTENNA_301
*866 ANTENNA_302
*867 ANTENNA_303
*868 ANTENNA_304
*869 ANTENNA_305
*870 ANTENNA_306
*871 ANTENNA_307
*872 ANTENNA_308
*873 ANTENNA_309
*874 ANTENNA_31
*875 ANTENNA_310
*876 ANTENNA_311
*877 ANTENNA_312
*878 ANTENNA_313
*879 ANTENNA_314
*880 ANTENNA_315
*881 ANTENNA_316
*882 ANTENNA_317
*883 ANTENNA_318
*884 ANTENNA_319
*885 ANTENNA_32
*886 ANTENNA_320
*887 ANTENNA_321
*888 ANTENNA_322
*889 ANTENNA_323
*890 ANTENNA_324
*891 ANTENNA_325
*892 ANTENNA_326
*893 ANTENNA_327
*894 ANTENNA_328
*895 ANTENNA_329
*896 ANTENNA_33
*897 ANTENNA_330
*898 ANTENNA_331
*899 ANTENNA_332
*900 ANTENNA_333
*901 ANTENNA_334
*902 ANTENNA_335
*903 ANTENNA_336
*904 ANTENNA_337
*905 ANTENNA_338
*906 ANTENNA_339
*907 ANTENNA_34
*908 ANTENNA_340
*909 ANTENNA_341
*910 ANTENNA_342
*911 ANTENNA_343
*912 ANTENNA_344
*913 ANTENNA_345
*914 ANTENNA_346
*915 ANTENNA_347
*916 ANTENNA_348
*917 ANTENNA_349
*918 ANTENNA_35
*919 ANTENNA_350
*920 ANTENNA_351
*921 ANTENNA_352
*922 ANTENNA_353
*923 ANTENNA_354
*924 ANTENNA_355
*925 ANTENNA_356
*926 ANTENNA_357
*927 ANTENNA_358
*928 ANTENNA_359
*929 ANTENNA_36
*930 ANTENNA_360
*931 ANTENNA_361
*932 ANTENNA_362
*933 ANTENNA_363
*934 ANTENNA_364
*935 ANTENNA_365
*936 ANTENNA_366
*937 ANTENNA_367
*938 ANTENNA_368
*939 ANTENNA_369
*940 ANTENNA_37
*941 ANTENNA_370
*942 ANTENNA_371
*943 ANTENNA_372
*944 ANTENNA_373
*945 ANTENNA_374
*946 ANTENNA_375
*947 ANTENNA_376
*948 ANTENNA_377
*949 ANTENNA_378
*950 ANTENNA_379
*951 ANTENNA_38
*952 ANTENNA_380
*953 ANTENNA_381
*954 ANTENNA_382
*955 ANTENNA_383
*956 ANTENNA_384
*957 ANTENNA_385
*958 ANTENNA_386
*959 ANTENNA_387
*960 ANTENNA_388
*961 ANTENNA_389
*962 ANTENNA_39
*963 ANTENNA_390
*964 ANTENNA_391
*965 ANTENNA_392
*966 ANTENNA_393
*967 ANTENNA_394
*968 ANTENNA_395
*969 ANTENNA_396
*970 ANTENNA_397
*971 ANTENNA_398
*972 ANTENNA_399
*973 ANTENNA_4
*974 ANTENNA_40
*975 ANTENNA_400
*976 ANTENNA_401
*977 ANTENNA_402
*978 ANTENNA_403
*979 ANTENNA_404
*980 ANTENNA_405
*981 ANTENNA_406
*982 ANTENNA_407
*983 ANTENNA_408
*984 ANTENNA_409
*985 ANTENNA_41
*986 ANTENNA_410
*987 ANTENNA_411
*988 ANTENNA_412
*989 ANTENNA_413
*990 ANTENNA_414
*991 ANTENNA_415
*992 ANTENNA_416
*993 ANTENNA_417
*994 ANTENNA_418
*995 ANTENNA_419
*996 ANTENNA_42
*997 ANTENNA_420
*998 ANTENNA_421
*999 ANTENNA_422
*1000 ANTENNA_423
*1001 ANTENNA_424
*1002 ANTENNA_425
*1003 ANTENNA_426
*1004 ANTENNA_427
*1005 ANTENNA_428
*1006 ANTENNA_429
*1007 ANTENNA_43
*1008 ANTENNA_430
*1009 ANTENNA_431
*1010 ANTENNA_432
*1011 ANTENNA_433
*1012 ANTENNA_434
*1013 ANTENNA_435
*1014 ANTENNA_436
*1015 ANTENNA_437
*1016 ANTENNA_438
*1017 ANTENNA_439
*1018 ANTENNA_44
*1019 ANTENNA_440
*1020 ANTENNA_441
*1021 ANTENNA_442
*1022 ANTENNA_443
*1023 ANTENNA_444
*1024 ANTENNA_445
*1025 ANTENNA_446
*1026 ANTENNA_447
*1027 ANTENNA_448
*1028 ANTENNA_449
*1029 ANTENNA_45
*1030 ANTENNA_450
*1031 ANTENNA_451
*1032 ANTENNA_452
*1033 ANTENNA_453
*1034 ANTENNA_454
*1035 ANTENNA_455
*1036 ANTENNA_456
*1037 ANTENNA_457
*1038 ANTENNA_458
*1039 ANTENNA_459
*1040 ANTENNA_46
*1041 ANTENNA_460
*1042 ANTENNA_461
*1043 ANTENNA_462
*1044 ANTENNA_463
*1045 ANTENNA_464
*1046 ANTENNA_465
*1047 ANTENNA_466
*1048 ANTENNA_467
*1049 ANTENNA_468
*1050 ANTENNA_469
*1051 ANTENNA_47
*1052 ANTENNA_470
*1053 ANTENNA_471
*1054 ANTENNA_472
*1055 ANTENNA_473
*1056 ANTENNA_474
*1057 ANTENNA_475
*1058 ANTENNA_476
*1059 ANTENNA_477
*1060 ANTENNA_478
*1061 ANTENNA_479
*1062 ANTENNA_48
*1063 ANTENNA_480
*1064 ANTENNA_49
*1065 ANTENNA_5
*1066 ANTENNA_50
*1067 ANTENNA_51
*1068 ANTENNA_52
*1069 ANTENNA_53
*1070 ANTENNA_54
*1071 ANTENNA_55
*1072 ANTENNA_56
*1073 ANTENNA_57
*1074 ANTENNA_58
*1075 ANTENNA_59
*1076 ANTENNA_6
*1077 ANTENNA_60
*1078 ANTENNA_61
*1079 ANTENNA_62
*1080 ANTENNA_63
*1081 ANTENNA_64
*1082 ANTENNA_65
*1083 ANTENNA_66
*1084 ANTENNA_67
*1085 ANTENNA_68
*1086 ANTENNA_69
*1087 ANTENNA_7
*1088 ANTENNA_70
*1089 ANTENNA_71
*1090 ANTENNA_72
*1091 ANTENNA_73
*1092 ANTENNA_74
*1093 ANTENNA_75
*1094 ANTENNA_76
*1095 ANTENNA_77
*1096 ANTENNA_78
*1097 ANTENNA_79
*1098 ANTENNA_8
*1099 ANTENNA_80
*1100 ANTENNA_81
*1101 ANTENNA_82
*1102 ANTENNA_83
*1103 ANTENNA_84
*1104 ANTENNA_85
*1105 ANTENNA_86
*1106 ANTENNA_87
*1107 ANTENNA_88
*1108 ANTENNA_89
*1109 ANTENNA_9
*1110 ANTENNA_90
*1111 ANTENNA_91
*1112 ANTENNA_92
*1113 ANTENNA_93
*1114 ANTENNA_94
*1115 ANTENNA_95
*1116 ANTENNA_96
*1117 ANTENNA_97
*1118 ANTENNA_98
*1119 ANTENNA_99
*1120 FILLER_0_1005
*1121 FILLER_0_1007
*1122 FILLER_0_1009
*1123 FILLER_0_1017
*1124 FILLER_0_1063
*1125 FILLER_0_1065
*1126 FILLER_0_1077
*1127 FILLER_0_1080
*1128 FILLER_0_1082
*1129 FILLER_0_109
*1130 FILLER_0_1091
*1131 FILLER_0_1093
*1132 FILLER_0_1101
*1133 FILLER_0_111
*1134 FILLER_0_1113
*1135 FILLER_0_1117
*1136 FILLER_0_1119
*1137 FILLER_0_1121
*1138 FILLER_0_113
*1139 FILLER_0_1135
*1140 FILLER_0_1145
*1141 FILLER_0_1147
*1142 FILLER_0_1157
*1143 FILLER_0_1161
*1144 FILLER_0_1164
*1145 FILLER_0_1166
*1146 FILLER_0_1175
*1147 FILLER_0_1201
*1148 FILLER_0_1203
*1149 FILLER_0_1221
*1150 FILLER_0_1230
*1151 FILLER_0_125
*1152 FILLER_0_1259
*1153 FILLER_0_1285
*1154 FILLER_0_1287
*1155 FILLER_0_1313
*1156 FILLER_0_1315
*1157 FILLER_0_1333
*1158 FILLER_0_1335
*1159 FILLER_0_1345
*1160 FILLER_0_1365
*1161 FILLER_0_1369
*1162 FILLER_0_137
*1163 FILLER_0_1371
*1164 FILLER_0_139
*1165 FILLER_0_1397
*1166 FILLER_0_1399
*1167 FILLER_0_141
*1168 FILLER_0_1425
*1169 FILLER_0_1427
*1170 FILLER_0_1453
*1171 FILLER_0_1455
*1172 FILLER_0_1481
*1173 FILLER_0_1483
*1174 FILLER_0_1485
*1175 FILLER_0_15
*1176 FILLER_0_1503
*1177 FILLER_0_153
*1178 FILLER_0_165
*1179 FILLER_0_167
*1180 FILLER_0_169
*1181 FILLER_0_181
*1182 FILLER_0_193
*1183 FILLER_0_195
*1184 FILLER_0_197
*1185 FILLER_0_209
*1186 FILLER_0_221
*1187 FILLER_0_223
*1188 FILLER_0_225
*1189 FILLER_0_237
*1190 FILLER_0_249
*1191 FILLER_0_251
*1192 FILLER_0_253
*1193 FILLER_0_265
*1194 FILLER_0_27
*1195 FILLER_0_277
*1196 FILLER_0_279
*1197 FILLER_0_281
*1198 FILLER_0_29
*1199 FILLER_0_293
*1200 FILLER_0_3
*1201 FILLER_0_305
*1202 FILLER_0_307
*1203 FILLER_0_309
*1204 FILLER_0_321
*1205 FILLER_0_333
*1206 FILLER_0_335
*1207 FILLER_0_337
*1208 FILLER_0_349
*1209 FILLER_0_361
*1210 FILLER_0_363
*1211 FILLER_0_365
*1212 FILLER_0_377
*1213 FILLER_0_389
*1214 FILLER_0_391
*1215 FILLER_0_393
*1216 FILLER_0_405
*1217 FILLER_0_41
*1218 FILLER_0_417
*1219 FILLER_0_419
*1220 FILLER_0_421
*1221 FILLER_0_433
*1222 FILLER_0_445
*1223 FILLER_0_447
*1224 FILLER_0_449
*1225 FILLER_0_460
*1226 FILLER_0_485
*1227 FILLER_0_491
*1228 FILLER_0_495
*1229 FILLER_0_505
*1230 FILLER_0_507
*1231 FILLER_0_53
*1232 FILLER_0_533
*1233 FILLER_0_55
*1234 FILLER_0_557
*1235 FILLER_0_559
*1236 FILLER_0_561
*1237 FILLER_0_563
*1238 FILLER_0_57
*1239 FILLER_0_613
*1240 FILLER_0_615
*1241 FILLER_0_617
*1242 FILLER_0_643
*1243 FILLER_0_645
*1244 FILLER_0_647
*1245 FILLER_0_673
*1246 FILLER_0_675
*1247 FILLER_0_69
*1248 FILLER_0_701
*1249 FILLER_0_703
*1250 FILLER_0_729
*1251 FILLER_0_731
*1252 FILLER_0_757
*1253 FILLER_0_783
*1254 FILLER_0_809
*1255 FILLER_0_81
*1256 FILLER_0_811
*1257 FILLER_0_83
*1258 FILLER_0_837
*1259 FILLER_0_839
*1260 FILLER_0_85
*1261 FILLER_0_865
*1262 FILLER_0_867
*1263 FILLER_0_893
*1264 FILLER_0_895
*1265 FILLER_0_913
*1266 FILLER_0_915
*1267 FILLER_0_918
*1268 FILLER_0_949
*1269 FILLER_0_951
*1270 FILLER_0_97
*1271 FILLER_0_977
*1272 FILLER_0_979
*1273 FILLER_100_1464
*1274 FILLER_100_1476
*1275 FILLER_100_1488
*1276 FILLER_100_1490
*1277 FILLER_100_1502
*1278 FILLER_100_1506
*1279 FILLER_100_703
*1280 FILLER_100_715
*1281 FILLER_100_727
*1282 FILLER_100_729
*1283 FILLER_100_741
*1284 FILLER_100_745
*1285 FILLER_101_1464
*1286 FILLER_101_1476
*1287 FILLER_101_1488
*1288 FILLER_101_1500
*1289 FILLER_101_1504
*1290 FILLER_101_1506
*1291 FILLER_101_703
*1292 FILLER_101_715
*1293 FILLER_101_727
*1294 FILLER_101_739
*1295 FILLER_102_1464
*1296 FILLER_102_1476
*1297 FILLER_102_1488
*1298 FILLER_102_1490
*1299 FILLER_102_1502
*1300 FILLER_102_1506
*1301 FILLER_102_703
*1302 FILLER_102_715
*1303 FILLER_102_727
*1304 FILLER_102_729
*1305 FILLER_103_1464
*1306 FILLER_103_1476
*1307 FILLER_103_1488
*1308 FILLER_103_1500
*1309 FILLER_103_1504
*1310 FILLER_103_1506
*1311 FILLER_103_703
*1312 FILLER_103_715
*1313 FILLER_103_727
*1314 FILLER_103_739
*1315 FILLER_104_1464
*1316 FILLER_104_1476
*1317 FILLER_104_1488
*1318 FILLER_104_1490
*1319 FILLER_104_1502
*1320 FILLER_104_1506
*1321 FILLER_104_703
*1322 FILLER_104_715
*1323 FILLER_104_727
*1324 FILLER_104_729
*1325 FILLER_105_1464
*1326 FILLER_105_1476
*1327 FILLER_105_1488
*1328 FILLER_105_1500
*1329 FILLER_105_1504
*1330 FILLER_105_1506
*1331 FILLER_105_703
*1332 FILLER_105_715
*1333 FILLER_105_727
*1334 FILLER_105_739
*1335 FILLER_106_1464
*1336 FILLER_106_1476
*1337 FILLER_106_1488
*1338 FILLER_106_1490
*1339 FILLER_106_1502
*1340 FILLER_106_1506
*1341 FILLER_106_703
*1342 FILLER_106_715
*1343 FILLER_106_727
*1344 FILLER_106_745
*1345 FILLER_107_1464
*1346 FILLER_107_1476
*1347 FILLER_107_1488
*1348 FILLER_107_1500
*1349 FILLER_107_1504
*1350 FILLER_107_1506
*1351 FILLER_107_703
*1352 FILLER_107_715
*1353 FILLER_107_727
*1354 FILLER_107_739
*1355 FILLER_108_1464
*1356 FILLER_108_1476
*1357 FILLER_108_1488
*1358 FILLER_108_1490
*1359 FILLER_108_1502
*1360 FILLER_108_1506
*1361 FILLER_108_703
*1362 FILLER_108_727
*1363 FILLER_108_729
*1364 FILLER_108_741
*1365 FILLER_108_745
*1366 FILLER_109_1464
*1367 FILLER_109_1476
*1368 FILLER_109_1488
*1369 FILLER_109_1500
*1370 FILLER_109_1504
*1371 FILLER_109_1506
*1372 FILLER_109_703
*1373 FILLER_109_715
*1374 FILLER_109_727
*1375 FILLER_109_739
*1376 FILLER_10_1464
*1377 FILLER_10_1476
*1378 FILLER_10_1488
*1379 FILLER_10_1490
*1380 FILLER_10_1502
*1381 FILLER_10_1506
*1382 FILLER_10_703
*1383 FILLER_10_715
*1384 FILLER_10_727
*1385 FILLER_10_729
*1386 FILLER_10_741
*1387 FILLER_10_745
*1388 FILLER_110_1464
*1389 FILLER_110_1476
*1390 FILLER_110_1488
*1391 FILLER_110_1490
*1392 FILLER_110_1502
*1393 FILLER_110_1506
*1394 FILLER_110_719
*1395 FILLER_110_727
*1396 FILLER_110_729
*1397 FILLER_110_741
*1398 FILLER_110_745
*1399 FILLER_111_1464
*1400 FILLER_111_1476
*1401 FILLER_111_1488
*1402 FILLER_111_1500
*1403 FILLER_111_1504
*1404 FILLER_111_1506
*1405 FILLER_111_703
*1406 FILLER_111_715
*1407 FILLER_111_727
*1408 FILLER_111_739
*1409 FILLER_112_1464
*1410 FILLER_112_1476
*1411 FILLER_112_1488
*1412 FILLER_112_1490
*1413 FILLER_112_1502
*1414 FILLER_112_1506
*1415 FILLER_112_719
*1416 FILLER_112_727
*1417 FILLER_112_729
*1418 FILLER_112_741
*1419 FILLER_112_745
*1420 FILLER_113_1464
*1421 FILLER_113_1476
*1422 FILLER_113_1488
*1423 FILLER_113_1500
*1424 FILLER_113_1504
*1425 FILLER_113_1506
*1426 FILLER_113_703
*1427 FILLER_113_715
*1428 FILLER_113_727
*1429 FILLER_113_739
*1430 FILLER_114_1464
*1431 FILLER_114_1476
*1432 FILLER_114_1488
*1433 FILLER_114_1490
*1434 FILLER_114_1502
*1435 FILLER_114_1506
*1436 FILLER_114_719
*1437 FILLER_114_727
*1438 FILLER_114_729
*1439 FILLER_114_741
*1440 FILLER_114_745
*1441 FILLER_115_1464
*1442 FILLER_115_1476
*1443 FILLER_115_1488
*1444 FILLER_115_1500
*1445 FILLER_115_1504
*1446 FILLER_115_1506
*1447 FILLER_115_719
*1448 FILLER_115_731
*1449 FILLER_115_743
*1450 FILLER_116_1464
*1451 FILLER_116_1476
*1452 FILLER_116_1488
*1453 FILLER_116_1490
*1454 FILLER_116_1502
*1455 FILLER_116_1506
*1456 FILLER_116_719
*1457 FILLER_116_727
*1458 FILLER_116_729
*1459 FILLER_116_737
*1460 FILLER_116_740
*1461 FILLER_116_744
*1462 FILLER_116_746
*1463 FILLER_117_1464
*1464 FILLER_117_1476
*1465 FILLER_117_1488
*1466 FILLER_117_1500
*1467 FILLER_117_1504
*1468 FILLER_117_1506
*1469 FILLER_117_719
*1470 FILLER_117_721
*1471 FILLER_117_740
*1472 FILLER_117_744
*1473 FILLER_117_746
*1474 FILLER_118_1464
*1475 FILLER_118_1476
*1476 FILLER_118_1488
*1477 FILLER_118_1490
*1478 FILLER_118_1502
*1479 FILLER_118_1506
*1480 FILLER_118_719
*1481 FILLER_118_727
*1482 FILLER_118_729
*1483 FILLER_118_737
*1484 FILLER_118_740
*1485 FILLER_118_744
*1486 FILLER_119_1464
*1487 FILLER_119_1476
*1488 FILLER_119_1488
*1489 FILLER_119_1500
*1490 FILLER_119_1504
*1491 FILLER_119_1506
*1492 FILLER_11_1464
*1493 FILLER_11_1476
*1494 FILLER_11_1488
*1495 FILLER_11_1500
*1496 FILLER_11_1504
*1497 FILLER_11_1506
*1498 FILLER_11_703
*1499 FILLER_11_715
*1500 FILLER_11_727
*1501 FILLER_11_739
*1502 FILLER_120_1464
*1503 FILLER_120_1476
*1504 FILLER_120_1488
*1505 FILLER_120_1490
*1506 FILLER_120_1502
*1507 FILLER_120_1506
*1508 FILLER_120_712
*1509 FILLER_120_735
*1510 FILLER_120_737
*1511 FILLER_120_740
*1512 FILLER_120_744
*1513 FILLER_121_1464
*1514 FILLER_121_1476
*1515 FILLER_121_1488
*1516 FILLER_121_1500
*1517 FILLER_121_1504
*1518 FILLER_121_1506
*1519 FILLER_121_721
*1520 FILLER_121_725
*1521 FILLER_121_727
*1522 FILLER_121_730
*1523 FILLER_121_740
*1524 FILLER_121_744
*1525 FILLER_121_746
*1526 FILLER_122_1464
*1527 FILLER_122_1476
*1528 FILLER_122_1488
*1529 FILLER_122_1490
*1530 FILLER_122_1502
*1531 FILLER_122_1506
*1532 FILLER_122_703
*1533 FILLER_122_725
*1534 FILLER_122_727
*1535 FILLER_122_729
*1536 FILLER_123_1464
*1537 FILLER_123_1476
*1538 FILLER_123_1488
*1539 FILLER_123_1500
*1540 FILLER_123_1504
*1541 FILLER_123_1506
*1542 FILLER_123_719
*1543 FILLER_123_721
*1544 FILLER_123_724
*1545 FILLER_123_730
*1546 FILLER_124_1464
*1547 FILLER_124_1476
*1548 FILLER_124_1488
*1549 FILLER_124_1490
*1550 FILLER_124_1502
*1551 FILLER_124_1506
*1552 FILLER_124_725
*1553 FILLER_124_727
*1554 FILLER_125_1464
*1555 FILLER_125_1476
*1556 FILLER_125_1488
*1557 FILLER_125_1500
*1558 FILLER_125_1504
*1559 FILLER_125_1506
*1560 FILLER_125_715
*1561 FILLER_125_738
*1562 FILLER_125_746
*1563 FILLER_126_1464
*1564 FILLER_126_1476
*1565 FILLER_126_1488
*1566 FILLER_126_1490
*1567 FILLER_126_1502
*1568 FILLER_126_1506
*1569 FILLER_126_719
*1570 FILLER_126_721
*1571 FILLER_126_724
*1572 FILLER_127_1464
*1573 FILLER_127_1476
*1574 FILLER_127_1488
*1575 FILLER_127_1500
*1576 FILLER_127_1504
*1577 FILLER_127_1506
*1578 FILLER_127_703
*1579 FILLER_127_715
*1580 FILLER_127_737
*1581 FILLER_127_745
*1582 FILLER_128_1464
*1583 FILLER_128_1476
*1584 FILLER_128_1488
*1585 FILLER_128_1490
*1586 FILLER_128_1502
*1587 FILLER_128_1506
*1588 FILLER_128_703
*1589 FILLER_128_717
*1590 FILLER_128_721
*1591 FILLER_128_744
*1592 FILLER_128_746
*1593 FILLER_129_1464
*1594 FILLER_129_1476
*1595 FILLER_129_1488
*1596 FILLER_129_1500
*1597 FILLER_129_1504
*1598 FILLER_129_1506
*1599 FILLER_129_707
*1600 FILLER_129_739
*1601 FILLER_12_1464
*1602 FILLER_12_1476
*1603 FILLER_12_1488
*1604 FILLER_12_1490
*1605 FILLER_12_1502
*1606 FILLER_12_1506
*1607 FILLER_12_703
*1608 FILLER_12_715
*1609 FILLER_12_727
*1610 FILLER_12_729
*1611 FILLER_12_741
*1612 FILLER_12_745
*1613 FILLER_130_1464
*1614 FILLER_130_1476
*1615 FILLER_130_1488
*1616 FILLER_130_1490
*1617 FILLER_130_1502
*1618 FILLER_130_1506
*1619 FILLER_130_720
*1620 FILLER_130_746
*1621 FILLER_131_1464
*1622 FILLER_131_1476
*1623 FILLER_131_1488
*1624 FILLER_131_1500
*1625 FILLER_131_1504
*1626 FILLER_131_1506
*1627 FILLER_131_707
*1628 FILLER_131_717
*1629 FILLER_131_725
*1630 FILLER_131_727
*1631 FILLER_131_730
*1632 FILLER_131_733
*1633 FILLER_131_745
*1634 FILLER_132_1464
*1635 FILLER_132_1476
*1636 FILLER_132_1488
*1637 FILLER_132_1490
*1638 FILLER_132_1502
*1639 FILLER_132_1506
*1640 FILLER_132_703
*1641 FILLER_132_715
*1642 FILLER_132_727
*1643 FILLER_132_729
*1644 FILLER_132_741
*1645 FILLER_132_745
*1646 FILLER_133_1464
*1647 FILLER_133_1476
*1648 FILLER_133_1488
*1649 FILLER_133_1500
*1650 FILLER_133_1504
*1651 FILLER_133_1506
*1652 FILLER_133_703
*1653 FILLER_133_715
*1654 FILLER_133_727
*1655 FILLER_133_730
*1656 FILLER_133_734
*1657 FILLER_133_737
*1658 FILLER_133_745
*1659 FILLER_134_1464
*1660 FILLER_134_1476
*1661 FILLER_134_1488
*1662 FILLER_134_1490
*1663 FILLER_134_1502
*1664 FILLER_134_1506
*1665 FILLER_134_703
*1666 FILLER_134_715
*1667 FILLER_134_718
*1668 FILLER_134_726
*1669 FILLER_134_729
*1670 FILLER_134_733
*1671 FILLER_134_737
*1672 FILLER_134_745
*1673 FILLER_135_1464
*1674 FILLER_135_1476
*1675 FILLER_135_1488
*1676 FILLER_135_1500
*1677 FILLER_135_1504
*1678 FILLER_135_1506
*1679 FILLER_135_703
*1680 FILLER_135_707
*1681 FILLER_135_727
*1682 FILLER_135_732
*1683 FILLER_136_1464
*1684 FILLER_136_1476
*1685 FILLER_136_1488
*1686 FILLER_136_1490
*1687 FILLER_136_1502
*1688 FILLER_136_1506
*1689 FILLER_136_703
*1690 FILLER_136_715
*1691 FILLER_136_718
*1692 FILLER_136_726
*1693 FILLER_136_729
*1694 FILLER_136_733
*1695 FILLER_136_737
*1696 FILLER_137_1480
*1697 FILLER_137_1492
*1698 FILLER_137_1504
*1699 FILLER_137_1506
*1700 FILLER_137_703
*1701 FILLER_137_715
*1702 FILLER_137_719
*1703 FILLER_137_746
*1704 FILLER_138_1464
*1705 FILLER_138_1476
*1706 FILLER_138_1488
*1707 FILLER_138_1490
*1708 FILLER_138_1502
*1709 FILLER_138_1506
*1710 FILLER_138_703
*1711 FILLER_138_733
*1712 FILLER_138_737
*1713 FILLER_138_745
*1714 FILLER_139_1480
*1715 FILLER_139_1492
*1716 FILLER_139_1504
*1717 FILLER_139_1506
*1718 FILLER_139_705
*1719 FILLER_139_719
*1720 FILLER_139_731
*1721 FILLER_139_743
*1722 FILLER_13_1464
*1723 FILLER_13_1476
*1724 FILLER_13_1488
*1725 FILLER_13_1500
*1726 FILLER_13_1504
*1727 FILLER_13_1506
*1728 FILLER_13_703
*1729 FILLER_13_715
*1730 FILLER_13_727
*1731 FILLER_13_739
*1732 FILLER_140_1464
*1733 FILLER_140_1476
*1734 FILLER_140_1488
*1735 FILLER_140_1490
*1736 FILLER_140_1502
*1737 FILLER_140_1506
*1738 FILLER_140_709
*1739 FILLER_140_721
*1740 FILLER_140_725
*1741 FILLER_140_727
*1742 FILLER_140_729
*1743 FILLER_140_741
*1744 FILLER_140_745
*1745 FILLER_141_1464
*1746 FILLER_141_1476
*1747 FILLER_141_1488
*1748 FILLER_141_1500
*1749 FILLER_141_1504
*1750 FILLER_141_1506
*1751 FILLER_141_720
*1752 FILLER_141_732
*1753 FILLER_141_744
*1754 FILLER_141_746
*1755 FILLER_142_1464
*1756 FILLER_142_1476
*1757 FILLER_142_1488
*1758 FILLER_142_1490
*1759 FILLER_142_1502
*1760 FILLER_142_1506
*1761 FILLER_142_720
*1762 FILLER_142_729
*1763 FILLER_142_741
*1764 FILLER_142_745
*1765 FILLER_143_1464
*1766 FILLER_143_1476
*1767 FILLER_143_1488
*1768 FILLER_143_1500
*1769 FILLER_143_1504
*1770 FILLER_143_1506
*1771 FILLER_143_711
*1772 FILLER_143_723
*1773 FILLER_143_735
*1774 FILLER_144_1464
*1775 FILLER_144_1476
*1776 FILLER_144_1488
*1777 FILLER_144_1490
*1778 FILLER_144_1502
*1779 FILLER_144_1506
*1780 FILLER_144_705
*1781 FILLER_144_717
*1782 FILLER_144_725
*1783 FILLER_144_727
*1784 FILLER_144_729
*1785 FILLER_144_741
*1786 FILLER_144_745
*1787 FILLER_145_1464
*1788 FILLER_145_1476
*1789 FILLER_145_1488
*1790 FILLER_145_1500
*1791 FILLER_145_1504
*1792 FILLER_145_1506
*1793 FILLER_145_703
*1794 FILLER_145_715
*1795 FILLER_145_727
*1796 FILLER_145_739
*1797 FILLER_146_1464
*1798 FILLER_146_1476
*1799 FILLER_146_1488
*1800 FILLER_146_1490
*1801 FILLER_146_1502
*1802 FILLER_146_1506
*1803 FILLER_146_703
*1804 FILLER_146_715
*1805 FILLER_146_727
*1806 FILLER_146_729
*1807 FILLER_146_741
*1808 FILLER_146_745
*1809 FILLER_147_1464
*1810 FILLER_147_1476
*1811 FILLER_147_1488
*1812 FILLER_147_1500
*1813 FILLER_147_1504
*1814 FILLER_147_1506
*1815 FILLER_147_703
*1816 FILLER_147_715
*1817 FILLER_147_727
*1818 FILLER_147_739
*1819 FILLER_148_1464
*1820 FILLER_148_1476
*1821 FILLER_148_1488
*1822 FILLER_148_1490
*1823 FILLER_148_1502
*1824 FILLER_148_1506
*1825 FILLER_148_703
*1826 FILLER_148_715
*1827 FILLER_148_727
*1828 FILLER_148_729
*1829 FILLER_148_741
*1830 FILLER_148_745
*1831 FILLER_149_1464
*1832 FILLER_149_1476
*1833 FILLER_149_1488
*1834 FILLER_149_1500
*1835 FILLER_149_1504
*1836 FILLER_149_1506
*1837 FILLER_149_703
*1838 FILLER_149_715
*1839 FILLER_149_727
*1840 FILLER_149_739
*1841 FILLER_14_1464
*1842 FILLER_14_1476
*1843 FILLER_14_1488
*1844 FILLER_14_1490
*1845 FILLER_14_1502
*1846 FILLER_14_1506
*1847 FILLER_14_703
*1848 FILLER_14_715
*1849 FILLER_14_727
*1850 FILLER_14_729
*1851 FILLER_14_741
*1852 FILLER_14_745
*1853 FILLER_150_1464
*1854 FILLER_150_1476
*1855 FILLER_150_1488
*1856 FILLER_150_1490
*1857 FILLER_150_1502
*1858 FILLER_150_1506
*1859 FILLER_150_703
*1860 FILLER_150_715
*1861 FILLER_150_727
*1862 FILLER_150_729
*1863 FILLER_150_741
*1864 FILLER_150_745
*1865 FILLER_151_1464
*1866 FILLER_151_1476
*1867 FILLER_151_1488
*1868 FILLER_151_1500
*1869 FILLER_151_1504
*1870 FILLER_151_1506
*1871 FILLER_151_703
*1872 FILLER_151_715
*1873 FILLER_151_727
*1874 FILLER_151_739
*1875 FILLER_152_1464
*1876 FILLER_152_1476
*1877 FILLER_152_1488
*1878 FILLER_152_1490
*1879 FILLER_152_1502
*1880 FILLER_152_1506
*1881 FILLER_152_703
*1882 FILLER_152_715
*1883 FILLER_152_727
*1884 FILLER_152_729
*1885 FILLER_152_741
*1886 FILLER_152_745
*1887 FILLER_153_1464
*1888 FILLER_153_1476
*1889 FILLER_153_1488
*1890 FILLER_153_1500
*1891 FILLER_153_1504
*1892 FILLER_153_1506
*1893 FILLER_153_703
*1894 FILLER_153_715
*1895 FILLER_153_727
*1896 FILLER_153_739
*1897 FILLER_154_1464
*1898 FILLER_154_1476
*1899 FILLER_154_1488
*1900 FILLER_154_1490
*1901 FILLER_154_1502
*1902 FILLER_154_1506
*1903 FILLER_154_703
*1904 FILLER_154_715
*1905 FILLER_154_727
*1906 FILLER_154_729
*1907 FILLER_154_741
*1908 FILLER_154_745
*1909 FILLER_155_1464
*1910 FILLER_155_1476
*1911 FILLER_155_1488
*1912 FILLER_155_1500
*1913 FILLER_155_1504
*1914 FILLER_155_1506
*1915 FILLER_155_703
*1916 FILLER_155_715
*1917 FILLER_155_727
*1918 FILLER_155_739
*1919 FILLER_156_1464
*1920 FILLER_156_1476
*1921 FILLER_156_1488
*1922 FILLER_156_1490
*1923 FILLER_156_1502
*1924 FILLER_156_1506
*1925 FILLER_156_703
*1926 FILLER_156_715
*1927 FILLER_156_727
*1928 FILLER_156_729
*1929 FILLER_156_741
*1930 FILLER_156_745
*1931 FILLER_157_1464
*1932 FILLER_157_1476
*1933 FILLER_157_1488
*1934 FILLER_157_1500
*1935 FILLER_157_1504
*1936 FILLER_157_1506
*1937 FILLER_157_703
*1938 FILLER_157_715
*1939 FILLER_157_727
*1940 FILLER_157_739
*1941 FILLER_158_1464
*1942 FILLER_158_1476
*1943 FILLER_158_1488
*1944 FILLER_158_1490
*1945 FILLER_158_1502
*1946 FILLER_158_1506
*1947 FILLER_158_703
*1948 FILLER_158_715
*1949 FILLER_158_727
*1950 FILLER_158_729
*1951 FILLER_158_741
*1952 FILLER_158_745
*1953 FILLER_159_1005
*1954 FILLER_159_1007
*1955 FILLER_159_1009
*1956 FILLER_159_1021
*1957 FILLER_159_1033
*1958 FILLER_159_1035
*1959 FILLER_159_1037
*1960 FILLER_159_1049
*1961 FILLER_159_1053
*1962 FILLER_159_1056
*1963 FILLER_159_1065
*1964 FILLER_159_1077
*1965 FILLER_159_1089
*1966 FILLER_159_109
*1967 FILLER_159_1091
*1968 FILLER_159_1093
*1969 FILLER_159_1105
*1970 FILLER_159_111
*1971 FILLER_159_1117
*1972 FILLER_159_1119
*1973 FILLER_159_1121
*1974 FILLER_159_113
*1975 FILLER_159_1133
*1976 FILLER_159_1145
*1977 FILLER_159_1147
*1978 FILLER_159_1149
*1979 FILLER_159_1161
*1980 FILLER_159_1173
*1981 FILLER_159_1175
*1982 FILLER_159_1177
*1983 FILLER_159_1189
*1984 FILLER_159_1201
*1985 FILLER_159_1203
*1986 FILLER_159_1205
*1987 FILLER_159_1217
*1988 FILLER_159_1229
*1989 FILLER_159_1231
*1990 FILLER_159_1233
*1991 FILLER_159_1245
*1992 FILLER_159_125
*1993 FILLER_159_1257
*1994 FILLER_159_1259
*1995 FILLER_159_1261
*1996 FILLER_159_1287
*1997 FILLER_159_1307
*1998 FILLER_159_1315
*1999 FILLER_159_1317
*2000 FILLER_159_1321
*2001 FILLER_159_1323
*2002 FILLER_159_1345
*2003 FILLER_159_1357
*2004 FILLER_159_1369
*2005 FILLER_159_137
*2006 FILLER_159_1371
*2007 FILLER_159_1373
*2008 FILLER_159_1385
*2009 FILLER_159_139
*2010 FILLER_159_1397
*2011 FILLER_159_1399
*2012 FILLER_159_1401
*2013 FILLER_159_141
*2014 FILLER_159_1413
*2015 FILLER_159_1425
*2016 FILLER_159_1427
*2017 FILLER_159_1429
*2018 FILLER_159_1441
*2019 FILLER_159_1453
*2020 FILLER_159_1455
*2021 FILLER_159_1457
*2022 FILLER_159_1469
*2023 FILLER_159_1481
*2024 FILLER_159_1483
*2025 FILLER_159_1485
*2026 FILLER_159_1497
*2027 FILLER_159_15
*2028 FILLER_159_1505
*2029 FILLER_159_153
*2030 FILLER_159_165
*2031 FILLER_159_167
*2032 FILLER_159_169
*2033 FILLER_159_181
*2034 FILLER_159_193
*2035 FILLER_159_195
*2036 FILLER_159_197
*2037 FILLER_159_209
*2038 FILLER_159_221
*2039 FILLER_159_223
*2040 FILLER_159_225
*2041 FILLER_159_237
*2042 FILLER_159_249
*2043 FILLER_159_251
*2044 FILLER_159_253
*2045 FILLER_159_265
*2046 FILLER_159_27
*2047 FILLER_159_277
*2048 FILLER_159_279
*2049 FILLER_159_281
*2050 FILLER_159_29
*2051 FILLER_159_293
*2052 FILLER_159_3
*2053 FILLER_159_305
*2054 FILLER_159_307
*2055 FILLER_159_309
*2056 FILLER_159_321
*2057 FILLER_159_333
*2058 FILLER_159_335
*2059 FILLER_159_337
*2060 FILLER_159_349
*2061 FILLER_159_361
*2062 FILLER_159_363
*2063 FILLER_159_365
*2064 FILLER_159_377
*2065 FILLER_159_389
*2066 FILLER_159_391
*2067 FILLER_159_393
*2068 FILLER_159_405
*2069 FILLER_159_41
*2070 FILLER_159_417
*2071 FILLER_159_419
*2072 FILLER_159_421
*2073 FILLER_159_433
*2074 FILLER_159_445
*2075 FILLER_159_447
*2076 FILLER_159_449
*2077 FILLER_159_461
*2078 FILLER_159_473
*2079 FILLER_159_475
*2080 FILLER_159_477
*2081 FILLER_159_489
*2082 FILLER_159_501
*2083 FILLER_159_503
*2084 FILLER_159_505
*2085 FILLER_159_517
*2086 FILLER_159_529
*2087 FILLER_159_53
*2088 FILLER_159_531
*2089 FILLER_159_533
*2090 FILLER_159_545
*2091 FILLER_159_55
*2092 FILLER_159_557
*2093 FILLER_159_559
*2094 FILLER_159_561
*2095 FILLER_159_57
*2096 FILLER_159_573
*2097 FILLER_159_585
*2098 FILLER_159_587
*2099 FILLER_159_600
*2100 FILLER_159_612
*2101 FILLER_159_617
*2102 FILLER_159_629
*2103 FILLER_159_641
*2104 FILLER_159_643
*2105 FILLER_159_645
*2106 FILLER_159_657
*2107 FILLER_159_669
*2108 FILLER_159_671
*2109 FILLER_159_673
*2110 FILLER_159_685
*2111 FILLER_159_69
*2112 FILLER_159_697
*2113 FILLER_159_699
*2114 FILLER_159_701
*2115 FILLER_159_713
*2116 FILLER_159_725
*2117 FILLER_159_727
*2118 FILLER_159_729
*2119 FILLER_159_741
*2120 FILLER_159_753
*2121 FILLER_159_755
*2122 FILLER_159_757
*2123 FILLER_159_769
*2124 FILLER_159_781
*2125 FILLER_159_783
*2126 FILLER_159_785
*2127 FILLER_159_797
*2128 FILLER_159_809
*2129 FILLER_159_81
*2130 FILLER_159_811
*2131 FILLER_159_813
*2132 FILLER_159_825
*2133 FILLER_159_83
*2134 FILLER_159_837
*2135 FILLER_159_839
*2136 FILLER_159_841
*2137 FILLER_159_85
*2138 FILLER_159_853
*2139 FILLER_159_865
*2140 FILLER_159_867
*2141 FILLER_159_869
*2142 FILLER_159_881
*2143 FILLER_159_893
*2144 FILLER_159_897
*2145 FILLER_159_912
*2146 FILLER_159_925
*2147 FILLER_159_937
*2148 FILLER_159_949
*2149 FILLER_159_951
*2150 FILLER_159_953
*2151 FILLER_159_957
*2152 FILLER_159_969
*2153 FILLER_159_97
*2154 FILLER_159_977
*2155 FILLER_159_979
*2156 FILLER_159_981
*2157 FILLER_159_989
*2158 FILLER_159_993
*2159 FILLER_15_1464
*2160 FILLER_15_1476
*2161 FILLER_15_1488
*2162 FILLER_15_1500
*2163 FILLER_15_1504
*2164 FILLER_15_1506
*2165 FILLER_15_703
*2166 FILLER_15_715
*2167 FILLER_15_727
*2168 FILLER_15_739
*2169 FILLER_160_1003
*2170 FILLER_160_1015
*2171 FILLER_160_1023
*2172 FILLER_160_1026
*2173 FILLER_160_1034
*2174 FILLER_160_1037
*2175 FILLER_160_1041
*2176 FILLER_160_1044
*2177 FILLER_160_1052
*2178 FILLER_160_1074
*2179 FILLER_160_1076
*2180 FILLER_160_1079
*2181 FILLER_160_109
*2182 FILLER_160_1091
*2183 FILLER_160_1093
*2184 FILLER_160_1105
*2185 FILLER_160_1117
*2186 FILLER_160_1123
*2187 FILLER_160_1135
*2188 FILLER_160_1147
*2189 FILLER_160_1149
*2190 FILLER_160_1161
*2191 FILLER_160_1173
*2192 FILLER_160_1179
*2193 FILLER_160_1191
*2194 FILLER_160_1203
*2195 FILLER_160_1205
*2196 FILLER_160_1209
*2197 FILLER_160_121
*2198 FILLER_160_1211
*2199 FILLER_160_1214
*2200 FILLER_160_1226
*2201 FILLER_160_1238
*2202 FILLER_160_1242
*2203 FILLER_160_1246
*2204 FILLER_160_1258
*2205 FILLER_160_1261
*2206 FILLER_160_1287
*2207 FILLER_160_1291
*2208 FILLER_160_1303
*2209 FILLER_160_1315
*2210 FILLER_160_1317
*2211 FILLER_160_1325
*2212 FILLER_160_133
*2213 FILLER_160_1338
*2214 FILLER_160_1350
*2215 FILLER_160_1362
*2216 FILLER_160_137
*2217 FILLER_160_1370
*2218 FILLER_160_1373
*2219 FILLER_160_1385
*2220 FILLER_160_139
*2221 FILLER_160_1397
*2222 FILLER_160_1409
*2223 FILLER_160_141
*2224 FILLER_160_1421
*2225 FILLER_160_1425
*2226 FILLER_160_1427
*2227 FILLER_160_1429
*2228 FILLER_160_1441
*2229 FILLER_160_1453
*2230 FILLER_160_1465
*2231 FILLER_160_1477
*2232 FILLER_160_1481
*2233 FILLER_160_1483
*2234 FILLER_160_1485
*2235 FILLER_160_1497
*2236 FILLER_160_15
*2237 FILLER_160_1505
*2238 FILLER_160_153
*2239 FILLER_160_165
*2240 FILLER_160_177
*2241 FILLER_160_189
*2242 FILLER_160_193
*2243 FILLER_160_195
*2244 FILLER_160_197
*2245 FILLER_160_209
*2246 FILLER_160_221
*2247 FILLER_160_233
*2248 FILLER_160_245
*2249 FILLER_160_249
*2250 FILLER_160_251
*2251 FILLER_160_253
*2252 FILLER_160_265
*2253 FILLER_160_27
*2254 FILLER_160_277
*2255 FILLER_160_289
*2256 FILLER_160_29
*2257 FILLER_160_3
*2258 FILLER_160_301
*2259 FILLER_160_305
*2260 FILLER_160_307
*2261 FILLER_160_309
*2262 FILLER_160_321
*2263 FILLER_160_333
*2264 FILLER_160_345
*2265 FILLER_160_357
*2266 FILLER_160_361
*2267 FILLER_160_363
*2268 FILLER_160_365
*2269 FILLER_160_377
*2270 FILLER_160_389
*2271 FILLER_160_401
*2272 FILLER_160_41
*2273 FILLER_160_413
*2274 FILLER_160_417
*2275 FILLER_160_419
*2276 FILLER_160_421
*2277 FILLER_160_433
*2278 FILLER_160_445
*2279 FILLER_160_457
*2280 FILLER_160_469
*2281 FILLER_160_473
*2282 FILLER_160_475
*2283 FILLER_160_477
*2284 FILLER_160_489
*2285 FILLER_160_501
*2286 FILLER_160_513
*2287 FILLER_160_525
*2288 FILLER_160_529
*2289 FILLER_160_53
*2290 FILLER_160_547
*2291 FILLER_160_559
*2292 FILLER_160_571
*2293 FILLER_160_583
*2294 FILLER_160_587
*2295 FILLER_160_589
*2296 FILLER_160_601
*2297 FILLER_160_613
*2298 FILLER_160_625
*2299 FILLER_160_637
*2300 FILLER_160_641
*2301 FILLER_160_643
*2302 FILLER_160_645
*2303 FILLER_160_65
*2304 FILLER_160_657
*2305 FILLER_160_669
*2306 FILLER_160_681
*2307 FILLER_160_693
*2308 FILLER_160_697
*2309 FILLER_160_699
*2310 FILLER_160_701
*2311 FILLER_160_713
*2312 FILLER_160_725
*2313 FILLER_160_737
*2314 FILLER_160_749
*2315 FILLER_160_753
*2316 FILLER_160_755
*2317 FILLER_160_757
*2318 FILLER_160_769
*2319 FILLER_160_77
*2320 FILLER_160_781
*2321 FILLER_160_793
*2322 FILLER_160_805
*2323 FILLER_160_809
*2324 FILLER_160_81
*2325 FILLER_160_811
*2326 FILLER_160_813
*2327 FILLER_160_825
*2328 FILLER_160_83
*2329 FILLER_160_837
*2330 FILLER_160_849
*2331 FILLER_160_85
*2332 FILLER_160_861
*2333 FILLER_160_865
*2334 FILLER_160_867
*2335 FILLER_160_869
*2336 FILLER_160_881
*2337 FILLER_160_893
*2338 FILLER_160_897
*2339 FILLER_160_899
*2340 FILLER_160_902
*2341 FILLER_160_914
*2342 FILLER_160_922
*2343 FILLER_160_925
*2344 FILLER_160_937
*2345 FILLER_160_949
*2346 FILLER_160_967
*2347 FILLER_160_97
*2348 FILLER_160_979
*2349 FILLER_160_981
*2350 FILLER_161_1005
*2351 FILLER_161_1007
*2352 FILLER_161_1009
*2353 FILLER_161_1021
*2354 FILLER_161_1036
*2355 FILLER_161_105
*2356 FILLER_161_1054
*2357 FILLER_161_1062
*2358 FILLER_161_1065
*2359 FILLER_161_1089
*2360 FILLER_161_109
*2361 FILLER_161_1100
*2362 FILLER_161_111
*2363 FILLER_161_1112
*2364 FILLER_161_113
*2365 FILLER_161_1135
*2366 FILLER_161_1147
*2367 FILLER_161_1159
*2368 FILLER_161_1171
*2369 FILLER_161_1175
*2370 FILLER_161_1189
*2371 FILLER_161_1201
*2372 FILLER_161_1209
*2373 FILLER_161_1211
*2374 FILLER_161_1224
*2375 FILLER_161_1233
*2376 FILLER_161_1241
*2377 FILLER_161_1243
*2378 FILLER_161_125
*2379 FILLER_161_1256
*2380 FILLER_161_1268
*2381 FILLER_161_1281
*2382 FILLER_161_1285
*2383 FILLER_161_1287
*2384 FILLER_161_1301
*2385 FILLER_161_1313
*2386 FILLER_161_1325
*2387 FILLER_161_1328
*2388 FILLER_161_1340
*2389 FILLER_161_1345
*2390 FILLER_161_1357
*2391 FILLER_161_1369
*2392 FILLER_161_137
*2393 FILLER_161_1381
*2394 FILLER_161_1393
*2395 FILLER_161_1397
*2396 FILLER_161_1399
*2397 FILLER_161_1401
*2398 FILLER_161_1413
*2399 FILLER_161_1425
*2400 FILLER_161_1437
*2401 FILLER_161_1449
*2402 FILLER_161_1453
*2403 FILLER_161_1455
*2404 FILLER_161_1457
*2405 FILLER_161_1469
*2406 FILLER_161_1481
*2407 FILLER_161_149
*2408 FILLER_161_1493
*2409 FILLER_161_15
*2410 FILLER_161_1505
*2411 FILLER_161_161
*2412 FILLER_161_165
*2413 FILLER_161_167
*2414 FILLER_161_169
*2415 FILLER_161_181
*2416 FILLER_161_193
*2417 FILLER_161_205
*2418 FILLER_161_217
*2419 FILLER_161_221
*2420 FILLER_161_223
*2421 FILLER_161_225
*2422 FILLER_161_237
*2423 FILLER_161_249
*2424 FILLER_161_261
*2425 FILLER_161_27
*2426 FILLER_161_273
*2427 FILLER_161_277
*2428 FILLER_161_279
*2429 FILLER_161_281
*2430 FILLER_161_293
*2431 FILLER_161_3
*2432 FILLER_161_305
*2433 FILLER_161_317
*2434 FILLER_161_329
*2435 FILLER_161_333
*2436 FILLER_161_335
*2437 FILLER_161_337
*2438 FILLER_161_349
*2439 FILLER_161_361
*2440 FILLER_161_373
*2441 FILLER_161_385
*2442 FILLER_161_389
*2443 FILLER_161_39
*2444 FILLER_161_391
*2445 FILLER_161_393
*2446 FILLER_161_405
*2447 FILLER_161_417
*2448 FILLER_161_429
*2449 FILLER_161_441
*2450 FILLER_161_445
*2451 FILLER_161_447
*2452 FILLER_161_449
*2453 FILLER_161_461
*2454 FILLER_161_473
*2455 FILLER_161_485
*2456 FILLER_161_497
*2457 FILLER_161_501
*2458 FILLER_161_503
*2459 FILLER_161_505
*2460 FILLER_161_51
*2461 FILLER_161_517
*2462 FILLER_161_529
*2463 FILLER_161_541
*2464 FILLER_161_55
*2465 FILLER_161_553
*2466 FILLER_161_557
*2467 FILLER_161_559
*2468 FILLER_161_57
*2469 FILLER_161_572
*2470 FILLER_161_574
*2471 FILLER_161_602
*2472 FILLER_161_614
*2473 FILLER_161_617
*2474 FILLER_161_629
*2475 FILLER_161_641
*2476 FILLER_161_653
*2477 FILLER_161_665
*2478 FILLER_161_669
*2479 FILLER_161_671
*2480 FILLER_161_673
*2481 FILLER_161_685
*2482 FILLER_161_69
*2483 FILLER_161_697
*2484 FILLER_161_709
*2485 FILLER_161_721
*2486 FILLER_161_725
*2487 FILLER_161_727
*2488 FILLER_161_729
*2489 FILLER_161_741
*2490 FILLER_161_753
*2491 FILLER_161_765
*2492 FILLER_161_777
*2493 FILLER_161_781
*2494 FILLER_161_783
*2495 FILLER_161_785
*2496 FILLER_161_797
*2497 FILLER_161_809
*2498 FILLER_161_81
*2499 FILLER_161_821
*2500 FILLER_161_833
*2501 FILLER_161_837
*2502 FILLER_161_839
*2503 FILLER_161_841
*2504 FILLER_161_853
*2505 FILLER_161_865
*2506 FILLER_161_877
*2507 FILLER_161_889
*2508 FILLER_161_893
*2509 FILLER_161_895
*2510 FILLER_161_897
*2511 FILLER_161_909
*2512 FILLER_161_921
*2513 FILLER_161_93
*2514 FILLER_161_933
*2515 FILLER_161_945
*2516 FILLER_161_949
*2517 FILLER_161_951
*2518 FILLER_161_953
*2519 FILLER_161_957
*2520 FILLER_161_969
*2521 FILLER_161_981
*2522 FILLER_161_989
*2523 FILLER_161_993
*2524 FILLER_162_1005
*2525 FILLER_162_1017
*2526 FILLER_162_1021
*2527 FILLER_162_1023
*2528 FILLER_162_1026
*2529 FILLER_162_1034
*2530 FILLER_162_1037
*2531 FILLER_162_1041
*2532 FILLER_162_1044
*2533 FILLER_162_1056
*2534 FILLER_162_1068
*2535 FILLER_162_1076
*2536 FILLER_162_1079
*2537 FILLER_162_109
*2538 FILLER_162_1091
*2539 FILLER_162_1093
*2540 FILLER_162_1105
*2541 FILLER_162_1117
*2542 FILLER_162_1123
*2543 FILLER_162_1135
*2544 FILLER_162_1147
*2545 FILLER_162_1149
*2546 FILLER_162_1161
*2547 FILLER_162_1173
*2548 FILLER_162_1179
*2549 FILLER_162_1191
*2550 FILLER_162_1203
*2551 FILLER_162_1205
*2552 FILLER_162_1209
*2553 FILLER_162_121
*2554 FILLER_162_1211
*2555 FILLER_162_1214
*2556 FILLER_162_1226
*2557 FILLER_162_1238
*2558 FILLER_162_1242
*2559 FILLER_162_1246
*2560 FILLER_162_1258
*2561 FILLER_162_1261
*2562 FILLER_162_1271
*2563 FILLER_162_1283
*2564 FILLER_162_1287
*2565 FILLER_162_1291
*2566 FILLER_162_1303
*2567 FILLER_162_1315
*2568 FILLER_162_1317
*2569 FILLER_162_1329
*2570 FILLER_162_133
*2571 FILLER_162_1341
*2572 FILLER_162_1353
*2573 FILLER_162_1365
*2574 FILLER_162_1369
*2575 FILLER_162_137
*2576 FILLER_162_1371
*2577 FILLER_162_1373
*2578 FILLER_162_1385
*2579 FILLER_162_139
*2580 FILLER_162_1397
*2581 FILLER_162_1409
*2582 FILLER_162_141
*2583 FILLER_162_1421
*2584 FILLER_162_1425
*2585 FILLER_162_1427
*2586 FILLER_162_1429
*2587 FILLER_162_1441
*2588 FILLER_162_1453
*2589 FILLER_162_1465
*2590 FILLER_162_1477
*2591 FILLER_162_1481
*2592 FILLER_162_1483
*2593 FILLER_162_1485
*2594 FILLER_162_1497
*2595 FILLER_162_15
*2596 FILLER_162_1505
*2597 FILLER_162_153
*2598 FILLER_162_165
*2599 FILLER_162_177
*2600 FILLER_162_189
*2601 FILLER_162_193
*2602 FILLER_162_195
*2603 FILLER_162_197
*2604 FILLER_162_209
*2605 FILLER_162_221
*2606 FILLER_162_233
*2607 FILLER_162_245
*2608 FILLER_162_249
*2609 FILLER_162_251
*2610 FILLER_162_253
*2611 FILLER_162_265
*2612 FILLER_162_27
*2613 FILLER_162_277
*2614 FILLER_162_289
*2615 FILLER_162_29
*2616 FILLER_162_3
*2617 FILLER_162_301
*2618 FILLER_162_305
*2619 FILLER_162_307
*2620 FILLER_162_309
*2621 FILLER_162_321
*2622 FILLER_162_333
*2623 FILLER_162_345
*2624 FILLER_162_357
*2625 FILLER_162_361
*2626 FILLER_162_363
*2627 FILLER_162_365
*2628 FILLER_162_377
*2629 FILLER_162_389
*2630 FILLER_162_401
*2631 FILLER_162_41
*2632 FILLER_162_413
*2633 FILLER_162_417
*2634 FILLER_162_419
*2635 FILLER_162_421
*2636 FILLER_162_433
*2637 FILLER_162_445
*2638 FILLER_162_457
*2639 FILLER_162_469
*2640 FILLER_162_473
*2641 FILLER_162_475
*2642 FILLER_162_477
*2643 FILLER_162_489
*2644 FILLER_162_501
*2645 FILLER_162_513
*2646 FILLER_162_525
*2647 FILLER_162_529
*2648 FILLER_162_53
*2649 FILLER_162_531
*2650 FILLER_162_533
*2651 FILLER_162_545
*2652 FILLER_162_557
*2653 FILLER_162_569
*2654 FILLER_162_581
*2655 FILLER_162_587
*2656 FILLER_162_589
*2657 FILLER_162_601
*2658 FILLER_162_613
*2659 FILLER_162_625
*2660 FILLER_162_637
*2661 FILLER_162_641
*2662 FILLER_162_643
*2663 FILLER_162_645
*2664 FILLER_162_65
*2665 FILLER_162_657
*2666 FILLER_162_669
*2667 FILLER_162_681
*2668 FILLER_162_693
*2669 FILLER_162_697
*2670 FILLER_162_699
*2671 FILLER_162_701
*2672 FILLER_162_713
*2673 FILLER_162_725
*2674 FILLER_162_737
*2675 FILLER_162_749
*2676 FILLER_162_753
*2677 FILLER_162_755
*2678 FILLER_162_757
*2679 FILLER_162_769
*2680 FILLER_162_77
*2681 FILLER_162_781
*2682 FILLER_162_793
*2683 FILLER_162_805
*2684 FILLER_162_809
*2685 FILLER_162_81
*2686 FILLER_162_811
*2687 FILLER_162_813
*2688 FILLER_162_825
*2689 FILLER_162_83
*2690 FILLER_162_837
*2691 FILLER_162_849
*2692 FILLER_162_85
*2693 FILLER_162_861
*2694 FILLER_162_865
*2695 FILLER_162_867
*2696 FILLER_162_869
*2697 FILLER_162_881
*2698 FILLER_162_893
*2699 FILLER_162_905
*2700 FILLER_162_917
*2701 FILLER_162_921
*2702 FILLER_162_923
*2703 FILLER_162_925
*2704 FILLER_162_937
*2705 FILLER_162_949
*2706 FILLER_162_961
*2707 FILLER_162_97
*2708 FILLER_162_973
*2709 FILLER_162_977
*2710 FILLER_162_979
*2711 FILLER_162_981
*2712 FILLER_162_993
*2713 FILLER_163_1001
*2714 FILLER_163_1005
*2715 FILLER_163_1007
*2716 FILLER_163_1009
*2717 FILLER_163_1021
*2718 FILLER_163_1033
*2719 FILLER_163_1045
*2720 FILLER_163_105
*2721 FILLER_163_1057
*2722 FILLER_163_1061
*2723 FILLER_163_1063
*2724 FILLER_163_1065
*2725 FILLER_163_1077
*2726 FILLER_163_1089
*2727 FILLER_163_109
*2728 FILLER_163_1101
*2729 FILLER_163_111
*2730 FILLER_163_1113
*2731 FILLER_163_1117
*2732 FILLER_163_1119
*2733 FILLER_163_1121
*2734 FILLER_163_113
*2735 FILLER_163_1133
*2736 FILLER_163_1145
*2737 FILLER_163_1157
*2738 FILLER_163_1169
*2739 FILLER_163_1173
*2740 FILLER_163_1175
*2741 FILLER_163_1177
*2742 FILLER_163_1189
*2743 FILLER_163_1201
*2744 FILLER_163_1213
*2745 FILLER_163_1225
*2746 FILLER_163_1229
*2747 FILLER_163_1231
*2748 FILLER_163_1233
*2749 FILLER_163_1245
*2750 FILLER_163_125
*2751 FILLER_163_1257
*2752 FILLER_163_1269
*2753 FILLER_163_1281
*2754 FILLER_163_1285
*2755 FILLER_163_1287
*2756 FILLER_163_1289
*2757 FILLER_163_1301
*2758 FILLER_163_1313
*2759 FILLER_163_1325
*2760 FILLER_163_1337
*2761 FILLER_163_1341
*2762 FILLER_163_1343
*2763 FILLER_163_1345
*2764 FILLER_163_1357
*2765 FILLER_163_1369
*2766 FILLER_163_137
*2767 FILLER_163_1381
*2768 FILLER_163_1393
*2769 FILLER_163_1397
*2770 FILLER_163_1399
*2771 FILLER_163_1401
*2772 FILLER_163_1413
*2773 FILLER_163_1425
*2774 FILLER_163_1437
*2775 FILLER_163_1449
*2776 FILLER_163_1453
*2777 FILLER_163_1455
*2778 FILLER_163_1457
*2779 FILLER_163_1469
*2780 FILLER_163_1481
*2781 FILLER_163_149
*2782 FILLER_163_1493
*2783 FILLER_163_15
*2784 FILLER_163_1505
*2785 FILLER_163_161
*2786 FILLER_163_165
*2787 FILLER_163_167
*2788 FILLER_163_169
*2789 FILLER_163_181
*2790 FILLER_163_193
*2791 FILLER_163_205
*2792 FILLER_163_217
*2793 FILLER_163_221
*2794 FILLER_163_223
*2795 FILLER_163_225
*2796 FILLER_163_237
*2797 FILLER_163_249
*2798 FILLER_163_261
*2799 FILLER_163_27
*2800 FILLER_163_273
*2801 FILLER_163_277
*2802 FILLER_163_279
*2803 FILLER_163_281
*2804 FILLER_163_293
*2805 FILLER_163_3
*2806 FILLER_163_305
*2807 FILLER_163_317
*2808 FILLER_163_329
*2809 FILLER_163_333
*2810 FILLER_163_335
*2811 FILLER_163_337
*2812 FILLER_163_349
*2813 FILLER_163_361
*2814 FILLER_163_373
*2815 FILLER_163_385
*2816 FILLER_163_389
*2817 FILLER_163_39
*2818 FILLER_163_391
*2819 FILLER_163_393
*2820 FILLER_163_405
*2821 FILLER_163_417
*2822 FILLER_163_429
*2823 FILLER_163_441
*2824 FILLER_163_445
*2825 FILLER_163_447
*2826 FILLER_163_449
*2827 FILLER_163_461
*2828 FILLER_163_473
*2829 FILLER_163_485
*2830 FILLER_163_497
*2831 FILLER_163_501
*2832 FILLER_163_503
*2833 FILLER_163_505
*2834 FILLER_163_51
*2835 FILLER_163_517
*2836 FILLER_163_529
*2837 FILLER_163_541
*2838 FILLER_163_55
*2839 FILLER_163_553
*2840 FILLER_163_557
*2841 FILLER_163_559
*2842 FILLER_163_561
*2843 FILLER_163_57
*2844 FILLER_163_573
*2845 FILLER_163_585
*2846 FILLER_163_597
*2847 FILLER_163_609
*2848 FILLER_163_613
*2849 FILLER_163_615
*2850 FILLER_163_617
*2851 FILLER_163_629
*2852 FILLER_163_641
*2853 FILLER_163_653
*2854 FILLER_163_665
*2855 FILLER_163_669
*2856 FILLER_163_671
*2857 FILLER_163_673
*2858 FILLER_163_685
*2859 FILLER_163_69
*2860 FILLER_163_697
*2861 FILLER_163_709
*2862 FILLER_163_721
*2863 FILLER_163_725
*2864 FILLER_163_727
*2865 FILLER_163_729
*2866 FILLER_163_741
*2867 FILLER_163_753
*2868 FILLER_163_765
*2869 FILLER_163_777
*2870 FILLER_163_781
*2871 FILLER_163_783
*2872 FILLER_163_785
*2873 FILLER_163_797
*2874 FILLER_163_809
*2875 FILLER_163_81
*2876 FILLER_163_821
*2877 FILLER_163_833
*2878 FILLER_163_837
*2879 FILLER_163_839
*2880 FILLER_163_841
*2881 FILLER_163_853
*2882 FILLER_163_865
*2883 FILLER_163_877
*2884 FILLER_163_889
*2885 FILLER_163_893
*2886 FILLER_163_895
*2887 FILLER_163_897
*2888 FILLER_163_909
*2889 FILLER_163_921
*2890 FILLER_163_93
*2891 FILLER_163_933
*2892 FILLER_163_945
*2893 FILLER_163_949
*2894 FILLER_163_951
*2895 FILLER_163_953
*2896 FILLER_163_965
*2897 FILLER_163_977
*2898 FILLER_163_989
*2899 FILLER_164_1005
*2900 FILLER_164_1017
*2901 FILLER_164_1029
*2902 FILLER_164_1033
*2903 FILLER_164_1035
*2904 FILLER_164_1037
*2905 FILLER_164_1049
*2906 FILLER_164_1061
*2907 FILLER_164_1073
*2908 FILLER_164_1085
*2909 FILLER_164_1089
*2910 FILLER_164_109
*2911 FILLER_164_1091
*2912 FILLER_164_1093
*2913 FILLER_164_1105
*2914 FILLER_164_1117
*2915 FILLER_164_1129
*2916 FILLER_164_1141
*2917 FILLER_164_1145
*2918 FILLER_164_1147
*2919 FILLER_164_1149
*2920 FILLER_164_1161
*2921 FILLER_164_1173
*2922 FILLER_164_1185
*2923 FILLER_164_1197
*2924 FILLER_164_1201
*2925 FILLER_164_1203
*2926 FILLER_164_1205
*2927 FILLER_164_121
*2928 FILLER_164_1217
*2929 FILLER_164_1229
*2930 FILLER_164_1241
*2931 FILLER_164_1253
*2932 FILLER_164_1257
*2933 FILLER_164_1259
*2934 FILLER_164_1261
*2935 FILLER_164_1273
*2936 FILLER_164_1285
*2937 FILLER_164_1297
*2938 FILLER_164_1309
*2939 FILLER_164_1313
*2940 FILLER_164_1315
*2941 FILLER_164_1317
*2942 FILLER_164_1329
*2943 FILLER_164_133
*2944 FILLER_164_1341
*2945 FILLER_164_1353
*2946 FILLER_164_1365
*2947 FILLER_164_1369
*2948 FILLER_164_137
*2949 FILLER_164_1371
*2950 FILLER_164_1373
*2951 FILLER_164_1385
*2952 FILLER_164_139
*2953 FILLER_164_1397
*2954 FILLER_164_1409
*2955 FILLER_164_141
*2956 FILLER_164_1421
*2957 FILLER_164_1425
*2958 FILLER_164_1427
*2959 FILLER_164_1429
*2960 FILLER_164_1441
*2961 FILLER_164_1453
*2962 FILLER_164_1465
*2963 FILLER_164_1477
*2964 FILLER_164_1481
*2965 FILLER_164_1483
*2966 FILLER_164_1485
*2967 FILLER_164_1497
*2968 FILLER_164_15
*2969 FILLER_164_1505
*2970 FILLER_164_153
*2971 FILLER_164_165
*2972 FILLER_164_177
*2973 FILLER_164_189
*2974 FILLER_164_193
*2975 FILLER_164_195
*2976 FILLER_164_197
*2977 FILLER_164_209
*2978 FILLER_164_221
*2979 FILLER_164_233
*2980 FILLER_164_245
*2981 FILLER_164_249
*2982 FILLER_164_251
*2983 FILLER_164_253
*2984 FILLER_164_265
*2985 FILLER_164_27
*2986 FILLER_164_277
*2987 FILLER_164_289
*2988 FILLER_164_29
*2989 FILLER_164_3
*2990 FILLER_164_301
*2991 FILLER_164_305
*2992 FILLER_164_307
*2993 FILLER_164_309
*2994 FILLER_164_321
*2995 FILLER_164_333
*2996 FILLER_164_345
*2997 FILLER_164_357
*2998 FILLER_164_361
*2999 FILLER_164_363
*3000 FILLER_164_365
*3001 FILLER_164_377
*3002 FILLER_164_389
*3003 FILLER_164_401
*3004 FILLER_164_41
*3005 FILLER_164_413
*3006 FILLER_164_417
*3007 FILLER_164_419
*3008 FILLER_164_421
*3009 FILLER_164_433
*3010 FILLER_164_445
*3011 FILLER_164_457
*3012 FILLER_164_469
*3013 FILLER_164_473
*3014 FILLER_164_475
*3015 FILLER_164_477
*3016 FILLER_164_489
*3017 FILLER_164_501
*3018 FILLER_164_513
*3019 FILLER_164_525
*3020 FILLER_164_529
*3021 FILLER_164_53
*3022 FILLER_164_531
*3023 FILLER_164_533
*3024 FILLER_164_545
*3025 FILLER_164_557
*3026 FILLER_164_569
*3027 FILLER_164_581
*3028 FILLER_164_585
*3029 FILLER_164_587
*3030 FILLER_164_589
*3031 FILLER_164_601
*3032 FILLER_164_613
*3033 FILLER_164_625
*3034 FILLER_164_637
*3035 FILLER_164_641
*3036 FILLER_164_643
*3037 FILLER_164_645
*3038 FILLER_164_65
*3039 FILLER_164_657
*3040 FILLER_164_669
*3041 FILLER_164_681
*3042 FILLER_164_693
*3043 FILLER_164_697
*3044 FILLER_164_699
*3045 FILLER_164_701
*3046 FILLER_164_713
*3047 FILLER_164_725
*3048 FILLER_164_737
*3049 FILLER_164_749
*3050 FILLER_164_753
*3051 FILLER_164_755
*3052 FILLER_164_757
*3053 FILLER_164_769
*3054 FILLER_164_77
*3055 FILLER_164_781
*3056 FILLER_164_793
*3057 FILLER_164_805
*3058 FILLER_164_809
*3059 FILLER_164_81
*3060 FILLER_164_811
*3061 FILLER_164_813
*3062 FILLER_164_825
*3063 FILLER_164_83
*3064 FILLER_164_837
*3065 FILLER_164_849
*3066 FILLER_164_85
*3067 FILLER_164_861
*3068 FILLER_164_865
*3069 FILLER_164_867
*3070 FILLER_164_869
*3071 FILLER_164_881
*3072 FILLER_164_893
*3073 FILLER_164_905
*3074 FILLER_164_917
*3075 FILLER_164_921
*3076 FILLER_164_923
*3077 FILLER_164_925
*3078 FILLER_164_937
*3079 FILLER_164_949
*3080 FILLER_164_961
*3081 FILLER_164_97
*3082 FILLER_164_973
*3083 FILLER_164_977
*3084 FILLER_164_979
*3085 FILLER_164_981
*3086 FILLER_164_993
*3087 FILLER_165_1001
*3088 FILLER_165_1005
*3089 FILLER_165_1007
*3090 FILLER_165_1009
*3091 FILLER_165_1021
*3092 FILLER_165_1033
*3093 FILLER_165_1045
*3094 FILLER_165_105
*3095 FILLER_165_1057
*3096 FILLER_165_1061
*3097 FILLER_165_1063
*3098 FILLER_165_1065
*3099 FILLER_165_1077
*3100 FILLER_165_1089
*3101 FILLER_165_109
*3102 FILLER_165_1101
*3103 FILLER_165_111
*3104 FILLER_165_1113
*3105 FILLER_165_1117
*3106 FILLER_165_1119
*3107 FILLER_165_1121
*3108 FILLER_165_113
*3109 FILLER_165_1133
*3110 FILLER_165_1145
*3111 FILLER_165_1157
*3112 FILLER_165_1169
*3113 FILLER_165_1173
*3114 FILLER_165_1175
*3115 FILLER_165_1177
*3116 FILLER_165_1189
*3117 FILLER_165_1201
*3118 FILLER_165_1213
*3119 FILLER_165_1225
*3120 FILLER_165_1229
*3121 FILLER_165_1231
*3122 FILLER_165_1233
*3123 FILLER_165_1245
*3124 FILLER_165_125
*3125 FILLER_165_1257
*3126 FILLER_165_1269
*3127 FILLER_165_1281
*3128 FILLER_165_1285
*3129 FILLER_165_1287
*3130 FILLER_165_1289
*3131 FILLER_165_1301
*3132 FILLER_165_1313
*3133 FILLER_165_1325
*3134 FILLER_165_1337
*3135 FILLER_165_1341
*3136 FILLER_165_1343
*3137 FILLER_165_1345
*3138 FILLER_165_1357
*3139 FILLER_165_1369
*3140 FILLER_165_137
*3141 FILLER_165_1381
*3142 FILLER_165_1393
*3143 FILLER_165_1397
*3144 FILLER_165_1399
*3145 FILLER_165_1401
*3146 FILLER_165_1413
*3147 FILLER_165_1425
*3148 FILLER_165_1437
*3149 FILLER_165_1449
*3150 FILLER_165_1453
*3151 FILLER_165_1455
*3152 FILLER_165_1457
*3153 FILLER_165_1469
*3154 FILLER_165_1481
*3155 FILLER_165_149
*3156 FILLER_165_1493
*3157 FILLER_165_15
*3158 FILLER_165_1505
*3159 FILLER_165_161
*3160 FILLER_165_165
*3161 FILLER_165_167
*3162 FILLER_165_169
*3163 FILLER_165_181
*3164 FILLER_165_193
*3165 FILLER_165_205
*3166 FILLER_165_217
*3167 FILLER_165_221
*3168 FILLER_165_223
*3169 FILLER_165_225
*3170 FILLER_165_237
*3171 FILLER_165_249
*3172 FILLER_165_261
*3173 FILLER_165_27
*3174 FILLER_165_273
*3175 FILLER_165_277
*3176 FILLER_165_279
*3177 FILLER_165_281
*3178 FILLER_165_293
*3179 FILLER_165_3
*3180 FILLER_165_305
*3181 FILLER_165_317
*3182 FILLER_165_329
*3183 FILLER_165_333
*3184 FILLER_165_335
*3185 FILLER_165_337
*3186 FILLER_165_349
*3187 FILLER_165_361
*3188 FILLER_165_373
*3189 FILLER_165_385
*3190 FILLER_165_389
*3191 FILLER_165_39
*3192 FILLER_165_391
*3193 FILLER_165_393
*3194 FILLER_165_405
*3195 FILLER_165_417
*3196 FILLER_165_429
*3197 FILLER_165_441
*3198 FILLER_165_445
*3199 FILLER_165_447
*3200 FILLER_165_449
*3201 FILLER_165_461
*3202 FILLER_165_473
*3203 FILLER_165_485
*3204 FILLER_165_497
*3205 FILLER_165_501
*3206 FILLER_165_503
*3207 FILLER_165_505
*3208 FILLER_165_51
*3209 FILLER_165_517
*3210 FILLER_165_529
*3211 FILLER_165_541
*3212 FILLER_165_55
*3213 FILLER_165_553
*3214 FILLER_165_557
*3215 FILLER_165_559
*3216 FILLER_165_561
*3217 FILLER_165_57
*3218 FILLER_165_573
*3219 FILLER_165_585
*3220 FILLER_165_597
*3221 FILLER_165_609
*3222 FILLER_165_613
*3223 FILLER_165_615
*3224 FILLER_165_617
*3225 FILLER_165_629
*3226 FILLER_165_641
*3227 FILLER_165_653
*3228 FILLER_165_665
*3229 FILLER_165_669
*3230 FILLER_165_671
*3231 FILLER_165_673
*3232 FILLER_165_685
*3233 FILLER_165_69
*3234 FILLER_165_697
*3235 FILLER_165_709
*3236 FILLER_165_721
*3237 FILLER_165_725
*3238 FILLER_165_727
*3239 FILLER_165_729
*3240 FILLER_165_741
*3241 FILLER_165_753
*3242 FILLER_165_765
*3243 FILLER_165_777
*3244 FILLER_165_781
*3245 FILLER_165_783
*3246 FILLER_165_785
*3247 FILLER_165_797
*3248 FILLER_165_809
*3249 FILLER_165_81
*3250 FILLER_165_821
*3251 FILLER_165_833
*3252 FILLER_165_837
*3253 FILLER_165_839
*3254 FILLER_165_841
*3255 FILLER_165_853
*3256 FILLER_165_865
*3257 FILLER_165_877
*3258 FILLER_165_889
*3259 FILLER_165_893
*3260 FILLER_165_895
*3261 FILLER_165_897
*3262 FILLER_165_909
*3263 FILLER_165_921
*3264 FILLER_165_93
*3265 FILLER_165_933
*3266 FILLER_165_945
*3267 FILLER_165_949
*3268 FILLER_165_951
*3269 FILLER_165_953
*3270 FILLER_165_965
*3271 FILLER_165_977
*3272 FILLER_165_989
*3273 FILLER_166_1005
*3274 FILLER_166_1017
*3275 FILLER_166_1029
*3276 FILLER_166_1033
*3277 FILLER_166_1035
*3278 FILLER_166_1037
*3279 FILLER_166_1049
*3280 FILLER_166_1061
*3281 FILLER_166_1073
*3282 FILLER_166_1085
*3283 FILLER_166_1089
*3284 FILLER_166_109
*3285 FILLER_166_1091
*3286 FILLER_166_1093
*3287 FILLER_166_1105
*3288 FILLER_166_1117
*3289 FILLER_166_1129
*3290 FILLER_166_1141
*3291 FILLER_166_1145
*3292 FILLER_166_1147
*3293 FILLER_166_1149
*3294 FILLER_166_1161
*3295 FILLER_166_1173
*3296 FILLER_166_1185
*3297 FILLER_166_1197
*3298 FILLER_166_1201
*3299 FILLER_166_1203
*3300 FILLER_166_1205
*3301 FILLER_166_121
*3302 FILLER_166_1217
*3303 FILLER_166_1229
*3304 FILLER_166_1241
*3305 FILLER_166_1253
*3306 FILLER_166_1257
*3307 FILLER_166_1259
*3308 FILLER_166_1261
*3309 FILLER_166_1273
*3310 FILLER_166_1285
*3311 FILLER_166_1297
*3312 FILLER_166_1309
*3313 FILLER_166_1313
*3314 FILLER_166_1315
*3315 FILLER_166_1317
*3316 FILLER_166_1329
*3317 FILLER_166_133
*3318 FILLER_166_1341
*3319 FILLER_166_1353
*3320 FILLER_166_1365
*3321 FILLER_166_1369
*3322 FILLER_166_137
*3323 FILLER_166_1371
*3324 FILLER_166_1373
*3325 FILLER_166_1385
*3326 FILLER_166_139
*3327 FILLER_166_1397
*3328 FILLER_166_1409
*3329 FILLER_166_141
*3330 FILLER_166_1421
*3331 FILLER_166_1425
*3332 FILLER_166_1427
*3333 FILLER_166_1429
*3334 FILLER_166_1441
*3335 FILLER_166_1453
*3336 FILLER_166_1465
*3337 FILLER_166_1477
*3338 FILLER_166_1481
*3339 FILLER_166_1483
*3340 FILLER_166_1485
*3341 FILLER_166_1497
*3342 FILLER_166_15
*3343 FILLER_166_1505
*3344 FILLER_166_153
*3345 FILLER_166_165
*3346 FILLER_166_177
*3347 FILLER_166_189
*3348 FILLER_166_193
*3349 FILLER_166_195
*3350 FILLER_166_197
*3351 FILLER_166_209
*3352 FILLER_166_221
*3353 FILLER_166_233
*3354 FILLER_166_245
*3355 FILLER_166_249
*3356 FILLER_166_251
*3357 FILLER_166_253
*3358 FILLER_166_265
*3359 FILLER_166_27
*3360 FILLER_166_277
*3361 FILLER_166_289
*3362 FILLER_166_29
*3363 FILLER_166_3
*3364 FILLER_166_301
*3365 FILLER_166_305
*3366 FILLER_166_307
*3367 FILLER_166_309
*3368 FILLER_166_321
*3369 FILLER_166_333
*3370 FILLER_166_345
*3371 FILLER_166_357
*3372 FILLER_166_361
*3373 FILLER_166_363
*3374 FILLER_166_365
*3375 FILLER_166_377
*3376 FILLER_166_389
*3377 FILLER_166_401
*3378 FILLER_166_41
*3379 FILLER_166_413
*3380 FILLER_166_417
*3381 FILLER_166_419
*3382 FILLER_166_421
*3383 FILLER_166_433
*3384 FILLER_166_445
*3385 FILLER_166_457
*3386 FILLER_166_469
*3387 FILLER_166_473
*3388 FILLER_166_475
*3389 FILLER_166_477
*3390 FILLER_166_489
*3391 FILLER_166_501
*3392 FILLER_166_513
*3393 FILLER_166_525
*3394 FILLER_166_529
*3395 FILLER_166_53
*3396 FILLER_166_531
*3397 FILLER_166_533
*3398 FILLER_166_545
*3399 FILLER_166_557
*3400 FILLER_166_569
*3401 FILLER_166_581
*3402 FILLER_166_585
*3403 FILLER_166_587
*3404 FILLER_166_589
*3405 FILLER_166_601
*3406 FILLER_166_613
*3407 FILLER_166_625
*3408 FILLER_166_637
*3409 FILLER_166_641
*3410 FILLER_166_643
*3411 FILLER_166_645
*3412 FILLER_166_65
*3413 FILLER_166_657
*3414 FILLER_166_669
*3415 FILLER_166_681
*3416 FILLER_166_693
*3417 FILLER_166_697
*3418 FILLER_166_699
*3419 FILLER_166_701
*3420 FILLER_166_713
*3421 FILLER_166_725
*3422 FILLER_166_737
*3423 FILLER_166_749
*3424 FILLER_166_753
*3425 FILLER_166_755
*3426 FILLER_166_757
*3427 FILLER_166_769
*3428 FILLER_166_77
*3429 FILLER_166_781
*3430 FILLER_166_793
*3431 FILLER_166_805
*3432 FILLER_166_809
*3433 FILLER_166_81
*3434 FILLER_166_811
*3435 FILLER_166_813
*3436 FILLER_166_825
*3437 FILLER_166_83
*3438 FILLER_166_837
*3439 FILLER_166_849
*3440 FILLER_166_85
*3441 FILLER_166_861
*3442 FILLER_166_865
*3443 FILLER_166_867
*3444 FILLER_166_869
*3445 FILLER_166_881
*3446 FILLER_166_893
*3447 FILLER_166_905
*3448 FILLER_166_917
*3449 FILLER_166_921
*3450 FILLER_166_923
*3451 FILLER_166_925
*3452 FILLER_166_937
*3453 FILLER_166_949
*3454 FILLER_166_961
*3455 FILLER_166_97
*3456 FILLER_166_973
*3457 FILLER_166_977
*3458 FILLER_166_979
*3459 FILLER_166_981
*3460 FILLER_166_993
*3461 FILLER_167_1001
*3462 FILLER_167_1005
*3463 FILLER_167_1007
*3464 FILLER_167_1009
*3465 FILLER_167_1021
*3466 FILLER_167_1033
*3467 FILLER_167_1045
*3468 FILLER_167_105
*3469 FILLER_167_1057
*3470 FILLER_167_1061
*3471 FILLER_167_1063
*3472 FILLER_167_1065
*3473 FILLER_167_1077
*3474 FILLER_167_1089
*3475 FILLER_167_109
*3476 FILLER_167_1101
*3477 FILLER_167_111
*3478 FILLER_167_1113
*3479 FILLER_167_1117
*3480 FILLER_167_1119
*3481 FILLER_167_1121
*3482 FILLER_167_113
*3483 FILLER_167_1133
*3484 FILLER_167_1145
*3485 FILLER_167_1157
*3486 FILLER_167_1169
*3487 FILLER_167_1173
*3488 FILLER_167_1175
*3489 FILLER_167_1177
*3490 FILLER_167_1189
*3491 FILLER_167_1201
*3492 FILLER_167_1213
*3493 FILLER_167_1225
*3494 FILLER_167_1229
*3495 FILLER_167_1231
*3496 FILLER_167_1233
*3497 FILLER_167_1245
*3498 FILLER_167_125
*3499 FILLER_167_1257
*3500 FILLER_167_1269
*3501 FILLER_167_1281
*3502 FILLER_167_1285
*3503 FILLER_167_1287
*3504 FILLER_167_1289
*3505 FILLER_167_1301
*3506 FILLER_167_1313
*3507 FILLER_167_1325
*3508 FILLER_167_1337
*3509 FILLER_167_1341
*3510 FILLER_167_1343
*3511 FILLER_167_1345
*3512 FILLER_167_1357
*3513 FILLER_167_1369
*3514 FILLER_167_137
*3515 FILLER_167_1381
*3516 FILLER_167_1393
*3517 FILLER_167_1397
*3518 FILLER_167_1399
*3519 FILLER_167_1401
*3520 FILLER_167_1413
*3521 FILLER_167_1425
*3522 FILLER_167_1437
*3523 FILLER_167_1449
*3524 FILLER_167_1453
*3525 FILLER_167_1455
*3526 FILLER_167_1457
*3527 FILLER_167_1469
*3528 FILLER_167_1481
*3529 FILLER_167_149
*3530 FILLER_167_1493
*3531 FILLER_167_15
*3532 FILLER_167_1505
*3533 FILLER_167_161
*3534 FILLER_167_165
*3535 FILLER_167_167
*3536 FILLER_167_169
*3537 FILLER_167_181
*3538 FILLER_167_193
*3539 FILLER_167_205
*3540 FILLER_167_217
*3541 FILLER_167_221
*3542 FILLER_167_223
*3543 FILLER_167_225
*3544 FILLER_167_237
*3545 FILLER_167_249
*3546 FILLER_167_261
*3547 FILLER_167_27
*3548 FILLER_167_273
*3549 FILLER_167_277
*3550 FILLER_167_279
*3551 FILLER_167_281
*3552 FILLER_167_293
*3553 FILLER_167_3
*3554 FILLER_167_305
*3555 FILLER_167_317
*3556 FILLER_167_329
*3557 FILLER_167_333
*3558 FILLER_167_335
*3559 FILLER_167_337
*3560 FILLER_167_349
*3561 FILLER_167_361
*3562 FILLER_167_373
*3563 FILLER_167_385
*3564 FILLER_167_389
*3565 FILLER_167_39
*3566 FILLER_167_391
*3567 FILLER_167_393
*3568 FILLER_167_405
*3569 FILLER_167_417
*3570 FILLER_167_429
*3571 FILLER_167_441
*3572 FILLER_167_445
*3573 FILLER_167_447
*3574 FILLER_167_449
*3575 FILLER_167_461
*3576 FILLER_167_473
*3577 FILLER_167_485
*3578 FILLER_167_497
*3579 FILLER_167_501
*3580 FILLER_167_503
*3581 FILLER_167_505
*3582 FILLER_167_51
*3583 FILLER_167_517
*3584 FILLER_167_529
*3585 FILLER_167_541
*3586 FILLER_167_55
*3587 FILLER_167_553
*3588 FILLER_167_557
*3589 FILLER_167_559
*3590 FILLER_167_561
*3591 FILLER_167_57
*3592 FILLER_167_573
*3593 FILLER_167_585
*3594 FILLER_167_597
*3595 FILLER_167_609
*3596 FILLER_167_613
*3597 FILLER_167_615
*3598 FILLER_167_617
*3599 FILLER_167_629
*3600 FILLER_167_641
*3601 FILLER_167_653
*3602 FILLER_167_665
*3603 FILLER_167_669
*3604 FILLER_167_671
*3605 FILLER_167_673
*3606 FILLER_167_685
*3607 FILLER_167_69
*3608 FILLER_167_697
*3609 FILLER_167_709
*3610 FILLER_167_721
*3611 FILLER_167_725
*3612 FILLER_167_727
*3613 FILLER_167_729
*3614 FILLER_167_741
*3615 FILLER_167_753
*3616 FILLER_167_765
*3617 FILLER_167_777
*3618 FILLER_167_781
*3619 FILLER_167_783
*3620 FILLER_167_785
*3621 FILLER_167_797
*3622 FILLER_167_809
*3623 FILLER_167_81
*3624 FILLER_167_821
*3625 FILLER_167_833
*3626 FILLER_167_837
*3627 FILLER_167_839
*3628 FILLER_167_841
*3629 FILLER_167_853
*3630 FILLER_167_865
*3631 FILLER_167_877
*3632 FILLER_167_889
*3633 FILLER_167_893
*3634 FILLER_167_895
*3635 FILLER_167_897
*3636 FILLER_167_909
*3637 FILLER_167_921
*3638 FILLER_167_93
*3639 FILLER_167_933
*3640 FILLER_167_945
*3641 FILLER_167_949
*3642 FILLER_167_951
*3643 FILLER_167_953
*3644 FILLER_167_965
*3645 FILLER_167_977
*3646 FILLER_167_989
*3647 FILLER_168_1005
*3648 FILLER_168_1017
*3649 FILLER_168_1029
*3650 FILLER_168_1033
*3651 FILLER_168_1035
*3652 FILLER_168_1037
*3653 FILLER_168_1049
*3654 FILLER_168_1053
*3655 FILLER_168_1074
*3656 FILLER_168_1086
*3657 FILLER_168_109
*3658 FILLER_168_1090
*3659 FILLER_168_1093
*3660 FILLER_168_1105
*3661 FILLER_168_1117
*3662 FILLER_168_1129
*3663 FILLER_168_1141
*3664 FILLER_168_1145
*3665 FILLER_168_1147
*3666 FILLER_168_1149
*3667 FILLER_168_1161
*3668 FILLER_168_1173
*3669 FILLER_168_1185
*3670 FILLER_168_1197
*3671 FILLER_168_1201
*3672 FILLER_168_1203
*3673 FILLER_168_1205
*3674 FILLER_168_121
*3675 FILLER_168_1217
*3676 FILLER_168_1229
*3677 FILLER_168_1241
*3678 FILLER_168_1253
*3679 FILLER_168_1257
*3680 FILLER_168_1259
*3681 FILLER_168_1261
*3682 FILLER_168_1273
*3683 FILLER_168_1285
*3684 FILLER_168_1297
*3685 FILLER_168_1309
*3686 FILLER_168_1313
*3687 FILLER_168_1315
*3688 FILLER_168_1317
*3689 FILLER_168_1329
*3690 FILLER_168_133
*3691 FILLER_168_1341
*3692 FILLER_168_1353
*3693 FILLER_168_1365
*3694 FILLER_168_1369
*3695 FILLER_168_137
*3696 FILLER_168_1371
*3697 FILLER_168_1373
*3698 FILLER_168_1385
*3699 FILLER_168_139
*3700 FILLER_168_1397
*3701 FILLER_168_1409
*3702 FILLER_168_141
*3703 FILLER_168_1421
*3704 FILLER_168_1425
*3705 FILLER_168_1427
*3706 FILLER_168_1429
*3707 FILLER_168_1441
*3708 FILLER_168_1453
*3709 FILLER_168_1465
*3710 FILLER_168_1477
*3711 FILLER_168_1481
*3712 FILLER_168_1483
*3713 FILLER_168_1485
*3714 FILLER_168_1497
*3715 FILLER_168_15
*3716 FILLER_168_1505
*3717 FILLER_168_153
*3718 FILLER_168_165
*3719 FILLER_168_177
*3720 FILLER_168_189
*3721 FILLER_168_193
*3722 FILLER_168_195
*3723 FILLER_168_197
*3724 FILLER_168_209
*3725 FILLER_168_221
*3726 FILLER_168_233
*3727 FILLER_168_245
*3728 FILLER_168_249
*3729 FILLER_168_251
*3730 FILLER_168_253
*3731 FILLER_168_265
*3732 FILLER_168_27
*3733 FILLER_168_277
*3734 FILLER_168_289
*3735 FILLER_168_29
*3736 FILLER_168_3
*3737 FILLER_168_301
*3738 FILLER_168_305
*3739 FILLER_168_307
*3740 FILLER_168_309
*3741 FILLER_168_321
*3742 FILLER_168_333
*3743 FILLER_168_345
*3744 FILLER_168_357
*3745 FILLER_168_361
*3746 FILLER_168_363
*3747 FILLER_168_365
*3748 FILLER_168_377
*3749 FILLER_168_389
*3750 FILLER_168_401
*3751 FILLER_168_41
*3752 FILLER_168_413
*3753 FILLER_168_417
*3754 FILLER_168_419
*3755 FILLER_168_421
*3756 FILLER_168_433
*3757 FILLER_168_445
*3758 FILLER_168_457
*3759 FILLER_168_469
*3760 FILLER_168_473
*3761 FILLER_168_475
*3762 FILLER_168_477
*3763 FILLER_168_489
*3764 FILLER_168_501
*3765 FILLER_168_513
*3766 FILLER_168_525
*3767 FILLER_168_529
*3768 FILLER_168_53
*3769 FILLER_168_531
*3770 FILLER_168_533
*3771 FILLER_168_545
*3772 FILLER_168_557
*3773 FILLER_168_569
*3774 FILLER_168_581
*3775 FILLER_168_585
*3776 FILLER_168_587
*3777 FILLER_168_589
*3778 FILLER_168_601
*3779 FILLER_168_613
*3780 FILLER_168_625
*3781 FILLER_168_637
*3782 FILLER_168_641
*3783 FILLER_168_643
*3784 FILLER_168_645
*3785 FILLER_168_65
*3786 FILLER_168_657
*3787 FILLER_168_669
*3788 FILLER_168_681
*3789 FILLER_168_693
*3790 FILLER_168_697
*3791 FILLER_168_699
*3792 FILLER_168_701
*3793 FILLER_168_713
*3794 FILLER_168_725
*3795 FILLER_168_737
*3796 FILLER_168_749
*3797 FILLER_168_753
*3798 FILLER_168_755
*3799 FILLER_168_757
*3800 FILLER_168_769
*3801 FILLER_168_77
*3802 FILLER_168_781
*3803 FILLER_168_793
*3804 FILLER_168_805
*3805 FILLER_168_809
*3806 FILLER_168_81
*3807 FILLER_168_811
*3808 FILLER_168_813
*3809 FILLER_168_825
*3810 FILLER_168_83
*3811 FILLER_168_837
*3812 FILLER_168_849
*3813 FILLER_168_85
*3814 FILLER_168_861
*3815 FILLER_168_865
*3816 FILLER_168_867
*3817 FILLER_168_869
*3818 FILLER_168_881
*3819 FILLER_168_893
*3820 FILLER_168_905
*3821 FILLER_168_917
*3822 FILLER_168_921
*3823 FILLER_168_923
*3824 FILLER_168_925
*3825 FILLER_168_937
*3826 FILLER_168_949
*3827 FILLER_168_961
*3828 FILLER_168_97
*3829 FILLER_168_973
*3830 FILLER_168_977
*3831 FILLER_168_979
*3832 FILLER_168_981
*3833 FILLER_168_993
*3834 FILLER_169_1005
*3835 FILLER_169_1007
*3836 FILLER_169_1009
*3837 FILLER_169_1021
*3838 FILLER_169_1033
*3839 FILLER_169_1035
*3840 FILLER_169_1037
*3841 FILLER_169_1049
*3842 FILLER_169_1053
*3843 FILLER_169_1060
*3844 FILLER_169_1065
*3845 FILLER_169_1077
*3846 FILLER_169_1089
*3847 FILLER_169_109
*3848 FILLER_169_1091
*3849 FILLER_169_1093
*3850 FILLER_169_1105
*3851 FILLER_169_111
*3852 FILLER_169_1117
*3853 FILLER_169_1119
*3854 FILLER_169_1121
*3855 FILLER_169_113
*3856 FILLER_169_1133
*3857 FILLER_169_1145
*3858 FILLER_169_1147
*3859 FILLER_169_1149
*3860 FILLER_169_1161
*3861 FILLER_169_1173
*3862 FILLER_169_1175
*3863 FILLER_169_1177
*3864 FILLER_169_1189
*3865 FILLER_169_1201
*3866 FILLER_169_1203
*3867 FILLER_169_1205
*3868 FILLER_169_1217
*3869 FILLER_169_1229
*3870 FILLER_169_1231
*3871 FILLER_169_1233
*3872 FILLER_169_1245
*3873 FILLER_169_125
*3874 FILLER_169_1257
*3875 FILLER_169_1259
*3876 FILLER_169_1261
*3877 FILLER_169_1273
*3878 FILLER_169_1285
*3879 FILLER_169_1287
*3880 FILLER_169_1289
*3881 FILLER_169_1301
*3882 FILLER_169_1313
*3883 FILLER_169_1315
*3884 FILLER_169_1317
*3885 FILLER_169_1329
*3886 FILLER_169_1341
*3887 FILLER_169_1343
*3888 FILLER_169_1345
*3889 FILLER_169_1357
*3890 FILLER_169_1369
*3891 FILLER_169_137
*3892 FILLER_169_1371
*3893 FILLER_169_1373
*3894 FILLER_169_1385
*3895 FILLER_169_139
*3896 FILLER_169_1397
*3897 FILLER_169_1399
*3898 FILLER_169_1401
*3899 FILLER_169_141
*3900 FILLER_169_1413
*3901 FILLER_169_1425
*3902 FILLER_169_1427
*3903 FILLER_169_1429
*3904 FILLER_169_1441
*3905 FILLER_169_1453
*3906 FILLER_169_1455
*3907 FILLER_169_1457
*3908 FILLER_169_1469
*3909 FILLER_169_1481
*3910 FILLER_169_1483
*3911 FILLER_169_1485
*3912 FILLER_169_1497
*3913 FILLER_169_15
*3914 FILLER_169_1505
*3915 FILLER_169_153
*3916 FILLER_169_165
*3917 FILLER_169_167
*3918 FILLER_169_169
*3919 FILLER_169_181
*3920 FILLER_169_193
*3921 FILLER_169_195
*3922 FILLER_169_197
*3923 FILLER_169_209
*3924 FILLER_169_221
*3925 FILLER_169_223
*3926 FILLER_169_225
*3927 FILLER_169_237
*3928 FILLER_169_249
*3929 FILLER_169_251
*3930 FILLER_169_253
*3931 FILLER_169_265
*3932 FILLER_169_27
*3933 FILLER_169_277
*3934 FILLER_169_279
*3935 FILLER_169_281
*3936 FILLER_169_29
*3937 FILLER_169_293
*3938 FILLER_169_3
*3939 FILLER_169_305
*3940 FILLER_169_307
*3941 FILLER_169_309
*3942 FILLER_169_321
*3943 FILLER_169_333
*3944 FILLER_169_335
*3945 FILLER_169_337
*3946 FILLER_169_349
*3947 FILLER_169_361
*3948 FILLER_169_363
*3949 FILLER_169_365
*3950 FILLER_169_377
*3951 FILLER_169_389
*3952 FILLER_169_391
*3953 FILLER_169_393
*3954 FILLER_169_405
*3955 FILLER_169_41
*3956 FILLER_169_417
*3957 FILLER_169_419
*3958 FILLER_169_421
*3959 FILLER_169_433
*3960 FILLER_169_445
*3961 FILLER_169_447
*3962 FILLER_169_449
*3963 FILLER_169_461
*3964 FILLER_169_473
*3965 FILLER_169_475
*3966 FILLER_169_477
*3967 FILLER_169_489
*3968 FILLER_169_501
*3969 FILLER_169_503
*3970 FILLER_169_505
*3971 FILLER_169_517
*3972 FILLER_169_529
*3973 FILLER_169_53
*3974 FILLER_169_531
*3975 FILLER_169_533
*3976 FILLER_169_545
*3977 FILLER_169_55
*3978 FILLER_169_557
*3979 FILLER_169_559
*3980 FILLER_169_561
*3981 FILLER_169_57
*3982 FILLER_169_573
*3983 FILLER_169_585
*3984 FILLER_169_587
*3985 FILLER_169_589
*3986 FILLER_169_601
*3987 FILLER_169_613
*3988 FILLER_169_615
*3989 FILLER_169_617
*3990 FILLER_169_629
*3991 FILLER_169_641
*3992 FILLER_169_643
*3993 FILLER_169_645
*3994 FILLER_169_657
*3995 FILLER_169_669
*3996 FILLER_169_671
*3997 FILLER_169_673
*3998 FILLER_169_685
*3999 FILLER_169_69
*4000 FILLER_169_697
*4001 FILLER_169_699
*4002 FILLER_169_701
*4003 FILLER_169_713
*4004 FILLER_169_725
*4005 FILLER_169_727
*4006 FILLER_169_729
*4007 FILLER_169_741
*4008 FILLER_169_753
*4009 FILLER_169_755
*4010 FILLER_169_757
*4011 FILLER_169_769
*4012 FILLER_169_781
*4013 FILLER_169_783
*4014 FILLER_169_785
*4015 FILLER_169_797
*4016 FILLER_169_809
*4017 FILLER_169_81
*4018 FILLER_169_811
*4019 FILLER_169_813
*4020 FILLER_169_825
*4021 FILLER_169_83
*4022 FILLER_169_837
*4023 FILLER_169_839
*4024 FILLER_169_841
*4025 FILLER_169_85
*4026 FILLER_169_853
*4027 FILLER_169_865
*4028 FILLER_169_867
*4029 FILLER_169_869
*4030 FILLER_169_881
*4031 FILLER_169_893
*4032 FILLER_169_895
*4033 FILLER_169_897
*4034 FILLER_169_909
*4035 FILLER_169_921
*4036 FILLER_169_923
*4037 FILLER_169_925
*4038 FILLER_169_937
*4039 FILLER_169_949
*4040 FILLER_169_951
*4041 FILLER_169_953
*4042 FILLER_169_965
*4043 FILLER_169_97
*4044 FILLER_169_977
*4045 FILLER_169_979
*4046 FILLER_169_981
*4047 FILLER_169_993
*4048 FILLER_16_1464
*4049 FILLER_16_1476
*4050 FILLER_16_1488
*4051 FILLER_16_1490
*4052 FILLER_16_1502
*4053 FILLER_16_1506
*4054 FILLER_16_703
*4055 FILLER_16_715
*4056 FILLER_16_727
*4057 FILLER_16_729
*4058 FILLER_16_741
*4059 FILLER_16_745
*4060 FILLER_170_1464
*4061 FILLER_170_1476
*4062 FILLER_170_1488
*4063 FILLER_170_1490
*4064 FILLER_170_1502
*4065 FILLER_170_1506
*4066 FILLER_170_703
*4067 FILLER_170_715
*4068 FILLER_170_727
*4069 FILLER_170_729
*4070 FILLER_170_741
*4071 FILLER_170_745
*4072 FILLER_171_1464
*4073 FILLER_171_1476
*4074 FILLER_171_1488
*4075 FILLER_171_1500
*4076 FILLER_171_1504
*4077 FILLER_171_1506
*4078 FILLER_171_703
*4079 FILLER_171_715
*4080 FILLER_171_727
*4081 FILLER_171_739
*4082 FILLER_172_1464
*4083 FILLER_172_1476
*4084 FILLER_172_1488
*4085 FILLER_172_1490
*4086 FILLER_172_1502
*4087 FILLER_172_1506
*4088 FILLER_172_703
*4089 FILLER_172_715
*4090 FILLER_172_727
*4091 FILLER_172_729
*4092 FILLER_172_741
*4093 FILLER_172_745
*4094 FILLER_173_1464
*4095 FILLER_173_1476
*4096 FILLER_173_1488
*4097 FILLER_173_1500
*4098 FILLER_173_1504
*4099 FILLER_173_1506
*4100 FILLER_173_703
*4101 FILLER_173_715
*4102 FILLER_173_727
*4103 FILLER_173_739
*4104 FILLER_174_1464
*4105 FILLER_174_1476
*4106 FILLER_174_1488
*4107 FILLER_174_1490
*4108 FILLER_174_1502
*4109 FILLER_174_1506
*4110 FILLER_174_703
*4111 FILLER_174_715
*4112 FILLER_174_727
*4113 FILLER_174_729
*4114 FILLER_174_741
*4115 FILLER_174_745
*4116 FILLER_175_1464
*4117 FILLER_175_1476
*4118 FILLER_175_1488
*4119 FILLER_175_1500
*4120 FILLER_175_1504
*4121 FILLER_175_1506
*4122 FILLER_175_703
*4123 FILLER_175_715
*4124 FILLER_175_727
*4125 FILLER_175_739
*4126 FILLER_176_1464
*4127 FILLER_176_1476
*4128 FILLER_176_1488
*4129 FILLER_176_1490
*4130 FILLER_176_1502
*4131 FILLER_176_1506
*4132 FILLER_176_703
*4133 FILLER_176_715
*4134 FILLER_176_727
*4135 FILLER_176_729
*4136 FILLER_176_741
*4137 FILLER_176_745
*4138 FILLER_177_1464
*4139 FILLER_177_1476
*4140 FILLER_177_1488
*4141 FILLER_177_1500
*4142 FILLER_177_1504
*4143 FILLER_177_1506
*4144 FILLER_177_703
*4145 FILLER_177_715
*4146 FILLER_177_727
*4147 FILLER_177_739
*4148 FILLER_178_1464
*4149 FILLER_178_1476
*4150 FILLER_178_1488
*4151 FILLER_178_1490
*4152 FILLER_178_1502
*4153 FILLER_178_1506
*4154 FILLER_178_703
*4155 FILLER_178_715
*4156 FILLER_178_727
*4157 FILLER_178_729
*4158 FILLER_178_741
*4159 FILLER_178_745
*4160 FILLER_179_1464
*4161 FILLER_179_1476
*4162 FILLER_179_1488
*4163 FILLER_179_1500
*4164 FILLER_179_1504
*4165 FILLER_179_1506
*4166 FILLER_179_703
*4167 FILLER_179_715
*4168 FILLER_179_727
*4169 FILLER_179_739
*4170 FILLER_17_1464
*4171 FILLER_17_1476
*4172 FILLER_17_1488
*4173 FILLER_17_1500
*4174 FILLER_17_1504
*4175 FILLER_17_1506
*4176 FILLER_17_703
*4177 FILLER_17_715
*4178 FILLER_17_727
*4179 FILLER_17_739
*4180 FILLER_180_1464
*4181 FILLER_180_1476
*4182 FILLER_180_1488
*4183 FILLER_180_1490
*4184 FILLER_180_1502
*4185 FILLER_180_1506
*4186 FILLER_180_703
*4187 FILLER_180_715
*4188 FILLER_180_727
*4189 FILLER_180_729
*4190 FILLER_180_741
*4191 FILLER_180_745
*4192 FILLER_181_1464
*4193 FILLER_181_1476
*4194 FILLER_181_1488
*4195 FILLER_181_1500
*4196 FILLER_181_1504
*4197 FILLER_181_1506
*4198 FILLER_181_703
*4199 FILLER_181_715
*4200 FILLER_181_727
*4201 FILLER_181_739
*4202 FILLER_182_1464
*4203 FILLER_182_1476
*4204 FILLER_182_1488
*4205 FILLER_182_1490
*4206 FILLER_182_1502
*4207 FILLER_182_1506
*4208 FILLER_182_703
*4209 FILLER_182_715
*4210 FILLER_182_727
*4211 FILLER_182_729
*4212 FILLER_182_741
*4213 FILLER_182_745
*4214 FILLER_183_1464
*4215 FILLER_183_1476
*4216 FILLER_183_1488
*4217 FILLER_183_1500
*4218 FILLER_183_1504
*4219 FILLER_183_1506
*4220 FILLER_183_703
*4221 FILLER_183_715
*4222 FILLER_183_727
*4223 FILLER_183_739
*4224 FILLER_184_1464
*4225 FILLER_184_1476
*4226 FILLER_184_1488
*4227 FILLER_184_1490
*4228 FILLER_184_1502
*4229 FILLER_184_1506
*4230 FILLER_184_703
*4231 FILLER_184_715
*4232 FILLER_184_727
*4233 FILLER_184_729
*4234 FILLER_184_741
*4235 FILLER_184_745
*4236 FILLER_185_1464
*4237 FILLER_185_1476
*4238 FILLER_185_1488
*4239 FILLER_185_1500
*4240 FILLER_185_1504
*4241 FILLER_185_1506
*4242 FILLER_185_703
*4243 FILLER_185_715
*4244 FILLER_185_727
*4245 FILLER_185_739
*4246 FILLER_186_1464
*4247 FILLER_186_1476
*4248 FILLER_186_1488
*4249 FILLER_186_1490
*4250 FILLER_186_1502
*4251 FILLER_186_1506
*4252 FILLER_186_703
*4253 FILLER_186_715
*4254 FILLER_186_727
*4255 FILLER_186_729
*4256 FILLER_186_741
*4257 FILLER_186_745
*4258 FILLER_187_1464
*4259 FILLER_187_1476
*4260 FILLER_187_1488
*4261 FILLER_187_1500
*4262 FILLER_187_1504
*4263 FILLER_187_1506
*4264 FILLER_187_703
*4265 FILLER_187_715
*4266 FILLER_187_727
*4267 FILLER_187_739
*4268 FILLER_188_1464
*4269 FILLER_188_1476
*4270 FILLER_188_1488
*4271 FILLER_188_1490
*4272 FILLER_188_1502
*4273 FILLER_188_1506
*4274 FILLER_188_703
*4275 FILLER_188_715
*4276 FILLER_188_727
*4277 FILLER_188_729
*4278 FILLER_188_741
*4279 FILLER_188_745
*4280 FILLER_189_1464
*4281 FILLER_189_1476
*4282 FILLER_189_1488
*4283 FILLER_189_1500
*4284 FILLER_189_1504
*4285 FILLER_189_1506
*4286 FILLER_189_703
*4287 FILLER_189_715
*4288 FILLER_189_727
*4289 FILLER_189_739
*4290 FILLER_18_1464
*4291 FILLER_18_1476
*4292 FILLER_18_1488
*4293 FILLER_18_1490
*4294 FILLER_18_1502
*4295 FILLER_18_1506
*4296 FILLER_18_712
*4297 FILLER_18_724
*4298 FILLER_18_729
*4299 FILLER_18_741
*4300 FILLER_18_745
*4301 FILLER_190_1464
*4302 FILLER_190_1476
*4303 FILLER_190_1488
*4304 FILLER_190_1490
*4305 FILLER_190_1502
*4306 FILLER_190_1506
*4307 FILLER_190_703
*4308 FILLER_190_715
*4309 FILLER_190_727
*4310 FILLER_190_729
*4311 FILLER_190_741
*4312 FILLER_190_745
*4313 FILLER_191_1464
*4314 FILLER_191_1476
*4315 FILLER_191_1488
*4316 FILLER_191_1500
*4317 FILLER_191_1504
*4318 FILLER_191_1506
*4319 FILLER_191_703
*4320 FILLER_191_715
*4321 FILLER_191_727
*4322 FILLER_191_739
*4323 FILLER_192_1464
*4324 FILLER_192_1476
*4325 FILLER_192_1488
*4326 FILLER_192_1490
*4327 FILLER_192_1502
*4328 FILLER_192_1506
*4329 FILLER_192_703
*4330 FILLER_192_715
*4331 FILLER_192_727
*4332 FILLER_192_729
*4333 FILLER_192_741
*4334 FILLER_192_745
*4335 FILLER_193_1464
*4336 FILLER_193_1476
*4337 FILLER_193_1488
*4338 FILLER_193_1500
*4339 FILLER_193_1504
*4340 FILLER_193_1506
*4341 FILLER_193_703
*4342 FILLER_193_715
*4343 FILLER_193_727
*4344 FILLER_193_739
*4345 FILLER_194_1464
*4346 FILLER_194_1476
*4347 FILLER_194_1488
*4348 FILLER_194_1490
*4349 FILLER_194_1502
*4350 FILLER_194_1506
*4351 FILLER_194_703
*4352 FILLER_194_715
*4353 FILLER_194_727
*4354 FILLER_194_729
*4355 FILLER_194_741
*4356 FILLER_194_745
*4357 FILLER_195_1464
*4358 FILLER_195_1476
*4359 FILLER_195_1488
*4360 FILLER_195_1500
*4361 FILLER_195_1504
*4362 FILLER_195_1506
*4363 FILLER_195_703
*4364 FILLER_195_715
*4365 FILLER_195_727
*4366 FILLER_195_739
*4367 FILLER_196_1464
*4368 FILLER_196_1476
*4369 FILLER_196_1488
*4370 FILLER_196_1490
*4371 FILLER_196_1502
*4372 FILLER_196_1506
*4373 FILLER_196_703
*4374 FILLER_196_715
*4375 FILLER_196_727
*4376 FILLER_196_729
*4377 FILLER_196_741
*4378 FILLER_196_745
*4379 FILLER_197_1464
*4380 FILLER_197_1476
*4381 FILLER_197_1488
*4382 FILLER_197_1500
*4383 FILLER_197_1504
*4384 FILLER_197_1506
*4385 FILLER_197_703
*4386 FILLER_197_715
*4387 FILLER_197_727
*4388 FILLER_197_739
*4389 FILLER_198_1464
*4390 FILLER_198_1476
*4391 FILLER_198_1488
*4392 FILLER_198_1490
*4393 FILLER_198_1502
*4394 FILLER_198_1506
*4395 FILLER_198_703
*4396 FILLER_198_715
*4397 FILLER_198_727
*4398 FILLER_198_729
*4399 FILLER_198_741
*4400 FILLER_198_745
*4401 FILLER_199_1464
*4402 FILLER_199_1476
*4403 FILLER_199_1488
*4404 FILLER_199_1500
*4405 FILLER_199_1504
*4406 FILLER_199_1506
*4407 FILLER_199_703
*4408 FILLER_199_715
*4409 FILLER_199_727
*4410 FILLER_199_739
*4411 FILLER_19_1464
*4412 FILLER_19_1476
*4413 FILLER_19_1488
*4414 FILLER_19_1500
*4415 FILLER_19_1504
*4416 FILLER_19_1506
*4417 FILLER_19_703
*4418 FILLER_19_715
*4419 FILLER_19_727
*4420 FILLER_19_739
*4421 FILLER_1_1003
*4422 FILLER_1_1007
*4423 FILLER_1_1017
*4424 FILLER_1_1036
*4425 FILLER_1_105
*4426 FILLER_1_1063
*4427 FILLER_1_1065
*4428 FILLER_1_1067
*4429 FILLER_1_1076
*4430 FILLER_1_109
*4431 FILLER_1_1096
*4432 FILLER_1_1100
*4433 FILLER_1_1102
*4434 FILLER_1_111
*4435 FILLER_1_1113
*4436 FILLER_1_1117
*4437 FILLER_1_1119
*4438 FILLER_1_1129
*4439 FILLER_1_113
*4440 FILLER_1_1151
*4441 FILLER_1_1153
*4442 FILLER_1_1172
*4443 FILLER_1_1209
*4444 FILLER_1_1221
*4445 FILLER_1_1223
*4446 FILLER_1_125
*4447 FILLER_1_1275
*4448 FILLER_1_1279
*4449 FILLER_1_1305
*4450 FILLER_1_1331
*4451 FILLER_1_1343
*4452 FILLER_1_1345
*4453 FILLER_1_137
*4454 FILLER_1_1373
*4455 FILLER_1_1393
*4456 FILLER_1_1397
*4457 FILLER_1_1399
*4458 FILLER_1_1401
*4459 FILLER_1_1405
*4460 FILLER_1_1423
*4461 FILLER_1_1427
*4462 FILLER_1_1436
*4463 FILLER_1_1453
*4464 FILLER_1_1455
*4465 FILLER_1_1457
*4466 FILLER_1_1466
*4467 FILLER_1_149
*4468 FILLER_1_15
*4469 FILLER_1_161
*4470 FILLER_1_165
*4471 FILLER_1_167
*4472 FILLER_1_169
*4473 FILLER_1_181
*4474 FILLER_1_193
*4475 FILLER_1_205
*4476 FILLER_1_217
*4477 FILLER_1_221
*4478 FILLER_1_223
*4479 FILLER_1_225
*4480 FILLER_1_237
*4481 FILLER_1_249
*4482 FILLER_1_261
*4483 FILLER_1_27
*4484 FILLER_1_273
*4485 FILLER_1_277
*4486 FILLER_1_279
*4487 FILLER_1_281
*4488 FILLER_1_293
*4489 FILLER_1_3
*4490 FILLER_1_305
*4491 FILLER_1_317
*4492 FILLER_1_329
*4493 FILLER_1_333
*4494 FILLER_1_335
*4495 FILLER_1_337
*4496 FILLER_1_349
*4497 FILLER_1_361
*4498 FILLER_1_373
*4499 FILLER_1_385
*4500 FILLER_1_389
*4501 FILLER_1_39
*4502 FILLER_1_391
*4503 FILLER_1_393
*4504 FILLER_1_405
*4505 FILLER_1_417
*4506 FILLER_1_429
*4507 FILLER_1_441
*4508 FILLER_1_445
*4509 FILLER_1_447
*4510 FILLER_1_449
*4511 FILLER_1_461
*4512 FILLER_1_465
*4513 FILLER_1_483
*4514 FILLER_1_495
*4515 FILLER_1_503
*4516 FILLER_1_505
*4517 FILLER_1_51
*4518 FILLER_1_517
*4519 FILLER_1_543
*4520 FILLER_1_55
*4521 FILLER_1_57
*4522 FILLER_1_613
*4523 FILLER_1_615
*4524 FILLER_1_633
*4525 FILLER_1_653
*4526 FILLER_1_655
*4527 FILLER_1_673
*4528 FILLER_1_69
*4529 FILLER_1_723
*4530 FILLER_1_727
*4531 FILLER_1_753
*4532 FILLER_1_781
*4533 FILLER_1_783
*4534 FILLER_1_785
*4535 FILLER_1_81
*4536 FILLER_1_835
*4537 FILLER_1_839
*4538 FILLER_1_873
*4539 FILLER_1_893
*4540 FILLER_1_895
*4541 FILLER_1_913
*4542 FILLER_1_915
*4543 FILLER_1_926
*4544 FILLER_1_93
*4545 FILLER_1_951
*4546 FILLER_1_953
*4547 FILLER_1_973
*4548 FILLER_1_977
*4549 FILLER_200_1464
*4550 FILLER_200_1476
*4551 FILLER_200_1488
*4552 FILLER_200_1490
*4553 FILLER_200_1502
*4554 FILLER_200_1506
*4555 FILLER_200_703
*4556 FILLER_200_715
*4557 FILLER_200_727
*4558 FILLER_200_729
*4559 FILLER_200_741
*4560 FILLER_200_745
*4561 FILLER_201_1464
*4562 FILLER_201_1476
*4563 FILLER_201_1488
*4564 FILLER_201_1500
*4565 FILLER_201_1504
*4566 FILLER_201_1506
*4567 FILLER_201_703
*4568 FILLER_201_715
*4569 FILLER_201_727
*4570 FILLER_201_739
*4571 FILLER_202_1464
*4572 FILLER_202_1476
*4573 FILLER_202_1488
*4574 FILLER_202_1490
*4575 FILLER_202_1502
*4576 FILLER_202_1506
*4577 FILLER_202_703
*4578 FILLER_202_715
*4579 FILLER_202_727
*4580 FILLER_202_729
*4581 FILLER_202_741
*4582 FILLER_202_745
*4583 FILLER_203_1464
*4584 FILLER_203_1476
*4585 FILLER_203_1488
*4586 FILLER_203_1500
*4587 FILLER_203_1504
*4588 FILLER_203_1506
*4589 FILLER_203_703
*4590 FILLER_203_715
*4591 FILLER_203_727
*4592 FILLER_203_739
*4593 FILLER_204_1464
*4594 FILLER_204_1476
*4595 FILLER_204_1488
*4596 FILLER_204_1490
*4597 FILLER_204_1502
*4598 FILLER_204_1506
*4599 FILLER_204_703
*4600 FILLER_204_715
*4601 FILLER_204_727
*4602 FILLER_204_729
*4603 FILLER_204_741
*4604 FILLER_204_745
*4605 FILLER_205_1464
*4606 FILLER_205_1476
*4607 FILLER_205_1488
*4608 FILLER_205_1500
*4609 FILLER_205_1504
*4610 FILLER_205_1506
*4611 FILLER_205_703
*4612 FILLER_205_715
*4613 FILLER_205_727
*4614 FILLER_205_739
*4615 FILLER_206_1464
*4616 FILLER_206_1476
*4617 FILLER_206_1488
*4618 FILLER_206_1490
*4619 FILLER_206_1502
*4620 FILLER_206_1506
*4621 FILLER_206_703
*4622 FILLER_206_715
*4623 FILLER_206_727
*4624 FILLER_206_729
*4625 FILLER_206_741
*4626 FILLER_206_745
*4627 FILLER_207_1464
*4628 FILLER_207_1476
*4629 FILLER_207_1488
*4630 FILLER_207_1500
*4631 FILLER_207_1504
*4632 FILLER_207_1506
*4633 FILLER_207_703
*4634 FILLER_207_715
*4635 FILLER_207_727
*4636 FILLER_207_739
*4637 FILLER_208_1464
*4638 FILLER_208_1476
*4639 FILLER_208_1488
*4640 FILLER_208_1490
*4641 FILLER_208_1502
*4642 FILLER_208_1506
*4643 FILLER_208_703
*4644 FILLER_208_715
*4645 FILLER_208_727
*4646 FILLER_208_729
*4647 FILLER_208_741
*4648 FILLER_208_745
*4649 FILLER_209_1464
*4650 FILLER_209_1476
*4651 FILLER_209_1488
*4652 FILLER_209_1500
*4653 FILLER_209_1504
*4654 FILLER_209_1506
*4655 FILLER_209_703
*4656 FILLER_209_715
*4657 FILLER_209_727
*4658 FILLER_209_739
*4659 FILLER_20_1464
*4660 FILLER_20_1476
*4661 FILLER_20_1488
*4662 FILLER_20_1490
*4663 FILLER_20_1502
*4664 FILLER_20_1506
*4665 FILLER_20_703
*4666 FILLER_20_715
*4667 FILLER_20_719
*4668 FILLER_20_721
*4669 FILLER_20_725
*4670 FILLER_20_727
*4671 FILLER_20_729
*4672 FILLER_20_741
*4673 FILLER_20_745
*4674 FILLER_210_1464
*4675 FILLER_210_1476
*4676 FILLER_210_1488
*4677 FILLER_210_1490
*4678 FILLER_210_1502
*4679 FILLER_210_1506
*4680 FILLER_210_703
*4681 FILLER_210_715
*4682 FILLER_210_727
*4683 FILLER_210_729
*4684 FILLER_210_741
*4685 FILLER_210_745
*4686 FILLER_211_1464
*4687 FILLER_211_1476
*4688 FILLER_211_1488
*4689 FILLER_211_1500
*4690 FILLER_211_1504
*4691 FILLER_211_1506
*4692 FILLER_211_703
*4693 FILLER_211_715
*4694 FILLER_211_727
*4695 FILLER_211_739
*4696 FILLER_212_1464
*4697 FILLER_212_1476
*4698 FILLER_212_1488
*4699 FILLER_212_1490
*4700 FILLER_212_1502
*4701 FILLER_212_1506
*4702 FILLER_212_703
*4703 FILLER_212_715
*4704 FILLER_212_727
*4705 FILLER_212_729
*4706 FILLER_212_741
*4707 FILLER_212_745
*4708 FILLER_213_1464
*4709 FILLER_213_1476
*4710 FILLER_213_1488
*4711 FILLER_213_1500
*4712 FILLER_213_1504
*4713 FILLER_213_1506
*4714 FILLER_213_703
*4715 FILLER_213_715
*4716 FILLER_213_727
*4717 FILLER_213_739
*4718 FILLER_214_1464
*4719 FILLER_214_1476
*4720 FILLER_214_1488
*4721 FILLER_214_1490
*4722 FILLER_214_1502
*4723 FILLER_214_1506
*4724 FILLER_214_703
*4725 FILLER_214_715
*4726 FILLER_214_727
*4727 FILLER_214_729
*4728 FILLER_214_741
*4729 FILLER_214_745
*4730 FILLER_215_1464
*4731 FILLER_215_1476
*4732 FILLER_215_1488
*4733 FILLER_215_1500
*4734 FILLER_215_1504
*4735 FILLER_215_1506
*4736 FILLER_215_703
*4737 FILLER_215_715
*4738 FILLER_215_727
*4739 FILLER_215_739
*4740 FILLER_216_1464
*4741 FILLER_216_1476
*4742 FILLER_216_1488
*4743 FILLER_216_1490
*4744 FILLER_216_1502
*4745 FILLER_216_1506
*4746 FILLER_216_703
*4747 FILLER_216_715
*4748 FILLER_216_727
*4749 FILLER_216_729
*4750 FILLER_216_741
*4751 FILLER_216_745
*4752 FILLER_217_1464
*4753 FILLER_217_1476
*4754 FILLER_217_1488
*4755 FILLER_217_1500
*4756 FILLER_217_1504
*4757 FILLER_217_1506
*4758 FILLER_217_703
*4759 FILLER_217_715
*4760 FILLER_217_727
*4761 FILLER_217_739
*4762 FILLER_218_1464
*4763 FILLER_218_1476
*4764 FILLER_218_1488
*4765 FILLER_218_1490
*4766 FILLER_218_1502
*4767 FILLER_218_1506
*4768 FILLER_218_703
*4769 FILLER_218_715
*4770 FILLER_218_727
*4771 FILLER_218_729
*4772 FILLER_218_741
*4773 FILLER_218_745
*4774 FILLER_219_1464
*4775 FILLER_219_1476
*4776 FILLER_219_1488
*4777 FILLER_219_1500
*4778 FILLER_219_1504
*4779 FILLER_219_1506
*4780 FILLER_219_703
*4781 FILLER_219_715
*4782 FILLER_219_727
*4783 FILLER_219_739
*4784 FILLER_21_1464
*4785 FILLER_21_1476
*4786 FILLER_21_1488
*4787 FILLER_21_1500
*4788 FILLER_21_1504
*4789 FILLER_21_1506
*4790 FILLER_21_703
*4791 FILLER_21_715
*4792 FILLER_21_727
*4793 FILLER_21_739
*4794 FILLER_220_1464
*4795 FILLER_220_1476
*4796 FILLER_220_1488
*4797 FILLER_220_1490
*4798 FILLER_220_1502
*4799 FILLER_220_1506
*4800 FILLER_220_703
*4801 FILLER_220_715
*4802 FILLER_220_727
*4803 FILLER_220_729
*4804 FILLER_220_741
*4805 FILLER_220_745
*4806 FILLER_221_1464
*4807 FILLER_221_1476
*4808 FILLER_221_1488
*4809 FILLER_221_1500
*4810 FILLER_221_1504
*4811 FILLER_221_1506
*4812 FILLER_221_703
*4813 FILLER_221_715
*4814 FILLER_221_727
*4815 FILLER_221_739
*4816 FILLER_222_1464
*4817 FILLER_222_1476
*4818 FILLER_222_1488
*4819 FILLER_222_1490
*4820 FILLER_222_1502
*4821 FILLER_222_1506
*4822 FILLER_222_703
*4823 FILLER_222_715
*4824 FILLER_222_727
*4825 FILLER_222_729
*4826 FILLER_222_741
*4827 FILLER_222_745
*4828 FILLER_223_1464
*4829 FILLER_223_1476
*4830 FILLER_223_1488
*4831 FILLER_223_1500
*4832 FILLER_223_1504
*4833 FILLER_223_1506
*4834 FILLER_223_703
*4835 FILLER_223_715
*4836 FILLER_223_727
*4837 FILLER_223_739
*4838 FILLER_224_1464
*4839 FILLER_224_1476
*4840 FILLER_224_1488
*4841 FILLER_224_1490
*4842 FILLER_224_1502
*4843 FILLER_224_1506
*4844 FILLER_224_703
*4845 FILLER_224_715
*4846 FILLER_224_727
*4847 FILLER_224_729
*4848 FILLER_224_741
*4849 FILLER_224_745
*4850 FILLER_225_1464
*4851 FILLER_225_1476
*4852 FILLER_225_1488
*4853 FILLER_225_1500
*4854 FILLER_225_1504
*4855 FILLER_225_1506
*4856 FILLER_225_703
*4857 FILLER_225_715
*4858 FILLER_225_727
*4859 FILLER_225_739
*4860 FILLER_226_1464
*4861 FILLER_226_1476
*4862 FILLER_226_1488
*4863 FILLER_226_1490
*4864 FILLER_226_1502
*4865 FILLER_226_1506
*4866 FILLER_226_703
*4867 FILLER_226_715
*4868 FILLER_226_727
*4869 FILLER_226_729
*4870 FILLER_226_741
*4871 FILLER_226_745
*4872 FILLER_227_1464
*4873 FILLER_227_1476
*4874 FILLER_227_1488
*4875 FILLER_227_1500
*4876 FILLER_227_1504
*4877 FILLER_227_1506
*4878 FILLER_227_703
*4879 FILLER_227_715
*4880 FILLER_227_727
*4881 FILLER_227_739
*4882 FILLER_228_1464
*4883 FILLER_228_1476
*4884 FILLER_228_1488
*4885 FILLER_228_1490
*4886 FILLER_228_1502
*4887 FILLER_228_1506
*4888 FILLER_228_703
*4889 FILLER_228_715
*4890 FILLER_228_727
*4891 FILLER_228_729
*4892 FILLER_228_741
*4893 FILLER_228_745
*4894 FILLER_229_1464
*4895 FILLER_229_1476
*4896 FILLER_229_1488
*4897 FILLER_229_1500
*4898 FILLER_229_1504
*4899 FILLER_229_1506
*4900 FILLER_229_703
*4901 FILLER_229_715
*4902 FILLER_229_727
*4903 FILLER_229_739
*4904 FILLER_22_1464
*4905 FILLER_22_1476
*4906 FILLER_22_1488
*4907 FILLER_22_1490
*4908 FILLER_22_1502
*4909 FILLER_22_1506
*4910 FILLER_22_703
*4911 FILLER_22_715
*4912 FILLER_22_727
*4913 FILLER_22_729
*4914 FILLER_22_735
*4915 FILLER_230_1464
*4916 FILLER_230_1476
*4917 FILLER_230_1488
*4918 FILLER_230_1490
*4919 FILLER_230_1502
*4920 FILLER_230_1506
*4921 FILLER_230_703
*4922 FILLER_230_715
*4923 FILLER_230_727
*4924 FILLER_230_729
*4925 FILLER_230_741
*4926 FILLER_230_745
*4927 FILLER_231_1464
*4928 FILLER_231_1476
*4929 FILLER_231_1488
*4930 FILLER_231_1500
*4931 FILLER_231_1504
*4932 FILLER_231_1506
*4933 FILLER_231_703
*4934 FILLER_231_715
*4935 FILLER_231_727
*4936 FILLER_231_739
*4937 FILLER_232_1464
*4938 FILLER_232_1476
*4939 FILLER_232_1488
*4940 FILLER_232_1490
*4941 FILLER_232_1502
*4942 FILLER_232_1506
*4943 FILLER_232_703
*4944 FILLER_232_715
*4945 FILLER_232_727
*4946 FILLER_232_729
*4947 FILLER_232_741
*4948 FILLER_232_745
*4949 FILLER_233_1464
*4950 FILLER_233_1476
*4951 FILLER_233_1488
*4952 FILLER_233_1500
*4953 FILLER_233_1504
*4954 FILLER_233_1506
*4955 FILLER_233_703
*4956 FILLER_233_715
*4957 FILLER_233_727
*4958 FILLER_233_739
*4959 FILLER_234_1464
*4960 FILLER_234_1476
*4961 FILLER_234_1488
*4962 FILLER_234_1490
*4963 FILLER_234_1502
*4964 FILLER_234_1506
*4965 FILLER_234_703
*4966 FILLER_234_715
*4967 FILLER_234_727
*4968 FILLER_234_729
*4969 FILLER_234_741
*4970 FILLER_234_745
*4971 FILLER_235_1464
*4972 FILLER_235_1476
*4973 FILLER_235_1488
*4974 FILLER_235_1500
*4975 FILLER_235_1504
*4976 FILLER_235_1506
*4977 FILLER_235_703
*4978 FILLER_235_715
*4979 FILLER_235_727
*4980 FILLER_235_739
*4981 FILLER_236_1464
*4982 FILLER_236_1476
*4983 FILLER_236_1488
*4984 FILLER_236_1490
*4985 FILLER_236_1502
*4986 FILLER_236_1506
*4987 FILLER_236_703
*4988 FILLER_236_715
*4989 FILLER_236_727
*4990 FILLER_236_729
*4991 FILLER_236_741
*4992 FILLER_236_745
*4993 FILLER_237_1464
*4994 FILLER_237_1476
*4995 FILLER_237_1488
*4996 FILLER_237_1500
*4997 FILLER_237_1504
*4998 FILLER_237_1506
*4999 FILLER_237_703
*5000 FILLER_237_715
*5001 FILLER_237_727
*5002 FILLER_237_739
*5003 FILLER_238_1467
*5004 FILLER_238_1479
*5005 FILLER_238_1487
*5006 FILLER_238_1490
*5007 FILLER_238_1502
*5008 FILLER_238_1506
*5009 FILLER_238_706
*5010 FILLER_238_718
*5011 FILLER_238_726
*5012 FILLER_238_729
*5013 FILLER_238_741
*5014 FILLER_238_745
*5015 FILLER_239_1464
*5016 FILLER_239_1476
*5017 FILLER_239_1488
*5018 FILLER_239_1500
*5019 FILLER_239_1504
*5020 FILLER_239_1506
*5021 FILLER_239_703
*5022 FILLER_239_715
*5023 FILLER_239_727
*5024 FILLER_239_739
*5025 FILLER_23_1464
*5026 FILLER_23_1476
*5027 FILLER_23_1488
*5028 FILLER_23_1500
*5029 FILLER_23_1504
*5030 FILLER_23_1506
*5031 FILLER_23_703
*5032 FILLER_23_730
*5033 FILLER_23_732
*5034 FILLER_23_742
*5035 FILLER_23_746
*5036 FILLER_240_1467
*5037 FILLER_240_1479
*5038 FILLER_240_1487
*5039 FILLER_240_1490
*5040 FILLER_240_1502
*5041 FILLER_240_1506
*5042 FILLER_240_706
*5043 FILLER_240_718
*5044 FILLER_240_726
*5045 FILLER_240_729
*5046 FILLER_240_741
*5047 FILLER_240_745
*5048 FILLER_241_1464
*5049 FILLER_241_1476
*5050 FILLER_241_1488
*5051 FILLER_241_1500
*5052 FILLER_241_1504
*5053 FILLER_241_1506
*5054 FILLER_241_703
*5055 FILLER_241_715
*5056 FILLER_241_727
*5057 FILLER_241_739
*5058 FILLER_242_1464
*5059 FILLER_242_1476
*5060 FILLER_242_1488
*5061 FILLER_242_1490
*5062 FILLER_242_1502
*5063 FILLER_242_1506
*5064 FILLER_242_703
*5065 FILLER_242_715
*5066 FILLER_242_727
*5067 FILLER_242_729
*5068 FILLER_242_741
*5069 FILLER_242_745
*5070 FILLER_243_1464
*5071 FILLER_243_1476
*5072 FILLER_243_1488
*5073 FILLER_243_1500
*5074 FILLER_243_1504
*5075 FILLER_243_1506
*5076 FILLER_243_703
*5077 FILLER_243_715
*5078 FILLER_243_727
*5079 FILLER_243_739
*5080 FILLER_244_1464
*5081 FILLER_244_1476
*5082 FILLER_244_1488
*5083 FILLER_244_1490
*5084 FILLER_244_1502
*5085 FILLER_244_1506
*5086 FILLER_244_703
*5087 FILLER_244_715
*5088 FILLER_244_727
*5089 FILLER_244_729
*5090 FILLER_244_741
*5091 FILLER_244_745
*5092 FILLER_245_1464
*5093 FILLER_245_1476
*5094 FILLER_245_1488
*5095 FILLER_245_1500
*5096 FILLER_245_1504
*5097 FILLER_245_1506
*5098 FILLER_245_703
*5099 FILLER_245_715
*5100 FILLER_245_727
*5101 FILLER_245_739
*5102 FILLER_246_1470
*5103 FILLER_246_1482
*5104 FILLER_246_1486
*5105 FILLER_246_1488
*5106 FILLER_246_1490
*5107 FILLER_246_1502
*5108 FILLER_246_1506
*5109 FILLER_246_709
*5110 FILLER_246_721
*5111 FILLER_246_725
*5112 FILLER_246_727
*5113 FILLER_246_729
*5114 FILLER_246_741
*5115 FILLER_246_745
*5116 FILLER_247_1464
*5117 FILLER_247_1476
*5118 FILLER_247_1488
*5119 FILLER_247_1500
*5120 FILLER_247_1504
*5121 FILLER_247_1506
*5122 FILLER_247_703
*5123 FILLER_247_715
*5124 FILLER_247_727
*5125 FILLER_247_739
*5126 FILLER_248_1464
*5127 FILLER_248_1476
*5128 FILLER_248_1488
*5129 FILLER_248_1490
*5130 FILLER_248_1502
*5131 FILLER_248_1506
*5132 FILLER_248_703
*5133 FILLER_248_715
*5134 FILLER_248_727
*5135 FILLER_248_729
*5136 FILLER_248_741
*5137 FILLER_248_745
*5138 FILLER_249_1467
*5139 FILLER_249_1479
*5140 FILLER_249_1491
*5141 FILLER_249_1503
*5142 FILLER_249_706
*5143 FILLER_249_718
*5144 FILLER_249_730
*5145 FILLER_249_742
*5146 FILLER_249_746
*5147 FILLER_24_1464
*5148 FILLER_24_1476
*5149 FILLER_24_1488
*5150 FILLER_24_1490
*5151 FILLER_24_1502
*5152 FILLER_24_1506
*5153 FILLER_24_723
*5154 FILLER_24_727
*5155 FILLER_24_729
*5156 FILLER_24_733
*5157 FILLER_24_735
*5158 FILLER_250_1464
*5159 FILLER_250_1476
*5160 FILLER_250_1488
*5161 FILLER_250_1490
*5162 FILLER_250_1502
*5163 FILLER_250_1506
*5164 FILLER_250_703
*5165 FILLER_250_715
*5166 FILLER_250_727
*5167 FILLER_250_729
*5168 FILLER_250_741
*5169 FILLER_250_745
*5170 FILLER_251_1467
*5171 FILLER_251_1479
*5172 FILLER_251_1491
*5173 FILLER_251_1503
*5174 FILLER_251_706
*5175 FILLER_251_718
*5176 FILLER_251_730
*5177 FILLER_251_742
*5178 FILLER_251_746
*5179 FILLER_252_1467
*5180 FILLER_252_1479
*5181 FILLER_252_1487
*5182 FILLER_252_1490
*5183 FILLER_252_1502
*5184 FILLER_252_1506
*5185 FILLER_252_706
*5186 FILLER_252_718
*5187 FILLER_252_726
*5188 FILLER_252_729
*5189 FILLER_252_741
*5190 FILLER_252_745
*5191 FILLER_253_1464
*5192 FILLER_253_1476
*5193 FILLER_253_1488
*5194 FILLER_253_1500
*5195 FILLER_253_1504
*5196 FILLER_253_1506
*5197 FILLER_253_703
*5198 FILLER_253_715
*5199 FILLER_253_727
*5200 FILLER_253_739
*5201 FILLER_254_1464
*5202 FILLER_254_1476
*5203 FILLER_254_1488
*5204 FILLER_254_1490
*5205 FILLER_254_1502
*5206 FILLER_254_1506
*5207 FILLER_254_703
*5208 FILLER_254_715
*5209 FILLER_254_727
*5210 FILLER_254_729
*5211 FILLER_254_741
*5212 FILLER_254_745
*5213 FILLER_255_1464
*5214 FILLER_255_1476
*5215 FILLER_255_1488
*5216 FILLER_255_1500
*5217 FILLER_255_1504
*5218 FILLER_255_1506
*5219 FILLER_255_703
*5220 FILLER_255_715
*5221 FILLER_255_727
*5222 FILLER_255_739
*5223 FILLER_256_1470
*5224 FILLER_256_1482
*5225 FILLER_256_1486
*5226 FILLER_256_1488
*5227 FILLER_256_1490
*5228 FILLER_256_1502
*5229 FILLER_256_1506
*5230 FILLER_256_709
*5231 FILLER_256_721
*5232 FILLER_256_725
*5233 FILLER_256_727
*5234 FILLER_256_729
*5235 FILLER_256_741
*5236 FILLER_256_745
*5237 FILLER_257_1464
*5238 FILLER_257_1476
*5239 FILLER_257_1488
*5240 FILLER_257_1500
*5241 FILLER_257_1504
*5242 FILLER_257_1506
*5243 FILLER_257_703
*5244 FILLER_257_715
*5245 FILLER_257_727
*5246 FILLER_257_739
*5247 FILLER_258_1464
*5248 FILLER_258_1476
*5249 FILLER_258_1488
*5250 FILLER_258_1490
*5251 FILLER_258_1502
*5252 FILLER_258_1506
*5253 FILLER_258_703
*5254 FILLER_258_715
*5255 FILLER_258_727
*5256 FILLER_258_729
*5257 FILLER_258_741
*5258 FILLER_258_745
*5259 FILLER_259_1464
*5260 FILLER_259_1476
*5261 FILLER_259_1488
*5262 FILLER_259_1500
*5263 FILLER_259_1504
*5264 FILLER_259_1506
*5265 FILLER_259_703
*5266 FILLER_259_715
*5267 FILLER_259_727
*5268 FILLER_259_739
*5269 FILLER_25_1464
*5270 FILLER_25_1476
*5271 FILLER_25_1488
*5272 FILLER_25_1500
*5273 FILLER_25_1504
*5274 FILLER_25_1506
*5275 FILLER_25_718
*5276 FILLER_25_730
*5277 FILLER_25_742
*5278 FILLER_25_746
*5279 FILLER_260_1464
*5280 FILLER_260_1476
*5281 FILLER_260_1488
*5282 FILLER_260_1490
*5283 FILLER_260_1502
*5284 FILLER_260_1506
*5285 FILLER_260_703
*5286 FILLER_260_715
*5287 FILLER_260_727
*5288 FILLER_260_729
*5289 FILLER_260_741
*5290 FILLER_260_745
*5291 FILLER_261_1464
*5292 FILLER_261_1476
*5293 FILLER_261_1488
*5294 FILLER_261_1500
*5295 FILLER_261_1504
*5296 FILLER_261_1506
*5297 FILLER_261_703
*5298 FILLER_261_715
*5299 FILLER_261_727
*5300 FILLER_261_739
*5301 FILLER_262_1464
*5302 FILLER_262_1476
*5303 FILLER_262_1488
*5304 FILLER_262_1490
*5305 FILLER_262_1502
*5306 FILLER_262_1506
*5307 FILLER_262_703
*5308 FILLER_262_715
*5309 FILLER_262_727
*5310 FILLER_262_729
*5311 FILLER_262_741
*5312 FILLER_262_745
*5313 FILLER_263_1464
*5314 FILLER_263_1476
*5315 FILLER_263_1488
*5316 FILLER_263_1500
*5317 FILLER_263_1504
*5318 FILLER_263_1506
*5319 FILLER_263_703
*5320 FILLER_263_715
*5321 FILLER_263_727
*5322 FILLER_263_739
*5323 FILLER_264_1464
*5324 FILLER_264_1476
*5325 FILLER_264_1488
*5326 FILLER_264_1490
*5327 FILLER_264_1502
*5328 FILLER_264_1506
*5329 FILLER_264_703
*5330 FILLER_264_715
*5331 FILLER_264_727
*5332 FILLER_264_729
*5333 FILLER_264_741
*5334 FILLER_264_745
*5335 FILLER_265_1464
*5336 FILLER_265_1476
*5337 FILLER_265_1488
*5338 FILLER_265_1500
*5339 FILLER_265_1504
*5340 FILLER_265_1506
*5341 FILLER_265_703
*5342 FILLER_265_715
*5343 FILLER_265_727
*5344 FILLER_265_739
*5345 FILLER_266_1464
*5346 FILLER_266_1476
*5347 FILLER_266_1488
*5348 FILLER_266_1490
*5349 FILLER_266_1502
*5350 FILLER_266_1506
*5351 FILLER_266_703
*5352 FILLER_266_715
*5353 FILLER_266_727
*5354 FILLER_266_729
*5355 FILLER_266_741
*5356 FILLER_266_745
*5357 FILLER_267_1464
*5358 FILLER_267_1476
*5359 FILLER_267_1488
*5360 FILLER_267_1500
*5361 FILLER_267_1504
*5362 FILLER_267_1506
*5363 FILLER_267_703
*5364 FILLER_267_715
*5365 FILLER_267_727
*5366 FILLER_267_739
*5367 FILLER_268_1464
*5368 FILLER_268_1476
*5369 FILLER_268_1488
*5370 FILLER_268_1490
*5371 FILLER_268_1502
*5372 FILLER_268_1506
*5373 FILLER_268_703
*5374 FILLER_268_715
*5375 FILLER_268_727
*5376 FILLER_268_729
*5377 FILLER_268_741
*5378 FILLER_268_745
*5379 FILLER_269_1464
*5380 FILLER_269_1476
*5381 FILLER_269_1488
*5382 FILLER_269_1500
*5383 FILLER_269_1504
*5384 FILLER_269_1506
*5385 FILLER_269_703
*5386 FILLER_269_715
*5387 FILLER_269_727
*5388 FILLER_269_739
*5389 FILLER_26_1464
*5390 FILLER_26_1476
*5391 FILLER_26_1488
*5392 FILLER_26_1490
*5393 FILLER_26_1502
*5394 FILLER_26_1506
*5395 FILLER_26_703
*5396 FILLER_26_715
*5397 FILLER_26_727
*5398 FILLER_26_729
*5399 FILLER_26_741
*5400 FILLER_26_745
*5401 FILLER_270_1464
*5402 FILLER_270_1476
*5403 FILLER_270_1488
*5404 FILLER_270_1490
*5405 FILLER_270_1502
*5406 FILLER_270_1506
*5407 FILLER_270_703
*5408 FILLER_270_715
*5409 FILLER_270_727
*5410 FILLER_270_729
*5411 FILLER_270_741
*5412 FILLER_270_745
*5413 FILLER_271_1464
*5414 FILLER_271_1476
*5415 FILLER_271_1488
*5416 FILLER_271_1500
*5417 FILLER_271_1504
*5418 FILLER_271_1506
*5419 FILLER_271_703
*5420 FILLER_271_715
*5421 FILLER_271_727
*5422 FILLER_271_739
*5423 FILLER_272_1464
*5424 FILLER_272_1476
*5425 FILLER_272_1488
*5426 FILLER_272_1490
*5427 FILLER_272_1502
*5428 FILLER_272_1506
*5429 FILLER_272_703
*5430 FILLER_272_715
*5431 FILLER_272_727
*5432 FILLER_272_729
*5433 FILLER_272_741
*5434 FILLER_272_745
*5435 FILLER_273_1464
*5436 FILLER_273_1476
*5437 FILLER_273_1488
*5438 FILLER_273_1500
*5439 FILLER_273_1504
*5440 FILLER_273_1506
*5441 FILLER_273_703
*5442 FILLER_273_715
*5443 FILLER_273_727
*5444 FILLER_273_739
*5445 FILLER_274_1464
*5446 FILLER_274_1476
*5447 FILLER_274_1488
*5448 FILLER_274_1490
*5449 FILLER_274_1502
*5450 FILLER_274_1506
*5451 FILLER_274_703
*5452 FILLER_274_715
*5453 FILLER_274_727
*5454 FILLER_274_729
*5455 FILLER_274_741
*5456 FILLER_274_745
*5457 FILLER_275_1464
*5458 FILLER_275_1476
*5459 FILLER_275_1488
*5460 FILLER_275_1500
*5461 FILLER_275_1504
*5462 FILLER_275_1506
*5463 FILLER_275_703
*5464 FILLER_275_715
*5465 FILLER_275_727
*5466 FILLER_275_739
*5467 FILLER_276_1464
*5468 FILLER_276_1476
*5469 FILLER_276_1488
*5470 FILLER_276_1490
*5471 FILLER_276_1502
*5472 FILLER_276_1506
*5473 FILLER_276_703
*5474 FILLER_276_715
*5475 FILLER_276_727
*5476 FILLER_276_729
*5477 FILLER_276_741
*5478 FILLER_276_745
*5479 FILLER_277_1464
*5480 FILLER_277_1476
*5481 FILLER_277_1488
*5482 FILLER_277_1500
*5483 FILLER_277_1504
*5484 FILLER_277_1506
*5485 FILLER_277_703
*5486 FILLER_277_715
*5487 FILLER_277_727
*5488 FILLER_277_739
*5489 FILLER_278_1464
*5490 FILLER_278_1476
*5491 FILLER_278_1488
*5492 FILLER_278_1490
*5493 FILLER_278_1502
*5494 FILLER_278_1506
*5495 FILLER_278_703
*5496 FILLER_278_715
*5497 FILLER_278_727
*5498 FILLER_278_729
*5499 FILLER_278_741
*5500 FILLER_278_745
*5501 FILLER_279_1464
*5502 FILLER_279_1476
*5503 FILLER_279_1488
*5504 FILLER_279_1500
*5505 FILLER_279_1504
*5506 FILLER_279_1506
*5507 FILLER_279_703
*5508 FILLER_279_715
*5509 FILLER_279_727
*5510 FILLER_279_739
*5511 FILLER_27_1464
*5512 FILLER_27_1476
*5513 FILLER_27_1488
*5514 FILLER_27_1500
*5515 FILLER_27_1504
*5516 FILLER_27_1506
*5517 FILLER_27_703
*5518 FILLER_27_715
*5519 FILLER_27_727
*5520 FILLER_27_746
*5521 FILLER_280_1464
*5522 FILLER_280_1476
*5523 FILLER_280_1488
*5524 FILLER_280_1490
*5525 FILLER_280_1502
*5526 FILLER_280_1506
*5527 FILLER_280_703
*5528 FILLER_280_715
*5529 FILLER_280_727
*5530 FILLER_280_729
*5531 FILLER_280_741
*5532 FILLER_280_745
*5533 FILLER_281_1464
*5534 FILLER_281_1476
*5535 FILLER_281_1488
*5536 FILLER_281_1500
*5537 FILLER_281_1504
*5538 FILLER_281_1506
*5539 FILLER_281_703
*5540 FILLER_281_715
*5541 FILLER_281_727
*5542 FILLER_281_739
*5543 FILLER_282_1464
*5544 FILLER_282_1476
*5545 FILLER_282_1488
*5546 FILLER_282_1490
*5547 FILLER_282_1502
*5548 FILLER_282_1506
*5549 FILLER_282_703
*5550 FILLER_282_715
*5551 FILLER_282_727
*5552 FILLER_282_729
*5553 FILLER_282_741
*5554 FILLER_282_745
*5555 FILLER_283_1464
*5556 FILLER_283_1476
*5557 FILLER_283_1488
*5558 FILLER_283_1500
*5559 FILLER_283_1504
*5560 FILLER_283_1506
*5561 FILLER_283_703
*5562 FILLER_283_715
*5563 FILLER_283_727
*5564 FILLER_283_739
*5565 FILLER_284_1464
*5566 FILLER_284_1476
*5567 FILLER_284_1488
*5568 FILLER_284_1490
*5569 FILLER_284_1502
*5570 FILLER_284_1506
*5571 FILLER_284_703
*5572 FILLER_284_715
*5573 FILLER_284_727
*5574 FILLER_284_729
*5575 FILLER_284_741
*5576 FILLER_284_745
*5577 FILLER_285_1464
*5578 FILLER_285_1476
*5579 FILLER_285_1488
*5580 FILLER_285_1500
*5581 FILLER_285_1504
*5582 FILLER_285_1506
*5583 FILLER_285_703
*5584 FILLER_285_715
*5585 FILLER_285_727
*5586 FILLER_285_739
*5587 FILLER_286_1464
*5588 FILLER_286_1476
*5589 FILLER_286_1488
*5590 FILLER_286_1490
*5591 FILLER_286_1502
*5592 FILLER_286_1506
*5593 FILLER_286_703
*5594 FILLER_286_715
*5595 FILLER_286_727
*5596 FILLER_286_729
*5597 FILLER_286_741
*5598 FILLER_286_745
*5599 FILLER_287_1464
*5600 FILLER_287_1476
*5601 FILLER_287_1488
*5602 FILLER_287_1500
*5603 FILLER_287_1504
*5604 FILLER_287_1506
*5605 FILLER_287_703
*5606 FILLER_287_715
*5607 FILLER_287_727
*5608 FILLER_287_739
*5609 FILLER_288_1464
*5610 FILLER_288_1476
*5611 FILLER_288_1488
*5612 FILLER_288_1490
*5613 FILLER_288_1502
*5614 FILLER_288_1506
*5615 FILLER_288_703
*5616 FILLER_288_715
*5617 FILLER_288_727
*5618 FILLER_288_729
*5619 FILLER_288_741
*5620 FILLER_288_745
*5621 FILLER_289_1464
*5622 FILLER_289_1476
*5623 FILLER_289_1488
*5624 FILLER_289_1500
*5625 FILLER_289_1504
*5626 FILLER_289_1506
*5627 FILLER_289_703
*5628 FILLER_289_715
*5629 FILLER_289_727
*5630 FILLER_289_739
*5631 FILLER_28_1464
*5632 FILLER_28_1476
*5633 FILLER_28_1488
*5634 FILLER_28_1490
*5635 FILLER_28_1502
*5636 FILLER_28_1506
*5637 FILLER_28_703
*5638 FILLER_28_715
*5639 FILLER_28_727
*5640 FILLER_28_729
*5641 FILLER_28_741
*5642 FILLER_28_745
*5643 FILLER_290_1464
*5644 FILLER_290_1476
*5645 FILLER_290_1488
*5646 FILLER_290_1490
*5647 FILLER_290_1502
*5648 FILLER_290_1506
*5649 FILLER_290_703
*5650 FILLER_290_715
*5651 FILLER_290_727
*5652 FILLER_290_729
*5653 FILLER_290_741
*5654 FILLER_290_745
*5655 FILLER_291_1464
*5656 FILLER_291_1476
*5657 FILLER_291_1488
*5658 FILLER_291_1500
*5659 FILLER_291_1504
*5660 FILLER_291_1506
*5661 FILLER_291_703
*5662 FILLER_291_715
*5663 FILLER_291_727
*5664 FILLER_291_739
*5665 FILLER_292_1464
*5666 FILLER_292_1476
*5667 FILLER_292_1488
*5668 FILLER_292_1490
*5669 FILLER_292_1502
*5670 FILLER_292_1506
*5671 FILLER_292_703
*5672 FILLER_292_715
*5673 FILLER_292_727
*5674 FILLER_292_729
*5675 FILLER_292_741
*5676 FILLER_292_745
*5677 FILLER_293_1464
*5678 FILLER_293_1476
*5679 FILLER_293_1488
*5680 FILLER_293_1500
*5681 FILLER_293_1504
*5682 FILLER_293_1506
*5683 FILLER_293_703
*5684 FILLER_293_715
*5685 FILLER_293_727
*5686 FILLER_293_739
*5687 FILLER_294_1464
*5688 FILLER_294_1476
*5689 FILLER_294_1488
*5690 FILLER_294_1490
*5691 FILLER_294_1502
*5692 FILLER_294_1506
*5693 FILLER_294_703
*5694 FILLER_294_715
*5695 FILLER_294_727
*5696 FILLER_294_729
*5697 FILLER_294_741
*5698 FILLER_294_745
*5699 FILLER_295_1464
*5700 FILLER_295_1476
*5701 FILLER_295_1488
*5702 FILLER_295_1500
*5703 FILLER_295_1504
*5704 FILLER_295_1506
*5705 FILLER_295_703
*5706 FILLER_295_715
*5707 FILLER_295_727
*5708 FILLER_295_739
*5709 FILLER_296_1464
*5710 FILLER_296_1476
*5711 FILLER_296_1488
*5712 FILLER_296_1490
*5713 FILLER_296_1502
*5714 FILLER_296_1506
*5715 FILLER_296_703
*5716 FILLER_296_715
*5717 FILLER_296_727
*5718 FILLER_296_729
*5719 FILLER_296_741
*5720 FILLER_296_745
*5721 FILLER_297_1464
*5722 FILLER_297_1476
*5723 FILLER_297_1488
*5724 FILLER_297_1500
*5725 FILLER_297_1504
*5726 FILLER_297_1506
*5727 FILLER_297_703
*5728 FILLER_297_715
*5729 FILLER_297_727
*5730 FILLER_297_739
*5731 FILLER_298_1464
*5732 FILLER_298_1476
*5733 FILLER_298_1488
*5734 FILLER_298_1490
*5735 FILLER_298_1502
*5736 FILLER_298_1506
*5737 FILLER_298_703
*5738 FILLER_298_715
*5739 FILLER_298_727
*5740 FILLER_298_729
*5741 FILLER_298_741
*5742 FILLER_298_745
*5743 FILLER_299_1464
*5744 FILLER_299_1476
*5745 FILLER_299_1488
*5746 FILLER_299_1500
*5747 FILLER_299_1504
*5748 FILLER_299_1506
*5749 FILLER_299_703
*5750 FILLER_299_715
*5751 FILLER_299_727
*5752 FILLER_299_739
*5753 FILLER_29_1464
*5754 FILLER_29_1476
*5755 FILLER_29_1488
*5756 FILLER_29_1500
*5757 FILLER_29_1504
*5758 FILLER_29_1506
*5759 FILLER_29_703
*5760 FILLER_29_715
*5761 FILLER_29_727
*5762 FILLER_29_735
*5763 FILLER_29_737
*5764 FILLER_29_740
*5765 FILLER_2_1005
*5766 FILLER_2_1013
*5767 FILLER_2_1016
*5768 FILLER_2_1037
*5769 FILLER_2_1041
*5770 FILLER_2_1050
*5771 FILLER_2_1052
*5772 FILLER_2_1057
*5773 FILLER_2_1069
*5774 FILLER_2_1077
*5775 FILLER_2_1088
*5776 FILLER_2_109
*5777 FILLER_2_1093
*5778 FILLER_2_1097
*5779 FILLER_2_1100
*5780 FILLER_2_1102
*5781 FILLER_2_1121
*5782 FILLER_2_1143
*5783 FILLER_2_1147
*5784 FILLER_2_1149
*5785 FILLER_2_1157
*5786 FILLER_2_1161
*5787 FILLER_2_1188
*5788 FILLER_2_1200
*5789 FILLER_2_1205
*5790 FILLER_2_121
*5791 FILLER_2_1213
*5792 FILLER_2_1216
*5793 FILLER_2_1228
*5794 FILLER_2_1232
*5795 FILLER_2_1235
*5796 FILLER_2_1247
*5797 FILLER_2_1257
*5798 FILLER_2_1259
*5799 FILLER_2_1261
*5800 FILLER_2_1273
*5801 FILLER_2_1281
*5802 FILLER_2_1283
*5803 FILLER_2_1292
*5804 FILLER_2_1304
*5805 FILLER_2_1325
*5806 FILLER_2_133
*5807 FILLER_2_1337
*5808 FILLER_2_1345
*5809 FILLER_2_1357
*5810 FILLER_2_1369
*5811 FILLER_2_137
*5812 FILLER_2_1371
*5813 FILLER_2_1389
*5814 FILLER_2_139
*5815 FILLER_2_1397
*5816 FILLER_2_1399
*5817 FILLER_2_141
*5818 FILLER_2_1416
*5819 FILLER_2_1429
*5820 FILLER_2_1433
*5821 FILLER_2_1442
*5822 FILLER_2_1454
*5823 FILLER_2_1470
*5824 FILLER_2_1482
*5825 FILLER_2_1485
*5826 FILLER_2_1487
*5827 FILLER_2_15
*5828 FILLER_2_1504
*5829 FILLER_2_1506
*5830 FILLER_2_153
*5831 FILLER_2_165
*5832 FILLER_2_177
*5833 FILLER_2_189
*5834 FILLER_2_193
*5835 FILLER_2_195
*5836 FILLER_2_197
*5837 FILLER_2_209
*5838 FILLER_2_221
*5839 FILLER_2_233
*5840 FILLER_2_245
*5841 FILLER_2_249
*5842 FILLER_2_251
*5843 FILLER_2_253
*5844 FILLER_2_265
*5845 FILLER_2_27
*5846 FILLER_2_277
*5847 FILLER_2_289
*5848 FILLER_2_29
*5849 FILLER_2_3
*5850 FILLER_2_301
*5851 FILLER_2_305
*5852 FILLER_2_307
*5853 FILLER_2_309
*5854 FILLER_2_321
*5855 FILLER_2_333
*5856 FILLER_2_345
*5857 FILLER_2_357
*5858 FILLER_2_361
*5859 FILLER_2_363
*5860 FILLER_2_365
*5861 FILLER_2_377
*5862 FILLER_2_389
*5863 FILLER_2_401
*5864 FILLER_2_41
*5865 FILLER_2_413
*5866 FILLER_2_417
*5867 FILLER_2_419
*5868 FILLER_2_421
*5869 FILLER_2_433
*5870 FILLER_2_445
*5871 FILLER_2_457
*5872 FILLER_2_469
*5873 FILLER_2_473
*5874 FILLER_2_475
*5875 FILLER_2_477
*5876 FILLER_2_489
*5877 FILLER_2_501
*5878 FILLER_2_513
*5879 FILLER_2_525
*5880 FILLER_2_529
*5881 FILLER_2_53
*5882 FILLER_2_531
*5883 FILLER_2_533
*5884 FILLER_2_545
*5885 FILLER_2_573
*5886 FILLER_2_585
*5887 FILLER_2_587
*5888 FILLER_2_589
*5889 FILLER_2_591
*5890 FILLER_2_594
*5891 FILLER_2_598
*5892 FILLER_2_609
*5893 FILLER_2_613
*5894 FILLER_2_625
*5895 FILLER_2_627
*5896 FILLER_2_645
*5897 FILLER_2_65
*5898 FILLER_2_663
*5899 FILLER_2_689
*5900 FILLER_2_691
*5901 FILLER_2_701
*5902 FILLER_2_743
*5903 FILLER_2_747
*5904 FILLER_2_757
*5905 FILLER_2_761
*5906 FILLER_2_77
*5907 FILLER_2_770
*5908 FILLER_2_780
*5909 FILLER_2_808
*5910 FILLER_2_81
*5911 FILLER_2_821
*5912 FILLER_2_823
*5913 FILLER_2_83
*5914 FILLER_2_840
*5915 FILLER_2_844
*5916 FILLER_2_846
*5917 FILLER_2_85
*5918 FILLER_2_863
*5919 FILLER_2_867
*5920 FILLER_2_909
*5921 FILLER_2_913
*5922 FILLER_2_918
*5923 FILLER_2_922
*5924 FILLER_2_965
*5925 FILLER_2_97
*5926 FILLER_2_977
*5927 FILLER_2_979
*5928 FILLER_2_981
*5929 FILLER_2_993
*5930 FILLER_300_1464
*5931 FILLER_300_1476
*5932 FILLER_300_1488
*5933 FILLER_300_1490
*5934 FILLER_300_1502
*5935 FILLER_300_1506
*5936 FILLER_300_703
*5937 FILLER_300_715
*5938 FILLER_300_727
*5939 FILLER_300_729
*5940 FILLER_300_741
*5941 FILLER_300_745
*5942 FILLER_301_1464
*5943 FILLER_301_1476
*5944 FILLER_301_1488
*5945 FILLER_301_1500
*5946 FILLER_301_1504
*5947 FILLER_301_1506
*5948 FILLER_301_703
*5949 FILLER_301_715
*5950 FILLER_301_727
*5951 FILLER_301_739
*5952 FILLER_302_1464
*5953 FILLER_302_1476
*5954 FILLER_302_1488
*5955 FILLER_302_1490
*5956 FILLER_302_1502
*5957 FILLER_302_1506
*5958 FILLER_302_703
*5959 FILLER_302_715
*5960 FILLER_302_727
*5961 FILLER_302_729
*5962 FILLER_302_741
*5963 FILLER_302_745
*5964 FILLER_303_1464
*5965 FILLER_303_1476
*5966 FILLER_303_1488
*5967 FILLER_303_1500
*5968 FILLER_303_1504
*5969 FILLER_303_1506
*5970 FILLER_303_703
*5971 FILLER_303_715
*5972 FILLER_303_727
*5973 FILLER_303_739
*5974 FILLER_304_1464
*5975 FILLER_304_1476
*5976 FILLER_304_1488
*5977 FILLER_304_1490
*5978 FILLER_304_1502
*5979 FILLER_304_1506
*5980 FILLER_304_703
*5981 FILLER_304_715
*5982 FILLER_304_727
*5983 FILLER_304_729
*5984 FILLER_304_741
*5985 FILLER_304_745
*5986 FILLER_305_1464
*5987 FILLER_305_1476
*5988 FILLER_305_1488
*5989 FILLER_305_1500
*5990 FILLER_305_1504
*5991 FILLER_305_1506
*5992 FILLER_305_703
*5993 FILLER_305_715
*5994 FILLER_305_727
*5995 FILLER_305_739
*5996 FILLER_306_1464
*5997 FILLER_306_1476
*5998 FILLER_306_1488
*5999 FILLER_306_1490
*6000 FILLER_306_1502
*6001 FILLER_306_1506
*6002 FILLER_306_703
*6003 FILLER_306_715
*6004 FILLER_306_727
*6005 FILLER_306_729
*6006 FILLER_306_741
*6007 FILLER_306_745
*6008 FILLER_307_1464
*6009 FILLER_307_1476
*6010 FILLER_307_1488
*6011 FILLER_307_1500
*6012 FILLER_307_1504
*6013 FILLER_307_1506
*6014 FILLER_307_703
*6015 FILLER_307_715
*6016 FILLER_307_727
*6017 FILLER_307_739
*6018 FILLER_308_1464
*6019 FILLER_308_1476
*6020 FILLER_308_1488
*6021 FILLER_308_1490
*6022 FILLER_308_1502
*6023 FILLER_308_1506
*6024 FILLER_308_703
*6025 FILLER_308_715
*6026 FILLER_308_727
*6027 FILLER_308_729
*6028 FILLER_308_741
*6029 FILLER_308_745
*6030 FILLER_309_1464
*6031 FILLER_309_1476
*6032 FILLER_309_1488
*6033 FILLER_309_1500
*6034 FILLER_309_1504
*6035 FILLER_309_1506
*6036 FILLER_309_703
*6037 FILLER_309_715
*6038 FILLER_309_727
*6039 FILLER_309_739
*6040 FILLER_30_1464
*6041 FILLER_30_1476
*6042 FILLER_30_1488
*6043 FILLER_30_1490
*6044 FILLER_30_1502
*6045 FILLER_30_1506
*6046 FILLER_30_703
*6047 FILLER_30_715
*6048 FILLER_30_723
*6049 FILLER_30_729
*6050 FILLER_310_1464
*6051 FILLER_310_1476
*6052 FILLER_310_1488
*6053 FILLER_310_1490
*6054 FILLER_310_1502
*6055 FILLER_310_1506
*6056 FILLER_310_703
*6057 FILLER_310_715
*6058 FILLER_310_727
*6059 FILLER_310_729
*6060 FILLER_310_741
*6061 FILLER_310_745
*6062 FILLER_311_1464
*6063 FILLER_311_1476
*6064 FILLER_311_1488
*6065 FILLER_311_1500
*6066 FILLER_311_1504
*6067 FILLER_311_1506
*6068 FILLER_311_703
*6069 FILLER_311_715
*6070 FILLER_311_727
*6071 FILLER_311_739
*6072 FILLER_312_1464
*6073 FILLER_312_1476
*6074 FILLER_312_1488
*6075 FILLER_312_1490
*6076 FILLER_312_1502
*6077 FILLER_312_1506
*6078 FILLER_312_703
*6079 FILLER_312_715
*6080 FILLER_312_727
*6081 FILLER_312_729
*6082 FILLER_312_741
*6083 FILLER_312_745
*6084 FILLER_313_1464
*6085 FILLER_313_1476
*6086 FILLER_313_1488
*6087 FILLER_313_1500
*6088 FILLER_313_1504
*6089 FILLER_313_1506
*6090 FILLER_313_703
*6091 FILLER_313_715
*6092 FILLER_313_727
*6093 FILLER_313_739
*6094 FILLER_314_1464
*6095 FILLER_314_1476
*6096 FILLER_314_1488
*6097 FILLER_314_1490
*6098 FILLER_314_1502
*6099 FILLER_314_1506
*6100 FILLER_314_703
*6101 FILLER_314_715
*6102 FILLER_314_727
*6103 FILLER_314_729
*6104 FILLER_314_741
*6105 FILLER_314_745
*6106 FILLER_315_1464
*6107 FILLER_315_1476
*6108 FILLER_315_1488
*6109 FILLER_315_1500
*6110 FILLER_315_1504
*6111 FILLER_315_1506
*6112 FILLER_315_703
*6113 FILLER_315_715
*6114 FILLER_315_727
*6115 FILLER_315_739
*6116 FILLER_316_1464
*6117 FILLER_316_1476
*6118 FILLER_316_1488
*6119 FILLER_316_1490
*6120 FILLER_316_1502
*6121 FILLER_316_1506
*6122 FILLER_316_703
*6123 FILLER_316_715
*6124 FILLER_316_727
*6125 FILLER_316_729
*6126 FILLER_316_741
*6127 FILLER_316_745
*6128 FILLER_317_1464
*6129 FILLER_317_1476
*6130 FILLER_317_1488
*6131 FILLER_317_1500
*6132 FILLER_317_1504
*6133 FILLER_317_1506
*6134 FILLER_317_703
*6135 FILLER_317_715
*6136 FILLER_317_727
*6137 FILLER_317_739
*6138 FILLER_318_1464
*6139 FILLER_318_1476
*6140 FILLER_318_1488
*6141 FILLER_318_1490
*6142 FILLER_318_1502
*6143 FILLER_318_1506
*6144 FILLER_318_703
*6145 FILLER_318_715
*6146 FILLER_318_727
*6147 FILLER_318_729
*6148 FILLER_318_741
*6149 FILLER_318_745
*6150 FILLER_319_1464
*6151 FILLER_319_1476
*6152 FILLER_319_1488
*6153 FILLER_319_1500
*6154 FILLER_319_1504
*6155 FILLER_319_1506
*6156 FILLER_319_703
*6157 FILLER_319_715
*6158 FILLER_319_727
*6159 FILLER_319_739
*6160 FILLER_31_1464
*6161 FILLER_31_1476
*6162 FILLER_31_1488
*6163 FILLER_31_1500
*6164 FILLER_31_1504
*6165 FILLER_31_1506
*6166 FILLER_31_703
*6167 FILLER_31_715
*6168 FILLER_31_727
*6169 FILLER_31_739
*6170 FILLER_320_1464
*6171 FILLER_320_1476
*6172 FILLER_320_1488
*6173 FILLER_320_1490
*6174 FILLER_320_1502
*6175 FILLER_320_1506
*6176 FILLER_320_703
*6177 FILLER_320_715
*6178 FILLER_320_727
*6179 FILLER_320_729
*6180 FILLER_320_741
*6181 FILLER_320_745
*6182 FILLER_321_1005
*6183 FILLER_321_1007
*6184 FILLER_321_1009
*6185 FILLER_321_1021
*6186 FILLER_321_1033
*6187 FILLER_321_1035
*6188 FILLER_321_1037
*6189 FILLER_321_1049
*6190 FILLER_321_1061
*6191 FILLER_321_1063
*6192 FILLER_321_1065
*6193 FILLER_321_1077
*6194 FILLER_321_1089
*6195 FILLER_321_109
*6196 FILLER_321_1091
*6197 FILLER_321_1093
*6198 FILLER_321_1105
*6199 FILLER_321_111
*6200 FILLER_321_1117
*6201 FILLER_321_1119
*6202 FILLER_321_1121
*6203 FILLER_321_113
*6204 FILLER_321_1133
*6205 FILLER_321_1145
*6206 FILLER_321_1147
*6207 FILLER_321_1149
*6208 FILLER_321_1161
*6209 FILLER_321_1173
*6210 FILLER_321_1175
*6211 FILLER_321_1177
*6212 FILLER_321_1189
*6213 FILLER_321_1201
*6214 FILLER_321_1203
*6215 FILLER_321_1205
*6216 FILLER_321_1217
*6217 FILLER_321_1229
*6218 FILLER_321_1231
*6219 FILLER_321_1233
*6220 FILLER_321_1245
*6221 FILLER_321_125
*6222 FILLER_321_1257
*6223 FILLER_321_1259
*6224 FILLER_321_1261
*6225 FILLER_321_1273
*6226 FILLER_321_1285
*6227 FILLER_321_1287
*6228 FILLER_321_1289
*6229 FILLER_321_1301
*6230 FILLER_321_1313
*6231 FILLER_321_1315
*6232 FILLER_321_1317
*6233 FILLER_321_1329
*6234 FILLER_321_1341
*6235 FILLER_321_1343
*6236 FILLER_321_1345
*6237 FILLER_321_1357
*6238 FILLER_321_1369
*6239 FILLER_321_137
*6240 FILLER_321_1371
*6241 FILLER_321_1373
*6242 FILLER_321_1385
*6243 FILLER_321_139
*6244 FILLER_321_1397
*6245 FILLER_321_1399
*6246 FILLER_321_1401
*6247 FILLER_321_141
*6248 FILLER_321_1413
*6249 FILLER_321_1425
*6250 FILLER_321_1427
*6251 FILLER_321_1429
*6252 FILLER_321_1441
*6253 FILLER_321_1453
*6254 FILLER_321_1455
*6255 FILLER_321_1457
*6256 FILLER_321_1469
*6257 FILLER_321_1481
*6258 FILLER_321_1483
*6259 FILLER_321_1485
*6260 FILLER_321_1497
*6261 FILLER_321_15
*6262 FILLER_321_1505
*6263 FILLER_321_153
*6264 FILLER_321_165
*6265 FILLER_321_167
*6266 FILLER_321_169
*6267 FILLER_321_181
*6268 FILLER_321_193
*6269 FILLER_321_195
*6270 FILLER_321_197
*6271 FILLER_321_209
*6272 FILLER_321_221
*6273 FILLER_321_223
*6274 FILLER_321_225
*6275 FILLER_321_237
*6276 FILLER_321_249
*6277 FILLER_321_251
*6278 FILLER_321_253
*6279 FILLER_321_265
*6280 FILLER_321_27
*6281 FILLER_321_277
*6282 FILLER_321_279
*6283 FILLER_321_281
*6284 FILLER_321_29
*6285 FILLER_321_293
*6286 FILLER_321_3
*6287 FILLER_321_305
*6288 FILLER_321_307
*6289 FILLER_321_309
*6290 FILLER_321_321
*6291 FILLER_321_333
*6292 FILLER_321_335
*6293 FILLER_321_337
*6294 FILLER_321_349
*6295 FILLER_321_361
*6296 FILLER_321_363
*6297 FILLER_321_365
*6298 FILLER_321_377
*6299 FILLER_321_389
*6300 FILLER_321_391
*6301 FILLER_321_393
*6302 FILLER_321_405
*6303 FILLER_321_41
*6304 FILLER_321_417
*6305 FILLER_321_419
*6306 FILLER_321_421
*6307 FILLER_321_433
*6308 FILLER_321_445
*6309 FILLER_321_447
*6310 FILLER_321_449
*6311 FILLER_321_461
*6312 FILLER_321_473
*6313 FILLER_321_475
*6314 FILLER_321_477
*6315 FILLER_321_489
*6316 FILLER_321_501
*6317 FILLER_321_503
*6318 FILLER_321_505
*6319 FILLER_321_517
*6320 FILLER_321_529
*6321 FILLER_321_53
*6322 FILLER_321_531
*6323 FILLER_321_533
*6324 FILLER_321_545
*6325 FILLER_321_55
*6326 FILLER_321_557
*6327 FILLER_321_559
*6328 FILLER_321_561
*6329 FILLER_321_57
*6330 FILLER_321_573
*6331 FILLER_321_585
*6332 FILLER_321_587
*6333 FILLER_321_589
*6334 FILLER_321_601
*6335 FILLER_321_613
*6336 FILLER_321_615
*6337 FILLER_321_617
*6338 FILLER_321_629
*6339 FILLER_321_641
*6340 FILLER_321_643
*6341 FILLER_321_645
*6342 FILLER_321_657
*6343 FILLER_321_669
*6344 FILLER_321_671
*6345 FILLER_321_673
*6346 FILLER_321_685
*6347 FILLER_321_69
*6348 FILLER_321_697
*6349 FILLER_321_699
*6350 FILLER_321_701
*6351 FILLER_321_713
*6352 FILLER_321_725
*6353 FILLER_321_727
*6354 FILLER_321_729
*6355 FILLER_321_741
*6356 FILLER_321_753
*6357 FILLER_321_755
*6358 FILLER_321_757
*6359 FILLER_321_769
*6360 FILLER_321_781
*6361 FILLER_321_783
*6362 FILLER_321_785
*6363 FILLER_321_797
*6364 FILLER_321_809
*6365 FILLER_321_81
*6366 FILLER_321_811
*6367 FILLER_321_813
*6368 FILLER_321_825
*6369 FILLER_321_83
*6370 FILLER_321_837
*6371 FILLER_321_839
*6372 FILLER_321_841
*6373 FILLER_321_85
*6374 FILLER_321_853
*6375 FILLER_321_865
*6376 FILLER_321_867
*6377 FILLER_321_869
*6378 FILLER_321_881
*6379 FILLER_321_893
*6380 FILLER_321_895
*6381 FILLER_321_897
*6382 FILLER_321_909
*6383 FILLER_321_921
*6384 FILLER_321_923
*6385 FILLER_321_925
*6386 FILLER_321_937
*6387 FILLER_321_949
*6388 FILLER_321_951
*6389 FILLER_321_953
*6390 FILLER_321_965
*6391 FILLER_321_97
*6392 FILLER_321_977
*6393 FILLER_321_979
*6394 FILLER_321_981
*6395 FILLER_321_993
*6396 FILLER_322_1005
*6397 FILLER_322_1017
*6398 FILLER_322_1029
*6399 FILLER_322_1033
*6400 FILLER_322_1035
*6401 FILLER_322_1037
*6402 FILLER_322_1049
*6403 FILLER_322_1061
*6404 FILLER_322_1073
*6405 FILLER_322_1085
*6406 FILLER_322_1089
*6407 FILLER_322_109
*6408 FILLER_322_1091
*6409 FILLER_322_1093
*6410 FILLER_322_1105
*6411 FILLER_322_1117
*6412 FILLER_322_1129
*6413 FILLER_322_1141
*6414 FILLER_322_1145
*6415 FILLER_322_1147
*6416 FILLER_322_1149
*6417 FILLER_322_1161
*6418 FILLER_322_1173
*6419 FILLER_322_1185
*6420 FILLER_322_1197
*6421 FILLER_322_1201
*6422 FILLER_322_1203
*6423 FILLER_322_1205
*6424 FILLER_322_121
*6425 FILLER_322_1217
*6426 FILLER_322_1229
*6427 FILLER_322_1241
*6428 FILLER_322_1253
*6429 FILLER_322_1257
*6430 FILLER_322_1259
*6431 FILLER_322_1261
*6432 FILLER_322_1273
*6433 FILLER_322_1285
*6434 FILLER_322_1297
*6435 FILLER_322_1309
*6436 FILLER_322_1313
*6437 FILLER_322_1315
*6438 FILLER_322_1317
*6439 FILLER_322_1329
*6440 FILLER_322_133
*6441 FILLER_322_1341
*6442 FILLER_322_1353
*6443 FILLER_322_1365
*6444 FILLER_322_1369
*6445 FILLER_322_137
*6446 FILLER_322_1371
*6447 FILLER_322_1373
*6448 FILLER_322_1385
*6449 FILLER_322_139
*6450 FILLER_322_1397
*6451 FILLER_322_1409
*6452 FILLER_322_141
*6453 FILLER_322_1421
*6454 FILLER_322_1425
*6455 FILLER_322_1427
*6456 FILLER_322_1429
*6457 FILLER_322_1441
*6458 FILLER_322_1453
*6459 FILLER_322_1465
*6460 FILLER_322_1477
*6461 FILLER_322_1481
*6462 FILLER_322_1483
*6463 FILLER_322_1485
*6464 FILLER_322_1497
*6465 FILLER_322_15
*6466 FILLER_322_1505
*6467 FILLER_322_153
*6468 FILLER_322_165
*6469 FILLER_322_177
*6470 FILLER_322_189
*6471 FILLER_322_193
*6472 FILLER_322_195
*6473 FILLER_322_197
*6474 FILLER_322_209
*6475 FILLER_322_221
*6476 FILLER_322_233
*6477 FILLER_322_245
*6478 FILLER_322_249
*6479 FILLER_322_251
*6480 FILLER_322_253
*6481 FILLER_322_265
*6482 FILLER_322_27
*6483 FILLER_322_277
*6484 FILLER_322_289
*6485 FILLER_322_29
*6486 FILLER_322_3
*6487 FILLER_322_301
*6488 FILLER_322_305
*6489 FILLER_322_307
*6490 FILLER_322_309
*6491 FILLER_322_321
*6492 FILLER_322_333
*6493 FILLER_322_345
*6494 FILLER_322_357
*6495 FILLER_322_361
*6496 FILLER_322_363
*6497 FILLER_322_365
*6498 FILLER_322_377
*6499 FILLER_322_389
*6500 FILLER_322_401
*6501 FILLER_322_41
*6502 FILLER_322_413
*6503 FILLER_322_417
*6504 FILLER_322_419
*6505 FILLER_322_421
*6506 FILLER_322_433
*6507 FILLER_322_445
*6508 FILLER_322_457
*6509 FILLER_322_469
*6510 FILLER_322_473
*6511 FILLER_322_475
*6512 FILLER_322_477
*6513 FILLER_322_489
*6514 FILLER_322_501
*6515 FILLER_322_513
*6516 FILLER_322_525
*6517 FILLER_322_529
*6518 FILLER_322_53
*6519 FILLER_322_531
*6520 FILLER_322_533
*6521 FILLER_322_545
*6522 FILLER_322_557
*6523 FILLER_322_569
*6524 FILLER_322_581
*6525 FILLER_322_585
*6526 FILLER_322_587
*6527 FILLER_322_589
*6528 FILLER_322_601
*6529 FILLER_322_613
*6530 FILLER_322_625
*6531 FILLER_322_637
*6532 FILLER_322_641
*6533 FILLER_322_643
*6534 FILLER_322_645
*6535 FILLER_322_65
*6536 FILLER_322_657
*6537 FILLER_322_669
*6538 FILLER_322_681
*6539 FILLER_322_693
*6540 FILLER_322_697
*6541 FILLER_322_699
*6542 FILLER_322_701
*6543 FILLER_322_713
*6544 FILLER_322_725
*6545 FILLER_322_737
*6546 FILLER_322_749
*6547 FILLER_322_753
*6548 FILLER_322_755
*6549 FILLER_322_757
*6550 FILLER_322_769
*6551 FILLER_322_77
*6552 FILLER_322_781
*6553 FILLER_322_793
*6554 FILLER_322_805
*6555 FILLER_322_809
*6556 FILLER_322_81
*6557 FILLER_322_811
*6558 FILLER_322_813
*6559 FILLER_322_825
*6560 FILLER_322_83
*6561 FILLER_322_837
*6562 FILLER_322_849
*6563 FILLER_322_85
*6564 FILLER_322_861
*6565 FILLER_322_865
*6566 FILLER_322_867
*6567 FILLER_322_869
*6568 FILLER_322_881
*6569 FILLER_322_893
*6570 FILLER_322_905
*6571 FILLER_322_917
*6572 FILLER_322_921
*6573 FILLER_322_923
*6574 FILLER_322_925
*6575 FILLER_322_937
*6576 FILLER_322_949
*6577 FILLER_322_961
*6578 FILLER_322_97
*6579 FILLER_322_973
*6580 FILLER_322_977
*6581 FILLER_322_979
*6582 FILLER_322_981
*6583 FILLER_322_993
*6584 FILLER_323_1001
*6585 FILLER_323_1005
*6586 FILLER_323_1007
*6587 FILLER_323_1009
*6588 FILLER_323_1021
*6589 FILLER_323_1033
*6590 FILLER_323_1045
*6591 FILLER_323_105
*6592 FILLER_323_1057
*6593 FILLER_323_1061
*6594 FILLER_323_1063
*6595 FILLER_323_1065
*6596 FILLER_323_1077
*6597 FILLER_323_1089
*6598 FILLER_323_109
*6599 FILLER_323_1101
*6600 FILLER_323_111
*6601 FILLER_323_1113
*6602 FILLER_323_1117
*6603 FILLER_323_1119
*6604 FILLER_323_1121
*6605 FILLER_323_113
*6606 FILLER_323_1133
*6607 FILLER_323_1145
*6608 FILLER_323_1157
*6609 FILLER_323_1169
*6610 FILLER_323_1173
*6611 FILLER_323_1175
*6612 FILLER_323_1177
*6613 FILLER_323_1189
*6614 FILLER_323_1201
*6615 FILLER_323_1213
*6616 FILLER_323_1225
*6617 FILLER_323_1229
*6618 FILLER_323_1231
*6619 FILLER_323_1233
*6620 FILLER_323_1245
*6621 FILLER_323_125
*6622 FILLER_323_1257
*6623 FILLER_323_1269
*6624 FILLER_323_1281
*6625 FILLER_323_1285
*6626 FILLER_323_1287
*6627 FILLER_323_1289
*6628 FILLER_323_1301
*6629 FILLER_323_1313
*6630 FILLER_323_1325
*6631 FILLER_323_1337
*6632 FILLER_323_1341
*6633 FILLER_323_1343
*6634 FILLER_323_1345
*6635 FILLER_323_1357
*6636 FILLER_323_1369
*6637 FILLER_323_137
*6638 FILLER_323_1381
*6639 FILLER_323_1393
*6640 FILLER_323_1397
*6641 FILLER_323_1399
*6642 FILLER_323_1401
*6643 FILLER_323_1413
*6644 FILLER_323_1425
*6645 FILLER_323_1437
*6646 FILLER_323_1449
*6647 FILLER_323_1453
*6648 FILLER_323_1455
*6649 FILLER_323_1457
*6650 FILLER_323_1469
*6651 FILLER_323_1481
*6652 FILLER_323_149
*6653 FILLER_323_1493
*6654 FILLER_323_15
*6655 FILLER_323_1505
*6656 FILLER_323_161
*6657 FILLER_323_165
*6658 FILLER_323_167
*6659 FILLER_323_169
*6660 FILLER_323_181
*6661 FILLER_323_193
*6662 FILLER_323_205
*6663 FILLER_323_217
*6664 FILLER_323_221
*6665 FILLER_323_223
*6666 FILLER_323_225
*6667 FILLER_323_237
*6668 FILLER_323_249
*6669 FILLER_323_261
*6670 FILLER_323_27
*6671 FILLER_323_273
*6672 FILLER_323_277
*6673 FILLER_323_279
*6674 FILLER_323_281
*6675 FILLER_323_293
*6676 FILLER_323_3
*6677 FILLER_323_305
*6678 FILLER_323_317
*6679 FILLER_323_329
*6680 FILLER_323_333
*6681 FILLER_323_335
*6682 FILLER_323_337
*6683 FILLER_323_349
*6684 FILLER_323_361
*6685 FILLER_323_373
*6686 FILLER_323_385
*6687 FILLER_323_389
*6688 FILLER_323_39
*6689 FILLER_323_391
*6690 FILLER_323_393
*6691 FILLER_323_405
*6692 FILLER_323_417
*6693 FILLER_323_429
*6694 FILLER_323_441
*6695 FILLER_323_445
*6696 FILLER_323_447
*6697 FILLER_323_449
*6698 FILLER_323_461
*6699 FILLER_323_473
*6700 FILLER_323_485
*6701 FILLER_323_497
*6702 FILLER_323_501
*6703 FILLER_323_503
*6704 FILLER_323_505
*6705 FILLER_323_51
*6706 FILLER_323_517
*6707 FILLER_323_529
*6708 FILLER_323_541
*6709 FILLER_323_55
*6710 FILLER_323_553
*6711 FILLER_323_557
*6712 FILLER_323_559
*6713 FILLER_323_561
*6714 FILLER_323_57
*6715 FILLER_323_573
*6716 FILLER_323_585
*6717 FILLER_323_597
*6718 FILLER_323_609
*6719 FILLER_323_613
*6720 FILLER_323_615
*6721 FILLER_323_617
*6722 FILLER_323_629
*6723 FILLER_323_641
*6724 FILLER_323_653
*6725 FILLER_323_665
*6726 FILLER_323_669
*6727 FILLER_323_671
*6728 FILLER_323_673
*6729 FILLER_323_685
*6730 FILLER_323_69
*6731 FILLER_323_697
*6732 FILLER_323_709
*6733 FILLER_323_721
*6734 FILLER_323_725
*6735 FILLER_323_727
*6736 FILLER_323_729
*6737 FILLER_323_741
*6738 FILLER_323_753
*6739 FILLER_323_765
*6740 FILLER_323_777
*6741 FILLER_323_781
*6742 FILLER_323_783
*6743 FILLER_323_785
*6744 FILLER_323_797
*6745 FILLER_323_809
*6746 FILLER_323_81
*6747 FILLER_323_821
*6748 FILLER_323_833
*6749 FILLER_323_837
*6750 FILLER_323_839
*6751 FILLER_323_841
*6752 FILLER_323_853
*6753 FILLER_323_865
*6754 FILLER_323_877
*6755 FILLER_323_889
*6756 FILLER_323_893
*6757 FILLER_323_895
*6758 FILLER_323_897
*6759 FILLER_323_909
*6760 FILLER_323_921
*6761 FILLER_323_93
*6762 FILLER_323_933
*6763 FILLER_323_945
*6764 FILLER_323_949
*6765 FILLER_323_951
*6766 FILLER_323_953
*6767 FILLER_323_965
*6768 FILLER_323_977
*6769 FILLER_323_989
*6770 FILLER_324_1005
*6771 FILLER_324_1017
*6772 FILLER_324_1029
*6773 FILLER_324_1033
*6774 FILLER_324_1035
*6775 FILLER_324_1037
*6776 FILLER_324_1049
*6777 FILLER_324_1061
*6778 FILLER_324_1073
*6779 FILLER_324_1085
*6780 FILLER_324_1089
*6781 FILLER_324_109
*6782 FILLER_324_1091
*6783 FILLER_324_1093
*6784 FILLER_324_1105
*6785 FILLER_324_1117
*6786 FILLER_324_1129
*6787 FILLER_324_1141
*6788 FILLER_324_1145
*6789 FILLER_324_1147
*6790 FILLER_324_1149
*6791 FILLER_324_1161
*6792 FILLER_324_1173
*6793 FILLER_324_1185
*6794 FILLER_324_1197
*6795 FILLER_324_1201
*6796 FILLER_324_1203
*6797 FILLER_324_1205
*6798 FILLER_324_121
*6799 FILLER_324_1217
*6800 FILLER_324_1229
*6801 FILLER_324_1241
*6802 FILLER_324_1253
*6803 FILLER_324_1257
*6804 FILLER_324_1259
*6805 FILLER_324_1261
*6806 FILLER_324_1273
*6807 FILLER_324_1285
*6808 FILLER_324_1297
*6809 FILLER_324_1309
*6810 FILLER_324_1313
*6811 FILLER_324_1315
*6812 FILLER_324_1317
*6813 FILLER_324_1329
*6814 FILLER_324_133
*6815 FILLER_324_1341
*6816 FILLER_324_1353
*6817 FILLER_324_1365
*6818 FILLER_324_1369
*6819 FILLER_324_137
*6820 FILLER_324_1371
*6821 FILLER_324_1373
*6822 FILLER_324_1385
*6823 FILLER_324_139
*6824 FILLER_324_1397
*6825 FILLER_324_1409
*6826 FILLER_324_141
*6827 FILLER_324_1421
*6828 FILLER_324_1425
*6829 FILLER_324_1427
*6830 FILLER_324_1429
*6831 FILLER_324_1441
*6832 FILLER_324_1453
*6833 FILLER_324_1465
*6834 FILLER_324_1477
*6835 FILLER_324_1481
*6836 FILLER_324_1483
*6837 FILLER_324_1485
*6838 FILLER_324_1497
*6839 FILLER_324_15
*6840 FILLER_324_1505
*6841 FILLER_324_153
*6842 FILLER_324_165
*6843 FILLER_324_177
*6844 FILLER_324_189
*6845 FILLER_324_193
*6846 FILLER_324_195
*6847 FILLER_324_197
*6848 FILLER_324_209
*6849 FILLER_324_221
*6850 FILLER_324_233
*6851 FILLER_324_245
*6852 FILLER_324_249
*6853 FILLER_324_251
*6854 FILLER_324_253
*6855 FILLER_324_265
*6856 FILLER_324_27
*6857 FILLER_324_277
*6858 FILLER_324_289
*6859 FILLER_324_29
*6860 FILLER_324_3
*6861 FILLER_324_301
*6862 FILLER_324_305
*6863 FILLER_324_307
*6864 FILLER_324_309
*6865 FILLER_324_321
*6866 FILLER_324_333
*6867 FILLER_324_345
*6868 FILLER_324_357
*6869 FILLER_324_361
*6870 FILLER_324_363
*6871 FILLER_324_365
*6872 FILLER_324_377
*6873 FILLER_324_389
*6874 FILLER_324_401
*6875 FILLER_324_41
*6876 FILLER_324_413
*6877 FILLER_324_417
*6878 FILLER_324_419
*6879 FILLER_324_421
*6880 FILLER_324_433
*6881 FILLER_324_445
*6882 FILLER_324_457
*6883 FILLER_324_469
*6884 FILLER_324_473
*6885 FILLER_324_475
*6886 FILLER_324_477
*6887 FILLER_324_489
*6888 FILLER_324_501
*6889 FILLER_324_513
*6890 FILLER_324_525
*6891 FILLER_324_529
*6892 FILLER_324_53
*6893 FILLER_324_531
*6894 FILLER_324_533
*6895 FILLER_324_545
*6896 FILLER_324_557
*6897 FILLER_324_569
*6898 FILLER_324_581
*6899 FILLER_324_585
*6900 FILLER_324_587
*6901 FILLER_324_589
*6902 FILLER_324_601
*6903 FILLER_324_613
*6904 FILLER_324_625
*6905 FILLER_324_637
*6906 FILLER_324_641
*6907 FILLER_324_643
*6908 FILLER_324_645
*6909 FILLER_324_65
*6910 FILLER_324_657
*6911 FILLER_324_669
*6912 FILLER_324_681
*6913 FILLER_324_693
*6914 FILLER_324_697
*6915 FILLER_324_699
*6916 FILLER_324_701
*6917 FILLER_324_713
*6918 FILLER_324_725
*6919 FILLER_324_737
*6920 FILLER_324_749
*6921 FILLER_324_753
*6922 FILLER_324_755
*6923 FILLER_324_757
*6924 FILLER_324_769
*6925 FILLER_324_77
*6926 FILLER_324_781
*6927 FILLER_324_793
*6928 FILLER_324_805
*6929 FILLER_324_809
*6930 FILLER_324_81
*6931 FILLER_324_811
*6932 FILLER_324_813
*6933 FILLER_324_825
*6934 FILLER_324_83
*6935 FILLER_324_837
*6936 FILLER_324_849
*6937 FILLER_324_85
*6938 FILLER_324_861
*6939 FILLER_324_865
*6940 FILLER_324_867
*6941 FILLER_324_869
*6942 FILLER_324_881
*6943 FILLER_324_893
*6944 FILLER_324_905
*6945 FILLER_324_917
*6946 FILLER_324_921
*6947 FILLER_324_923
*6948 FILLER_324_925
*6949 FILLER_324_937
*6950 FILLER_324_949
*6951 FILLER_324_961
*6952 FILLER_324_97
*6953 FILLER_324_973
*6954 FILLER_324_977
*6955 FILLER_324_979
*6956 FILLER_324_981
*6957 FILLER_324_993
*6958 FILLER_325_1001
*6959 FILLER_325_1005
*6960 FILLER_325_1007
*6961 FILLER_325_1009
*6962 FILLER_325_1021
*6963 FILLER_325_1033
*6964 FILLER_325_1045
*6965 FILLER_325_105
*6966 FILLER_325_1057
*6967 FILLER_325_1061
*6968 FILLER_325_1063
*6969 FILLER_325_1065
*6970 FILLER_325_1077
*6971 FILLER_325_1089
*6972 FILLER_325_109
*6973 FILLER_325_1101
*6974 FILLER_325_111
*6975 FILLER_325_1113
*6976 FILLER_325_1117
*6977 FILLER_325_1119
*6978 FILLER_325_1121
*6979 FILLER_325_113
*6980 FILLER_325_1133
*6981 FILLER_325_1145
*6982 FILLER_325_1157
*6983 FILLER_325_1169
*6984 FILLER_325_1173
*6985 FILLER_325_1175
*6986 FILLER_325_1177
*6987 FILLER_325_1189
*6988 FILLER_325_1201
*6989 FILLER_325_1213
*6990 FILLER_325_1225
*6991 FILLER_325_1229
*6992 FILLER_325_1231
*6993 FILLER_325_1233
*6994 FILLER_325_1245
*6995 FILLER_325_125
*6996 FILLER_325_1257
*6997 FILLER_325_1269
*6998 FILLER_325_1281
*6999 FILLER_325_1285
*7000 FILLER_325_1287
*7001 FILLER_325_1289
*7002 FILLER_325_1301
*7003 FILLER_325_1313
*7004 FILLER_325_1325
*7005 FILLER_325_1337
*7006 FILLER_325_1341
*7007 FILLER_325_1343
*7008 FILLER_325_1345
*7009 FILLER_325_1357
*7010 FILLER_325_1369
*7011 FILLER_325_137
*7012 FILLER_325_1381
*7013 FILLER_325_1393
*7014 FILLER_325_1397
*7015 FILLER_325_1399
*7016 FILLER_325_1401
*7017 FILLER_325_1413
*7018 FILLER_325_1425
*7019 FILLER_325_1437
*7020 FILLER_325_1449
*7021 FILLER_325_1453
*7022 FILLER_325_1455
*7023 FILLER_325_1457
*7024 FILLER_325_1469
*7025 FILLER_325_1481
*7026 FILLER_325_149
*7027 FILLER_325_1493
*7028 FILLER_325_15
*7029 FILLER_325_1505
*7030 FILLER_325_161
*7031 FILLER_325_165
*7032 FILLER_325_167
*7033 FILLER_325_169
*7034 FILLER_325_181
*7035 FILLER_325_193
*7036 FILLER_325_205
*7037 FILLER_325_217
*7038 FILLER_325_221
*7039 FILLER_325_223
*7040 FILLER_325_225
*7041 FILLER_325_237
*7042 FILLER_325_249
*7043 FILLER_325_261
*7044 FILLER_325_27
*7045 FILLER_325_273
*7046 FILLER_325_277
*7047 FILLER_325_279
*7048 FILLER_325_281
*7049 FILLER_325_293
*7050 FILLER_325_3
*7051 FILLER_325_305
*7052 FILLER_325_317
*7053 FILLER_325_329
*7054 FILLER_325_333
*7055 FILLER_325_335
*7056 FILLER_325_337
*7057 FILLER_325_349
*7058 FILLER_325_361
*7059 FILLER_325_373
*7060 FILLER_325_385
*7061 FILLER_325_389
*7062 FILLER_325_39
*7063 FILLER_325_391
*7064 FILLER_325_393
*7065 FILLER_325_405
*7066 FILLER_325_417
*7067 FILLER_325_429
*7068 FILLER_325_441
*7069 FILLER_325_445
*7070 FILLER_325_447
*7071 FILLER_325_449
*7072 FILLER_325_461
*7073 FILLER_325_473
*7074 FILLER_325_485
*7075 FILLER_325_497
*7076 FILLER_325_501
*7077 FILLER_325_503
*7078 FILLER_325_505
*7079 FILLER_325_51
*7080 FILLER_325_517
*7081 FILLER_325_529
*7082 FILLER_325_541
*7083 FILLER_325_55
*7084 FILLER_325_553
*7085 FILLER_325_557
*7086 FILLER_325_559
*7087 FILLER_325_561
*7088 FILLER_325_57
*7089 FILLER_325_573
*7090 FILLER_325_585
*7091 FILLER_325_597
*7092 FILLER_325_609
*7093 FILLER_325_613
*7094 FILLER_325_615
*7095 FILLER_325_617
*7096 FILLER_325_629
*7097 FILLER_325_641
*7098 FILLER_325_653
*7099 FILLER_325_665
*7100 FILLER_325_669
*7101 FILLER_325_671
*7102 FILLER_325_673
*7103 FILLER_325_685
*7104 FILLER_325_69
*7105 FILLER_325_697
*7106 FILLER_325_709
*7107 FILLER_325_721
*7108 FILLER_325_725
*7109 FILLER_325_727
*7110 FILLER_325_729
*7111 FILLER_325_741
*7112 FILLER_325_753
*7113 FILLER_325_765
*7114 FILLER_325_777
*7115 FILLER_325_781
*7116 FILLER_325_783
*7117 FILLER_325_785
*7118 FILLER_325_797
*7119 FILLER_325_809
*7120 FILLER_325_81
*7121 FILLER_325_821
*7122 FILLER_325_833
*7123 FILLER_325_837
*7124 FILLER_325_839
*7125 FILLER_325_841
*7126 FILLER_325_853
*7127 FILLER_325_865
*7128 FILLER_325_877
*7129 FILLER_325_889
*7130 FILLER_325_893
*7131 FILLER_325_895
*7132 FILLER_325_897
*7133 FILLER_325_909
*7134 FILLER_325_921
*7135 FILLER_325_93
*7136 FILLER_325_933
*7137 FILLER_325_945
*7138 FILLER_325_949
*7139 FILLER_325_951
*7140 FILLER_325_953
*7141 FILLER_325_965
*7142 FILLER_325_977
*7143 FILLER_325_989
*7144 FILLER_326_1005
*7145 FILLER_326_1017
*7146 FILLER_326_1029
*7147 FILLER_326_1033
*7148 FILLER_326_1035
*7149 FILLER_326_1037
*7150 FILLER_326_1049
*7151 FILLER_326_1061
*7152 FILLER_326_1073
*7153 FILLER_326_1085
*7154 FILLER_326_1089
*7155 FILLER_326_109
*7156 FILLER_326_1091
*7157 FILLER_326_1093
*7158 FILLER_326_1105
*7159 FILLER_326_1117
*7160 FILLER_326_1129
*7161 FILLER_326_1141
*7162 FILLER_326_1145
*7163 FILLER_326_1147
*7164 FILLER_326_1149
*7165 FILLER_326_1161
*7166 FILLER_326_1173
*7167 FILLER_326_1185
*7168 FILLER_326_1197
*7169 FILLER_326_1201
*7170 FILLER_326_1203
*7171 FILLER_326_1205
*7172 FILLER_326_121
*7173 FILLER_326_1217
*7174 FILLER_326_1229
*7175 FILLER_326_1241
*7176 FILLER_326_1253
*7177 FILLER_326_1257
*7178 FILLER_326_1259
*7179 FILLER_326_1261
*7180 FILLER_326_1273
*7181 FILLER_326_1285
*7182 FILLER_326_1297
*7183 FILLER_326_1309
*7184 FILLER_326_1313
*7185 FILLER_326_1315
*7186 FILLER_326_1317
*7187 FILLER_326_1329
*7188 FILLER_326_133
*7189 FILLER_326_1341
*7190 FILLER_326_1353
*7191 FILLER_326_1365
*7192 FILLER_326_1369
*7193 FILLER_326_137
*7194 FILLER_326_1371
*7195 FILLER_326_1373
*7196 FILLER_326_1385
*7197 FILLER_326_139
*7198 FILLER_326_1397
*7199 FILLER_326_1409
*7200 FILLER_326_141
*7201 FILLER_326_1421
*7202 FILLER_326_1425
*7203 FILLER_326_1427
*7204 FILLER_326_1429
*7205 FILLER_326_1441
*7206 FILLER_326_1453
*7207 FILLER_326_1465
*7208 FILLER_326_1477
*7209 FILLER_326_1481
*7210 FILLER_326_1483
*7211 FILLER_326_1485
*7212 FILLER_326_1497
*7213 FILLER_326_15
*7214 FILLER_326_1505
*7215 FILLER_326_153
*7216 FILLER_326_165
*7217 FILLER_326_177
*7218 FILLER_326_189
*7219 FILLER_326_193
*7220 FILLER_326_195
*7221 FILLER_326_197
*7222 FILLER_326_209
*7223 FILLER_326_221
*7224 FILLER_326_233
*7225 FILLER_326_245
*7226 FILLER_326_249
*7227 FILLER_326_251
*7228 FILLER_326_253
*7229 FILLER_326_265
*7230 FILLER_326_27
*7231 FILLER_326_277
*7232 FILLER_326_289
*7233 FILLER_326_29
*7234 FILLER_326_3
*7235 FILLER_326_301
*7236 FILLER_326_305
*7237 FILLER_326_307
*7238 FILLER_326_309
*7239 FILLER_326_321
*7240 FILLER_326_333
*7241 FILLER_326_345
*7242 FILLER_326_357
*7243 FILLER_326_361
*7244 FILLER_326_363
*7245 FILLER_326_365
*7246 FILLER_326_377
*7247 FILLER_326_389
*7248 FILLER_326_401
*7249 FILLER_326_41
*7250 FILLER_326_413
*7251 FILLER_326_417
*7252 FILLER_326_419
*7253 FILLER_326_421
*7254 FILLER_326_433
*7255 FILLER_326_445
*7256 FILLER_326_457
*7257 FILLER_326_469
*7258 FILLER_326_473
*7259 FILLER_326_475
*7260 FILLER_326_477
*7261 FILLER_326_489
*7262 FILLER_326_501
*7263 FILLER_326_513
*7264 FILLER_326_525
*7265 FILLER_326_529
*7266 FILLER_326_53
*7267 FILLER_326_531
*7268 FILLER_326_533
*7269 FILLER_326_545
*7270 FILLER_326_557
*7271 FILLER_326_569
*7272 FILLER_326_581
*7273 FILLER_326_585
*7274 FILLER_326_587
*7275 FILLER_326_589
*7276 FILLER_326_601
*7277 FILLER_326_613
*7278 FILLER_326_625
*7279 FILLER_326_637
*7280 FILLER_326_641
*7281 FILLER_326_643
*7282 FILLER_326_645
*7283 FILLER_326_65
*7284 FILLER_326_657
*7285 FILLER_326_669
*7286 FILLER_326_681
*7287 FILLER_326_693
*7288 FILLER_326_697
*7289 FILLER_326_699
*7290 FILLER_326_701
*7291 FILLER_326_713
*7292 FILLER_326_725
*7293 FILLER_326_737
*7294 FILLER_326_749
*7295 FILLER_326_753
*7296 FILLER_326_755
*7297 FILLER_326_757
*7298 FILLER_326_769
*7299 FILLER_326_77
*7300 FILLER_326_781
*7301 FILLER_326_793
*7302 FILLER_326_805
*7303 FILLER_326_809
*7304 FILLER_326_81
*7305 FILLER_326_811
*7306 FILLER_326_813
*7307 FILLER_326_825
*7308 FILLER_326_83
*7309 FILLER_326_837
*7310 FILLER_326_849
*7311 FILLER_326_85
*7312 FILLER_326_861
*7313 FILLER_326_865
*7314 FILLER_326_867
*7315 FILLER_326_869
*7316 FILLER_326_881
*7317 FILLER_326_893
*7318 FILLER_326_905
*7319 FILLER_326_917
*7320 FILLER_326_921
*7321 FILLER_326_923
*7322 FILLER_326_925
*7323 FILLER_326_937
*7324 FILLER_326_949
*7325 FILLER_326_961
*7326 FILLER_326_97
*7327 FILLER_326_973
*7328 FILLER_326_977
*7329 FILLER_326_979
*7330 FILLER_326_981
*7331 FILLER_326_993
*7332 FILLER_327_1005
*7333 FILLER_327_1007
*7334 FILLER_327_1009
*7335 FILLER_327_1021
*7336 FILLER_327_1033
*7337 FILLER_327_1035
*7338 FILLER_327_1037
*7339 FILLER_327_1049
*7340 FILLER_327_1061
*7341 FILLER_327_1063
*7342 FILLER_327_1065
*7343 FILLER_327_1077
*7344 FILLER_327_1089
*7345 FILLER_327_109
*7346 FILLER_327_1091
*7347 FILLER_327_1093
*7348 FILLER_327_1105
*7349 FILLER_327_111
*7350 FILLER_327_1117
*7351 FILLER_327_1119
*7352 FILLER_327_1121
*7353 FILLER_327_113
*7354 FILLER_327_1133
*7355 FILLER_327_1145
*7356 FILLER_327_1147
*7357 FILLER_327_1149
*7358 FILLER_327_1161
*7359 FILLER_327_1173
*7360 FILLER_327_1175
*7361 FILLER_327_1177
*7362 FILLER_327_1189
*7363 FILLER_327_1201
*7364 FILLER_327_1203
*7365 FILLER_327_1205
*7366 FILLER_327_1217
*7367 FILLER_327_1229
*7368 FILLER_327_1231
*7369 FILLER_327_1233
*7370 FILLER_327_1245
*7371 FILLER_327_125
*7372 FILLER_327_1257
*7373 FILLER_327_1259
*7374 FILLER_327_1261
*7375 FILLER_327_1273
*7376 FILLER_327_1285
*7377 FILLER_327_1287
*7378 FILLER_327_1289
*7379 FILLER_327_1301
*7380 FILLER_327_1313
*7381 FILLER_327_1315
*7382 FILLER_327_1317
*7383 FILLER_327_1329
*7384 FILLER_327_1341
*7385 FILLER_327_1343
*7386 FILLER_327_1345
*7387 FILLER_327_1357
*7388 FILLER_327_1369
*7389 FILLER_327_137
*7390 FILLER_327_1371
*7391 FILLER_327_1373
*7392 FILLER_327_1385
*7393 FILLER_327_139
*7394 FILLER_327_1397
*7395 FILLER_327_1399
*7396 FILLER_327_1401
*7397 FILLER_327_141
*7398 FILLER_327_1413
*7399 FILLER_327_1425
*7400 FILLER_327_1427
*7401 FILLER_327_1429
*7402 FILLER_327_1441
*7403 FILLER_327_1453
*7404 FILLER_327_1455
*7405 FILLER_327_1457
*7406 FILLER_327_1469
*7407 FILLER_327_1481
*7408 FILLER_327_1483
*7409 FILLER_327_1485
*7410 FILLER_327_1497
*7411 FILLER_327_15
*7412 FILLER_327_1505
*7413 FILLER_327_153
*7414 FILLER_327_165
*7415 FILLER_327_167
*7416 FILLER_327_169
*7417 FILLER_327_181
*7418 FILLER_327_193
*7419 FILLER_327_195
*7420 FILLER_327_197
*7421 FILLER_327_209
*7422 FILLER_327_221
*7423 FILLER_327_223
*7424 FILLER_327_225
*7425 FILLER_327_237
*7426 FILLER_327_249
*7427 FILLER_327_251
*7428 FILLER_327_253
*7429 FILLER_327_265
*7430 FILLER_327_27
*7431 FILLER_327_277
*7432 FILLER_327_279
*7433 FILLER_327_281
*7434 FILLER_327_29
*7435 FILLER_327_293
*7436 FILLER_327_3
*7437 FILLER_327_305
*7438 FILLER_327_307
*7439 FILLER_327_309
*7440 FILLER_327_321
*7441 FILLER_327_333
*7442 FILLER_327_335
*7443 FILLER_327_337
*7444 FILLER_327_349
*7445 FILLER_327_361
*7446 FILLER_327_363
*7447 FILLER_327_365
*7448 FILLER_327_377
*7449 FILLER_327_389
*7450 FILLER_327_391
*7451 FILLER_327_393
*7452 FILLER_327_405
*7453 FILLER_327_41
*7454 FILLER_327_417
*7455 FILLER_327_419
*7456 FILLER_327_421
*7457 FILLER_327_433
*7458 FILLER_327_445
*7459 FILLER_327_447
*7460 FILLER_327_449
*7461 FILLER_327_461
*7462 FILLER_327_473
*7463 FILLER_327_475
*7464 FILLER_327_477
*7465 FILLER_327_489
*7466 FILLER_327_501
*7467 FILLER_327_503
*7468 FILLER_327_505
*7469 FILLER_327_517
*7470 FILLER_327_529
*7471 FILLER_327_53
*7472 FILLER_327_531
*7473 FILLER_327_533
*7474 FILLER_327_545
*7475 FILLER_327_55
*7476 FILLER_327_557
*7477 FILLER_327_559
*7478 FILLER_327_561
*7479 FILLER_327_57
*7480 FILLER_327_573
*7481 FILLER_327_585
*7482 FILLER_327_587
*7483 FILLER_327_589
*7484 FILLER_327_601
*7485 FILLER_327_613
*7486 FILLER_327_615
*7487 FILLER_327_617
*7488 FILLER_327_629
*7489 FILLER_327_641
*7490 FILLER_327_643
*7491 FILLER_327_645
*7492 FILLER_327_657
*7493 FILLER_327_669
*7494 FILLER_327_671
*7495 FILLER_327_673
*7496 FILLER_327_685
*7497 FILLER_327_69
*7498 FILLER_327_697
*7499 FILLER_327_699
*7500 FILLER_327_701
*7501 FILLER_327_713
*7502 FILLER_327_725
*7503 FILLER_327_727
*7504 FILLER_327_729
*7505 FILLER_327_741
*7506 FILLER_327_753
*7507 FILLER_327_755
*7508 FILLER_327_757
*7509 FILLER_327_769
*7510 FILLER_327_781
*7511 FILLER_327_783
*7512 FILLER_327_785
*7513 FILLER_327_797
*7514 FILLER_327_809
*7515 FILLER_327_81
*7516 FILLER_327_811
*7517 FILLER_327_813
*7518 FILLER_327_825
*7519 FILLER_327_83
*7520 FILLER_327_837
*7521 FILLER_327_839
*7522 FILLER_327_841
*7523 FILLER_327_85
*7524 FILLER_327_853
*7525 FILLER_327_865
*7526 FILLER_327_867
*7527 FILLER_327_869
*7528 FILLER_327_881
*7529 FILLER_327_893
*7530 FILLER_327_895
*7531 FILLER_327_897
*7532 FILLER_327_909
*7533 FILLER_327_921
*7534 FILLER_327_923
*7535 FILLER_327_925
*7536 FILLER_327_937
*7537 FILLER_327_949
*7538 FILLER_327_951
*7539 FILLER_327_953
*7540 FILLER_327_965
*7541 FILLER_327_97
*7542 FILLER_327_977
*7543 FILLER_327_979
*7544 FILLER_327_981
*7545 FILLER_327_993
*7546 FILLER_32_1464
*7547 FILLER_32_1476
*7548 FILLER_32_1488
*7549 FILLER_32_1490
*7550 FILLER_32_1502
*7551 FILLER_32_1506
*7552 FILLER_32_703
*7553 FILLER_32_715
*7554 FILLER_32_727
*7555 FILLER_32_729
*7556 FILLER_32_741
*7557 FILLER_32_745
*7558 FILLER_33_1464
*7559 FILLER_33_1476
*7560 FILLER_33_1488
*7561 FILLER_33_1500
*7562 FILLER_33_1504
*7563 FILLER_33_1506
*7564 FILLER_33_703
*7565 FILLER_33_715
*7566 FILLER_33_727
*7567 FILLER_33_742
*7568 FILLER_33_746
*7569 FILLER_34_1464
*7570 FILLER_34_1476
*7571 FILLER_34_1488
*7572 FILLER_34_1490
*7573 FILLER_34_1502
*7574 FILLER_34_1506
*7575 FILLER_34_703
*7576 FILLER_34_715
*7577 FILLER_34_727
*7578 FILLER_34_729
*7579 FILLER_34_741
*7580 FILLER_34_745
*7581 FILLER_35_1464
*7582 FILLER_35_1476
*7583 FILLER_35_1488
*7584 FILLER_35_1500
*7585 FILLER_35_1504
*7586 FILLER_35_1506
*7587 FILLER_35_703
*7588 FILLER_35_715
*7589 FILLER_35_727
*7590 FILLER_35_739
*7591 FILLER_36_1464
*7592 FILLER_36_1476
*7593 FILLER_36_1488
*7594 FILLER_36_1490
*7595 FILLER_36_1502
*7596 FILLER_36_1506
*7597 FILLER_36_703
*7598 FILLER_36_715
*7599 FILLER_36_727
*7600 FILLER_36_729
*7601 FILLER_36_741
*7602 FILLER_36_745
*7603 FILLER_37_1464
*7604 FILLER_37_1476
*7605 FILLER_37_1488
*7606 FILLER_37_1500
*7607 FILLER_37_1504
*7608 FILLER_37_1506
*7609 FILLER_37_719
*7610 FILLER_37_731
*7611 FILLER_38_1464
*7612 FILLER_38_1476
*7613 FILLER_38_1488
*7614 FILLER_38_1490
*7615 FILLER_38_1502
*7616 FILLER_38_1506
*7617 FILLER_38_703
*7618 FILLER_38_715
*7619 FILLER_38_727
*7620 FILLER_38_729
*7621 FILLER_38_733
*7622 FILLER_38_735
*7623 FILLER_39_1464
*7624 FILLER_39_1476
*7625 FILLER_39_1488
*7626 FILLER_39_1500
*7627 FILLER_39_1504
*7628 FILLER_39_1506
*7629 FILLER_39_703
*7630 FILLER_39_715
*7631 FILLER_39_719
*7632 FILLER_39_741
*7633 FILLER_39_745
*7634 FILLER_3_1005
*7635 FILLER_3_1007
*7636 FILLER_3_1009
*7637 FILLER_3_1013
*7638 FILLER_3_1023
*7639 FILLER_3_1035
*7640 FILLER_3_1047
*7641 FILLER_3_105
*7642 FILLER_3_1051
*7643 FILLER_3_1065
*7644 FILLER_3_1077
*7645 FILLER_3_109
*7646 FILLER_3_1096
*7647 FILLER_3_1107
*7648 FILLER_3_111
*7649 FILLER_3_1119
*7650 FILLER_3_1121
*7651 FILLER_3_1129
*7652 FILLER_3_113
*7653 FILLER_3_1142
*7654 FILLER_3_1154
*7655 FILLER_3_1156
*7656 FILLER_3_1168
*7657 FILLER_3_1177
*7658 FILLER_3_1191
*7659 FILLER_3_1203
*7660 FILLER_3_1211
*7661 FILLER_3_1223
*7662 FILLER_3_1231
*7663 FILLER_3_1235
*7664 FILLER_3_1247
*7665 FILLER_3_125
*7666 FILLER_3_1259
*7667 FILLER_3_1271
*7668 FILLER_3_1283
*7669 FILLER_3_1287
*7670 FILLER_3_1289
*7671 FILLER_3_1301
*7672 FILLER_3_1313
*7673 FILLER_3_1325
*7674 FILLER_3_1337
*7675 FILLER_3_1341
*7676 FILLER_3_1343
*7677 FILLER_3_1345
*7678 FILLER_3_1349
*7679 FILLER_3_1361
*7680 FILLER_3_137
*7681 FILLER_3_1373
*7682 FILLER_3_1385
*7683 FILLER_3_1397
*7684 FILLER_3_1399
*7685 FILLER_3_1401
*7686 FILLER_3_1413
*7687 FILLER_3_1425
*7688 FILLER_3_1437
*7689 FILLER_3_1449
*7690 FILLER_3_1453
*7691 FILLER_3_1455
*7692 FILLER_3_1457
*7693 FILLER_3_1469
*7694 FILLER_3_1481
*7695 FILLER_3_149
*7696 FILLER_3_1493
*7697 FILLER_3_15
*7698 FILLER_3_1505
*7699 FILLER_3_161
*7700 FILLER_3_165
*7701 FILLER_3_167
*7702 FILLER_3_169
*7703 FILLER_3_181
*7704 FILLER_3_193
*7705 FILLER_3_205
*7706 FILLER_3_217
*7707 FILLER_3_221
*7708 FILLER_3_223
*7709 FILLER_3_225
*7710 FILLER_3_237
*7711 FILLER_3_249
*7712 FILLER_3_261
*7713 FILLER_3_27
*7714 FILLER_3_273
*7715 FILLER_3_277
*7716 FILLER_3_279
*7717 FILLER_3_281
*7718 FILLER_3_293
*7719 FILLER_3_3
*7720 FILLER_3_305
*7721 FILLER_3_317
*7722 FILLER_3_329
*7723 FILLER_3_333
*7724 FILLER_3_335
*7725 FILLER_3_337
*7726 FILLER_3_349
*7727 FILLER_3_361
*7728 FILLER_3_373
*7729 FILLER_3_385
*7730 FILLER_3_389
*7731 FILLER_3_39
*7732 FILLER_3_391
*7733 FILLER_3_393
*7734 FILLER_3_405
*7735 FILLER_3_417
*7736 FILLER_3_429
*7737 FILLER_3_441
*7738 FILLER_3_445
*7739 FILLER_3_447
*7740 FILLER_3_449
*7741 FILLER_3_461
*7742 FILLER_3_473
*7743 FILLER_3_485
*7744 FILLER_3_497
*7745 FILLER_3_501
*7746 FILLER_3_503
*7747 FILLER_3_505
*7748 FILLER_3_51
*7749 FILLER_3_517
*7750 FILLER_3_529
*7751 FILLER_3_541
*7752 FILLER_3_55
*7753 FILLER_3_553
*7754 FILLER_3_557
*7755 FILLER_3_559
*7756 FILLER_3_569
*7757 FILLER_3_57
*7758 FILLER_3_580
*7759 FILLER_3_582
*7760 FILLER_3_604
*7761 FILLER_3_606
*7762 FILLER_3_617
*7763 FILLER_3_621
*7764 FILLER_3_632
*7765 FILLER_3_636
*7766 FILLER_3_638
*7767 FILLER_3_648
*7768 FILLER_3_673
*7769 FILLER_3_685
*7770 FILLER_3_69
*7771 FILLER_3_697
*7772 FILLER_3_706
*7773 FILLER_3_716
*7774 FILLER_3_729
*7775 FILLER_3_731
*7776 FILLER_3_740
*7777 FILLER_3_750
*7778 FILLER_3_766
*7779 FILLER_3_778
*7780 FILLER_3_782
*7781 FILLER_3_785
*7782 FILLER_3_797
*7783 FILLER_3_809
*7784 FILLER_3_81
*7785 FILLER_3_817
*7786 FILLER_3_827
*7787 FILLER_3_839
*7788 FILLER_3_873
*7789 FILLER_3_877
*7790 FILLER_3_897
*7791 FILLER_3_909
*7792 FILLER_3_913
*7793 FILLER_3_923
*7794 FILLER_3_93
*7795 FILLER_3_935
*7796 FILLER_3_945
*7797 FILLER_3_949
*7798 FILLER_3_951
*7799 FILLER_3_953
*7800 FILLER_3_956
*7801 FILLER_3_968
*7802 FILLER_3_980
*7803 FILLER_3_982
*7804 FILLER_3_985
*7805 FILLER_3_997
*7806 FILLER_40_1466
*7807 FILLER_40_1478
*7808 FILLER_40_1486
*7809 FILLER_40_1488
*7810 FILLER_40_1490
*7811 FILLER_40_1502
*7812 FILLER_40_1506
*7813 FILLER_40_703
*7814 FILLER_40_707
*7815 FILLER_40_737
*7816 FILLER_41_1473
*7817 FILLER_41_1485
*7818 FILLER_41_1497
*7819 FILLER_41_1505
*7820 FILLER_41_703
*7821 FILLER_41_715
*7822 FILLER_42_1464
*7823 FILLER_42_1476
*7824 FILLER_42_1488
*7825 FILLER_42_1490
*7826 FILLER_42_1502
*7827 FILLER_42_1506
*7828 FILLER_42_703
*7829 FILLER_42_711
*7830 FILLER_42_713
*7831 FILLER_43_1464
*7832 FILLER_43_1476
*7833 FILLER_43_1488
*7834 FILLER_43_1500
*7835 FILLER_43_1504
*7836 FILLER_43_1506
*7837 FILLER_43_703
*7838 FILLER_43_715
*7839 FILLER_43_727
*7840 FILLER_43_731
*7841 FILLER_44_1464
*7842 FILLER_44_1476
*7843 FILLER_44_1488
*7844 FILLER_44_1490
*7845 FILLER_44_1502
*7846 FILLER_44_1506
*7847 FILLER_44_703
*7848 FILLER_44_715
*7849 FILLER_44_727
*7850 FILLER_44_729
*7851 FILLER_44_731
*7852 FILLER_44_734
*7853 FILLER_44_742
*7854 FILLER_44_744
*7855 FILLER_45_1464
*7856 FILLER_45_1476
*7857 FILLER_45_1488
*7858 FILLER_45_1500
*7859 FILLER_45_1504
*7860 FILLER_45_1506
*7861 FILLER_45_703
*7862 FILLER_45_715
*7863 FILLER_45_727
*7864 FILLER_45_739
*7865 FILLER_46_1464
*7866 FILLER_46_1476
*7867 FILLER_46_1488
*7868 FILLER_46_1490
*7869 FILLER_46_1502
*7870 FILLER_46_1506
*7871 FILLER_46_703
*7872 FILLER_46_715
*7873 FILLER_46_727
*7874 FILLER_46_729
*7875 FILLER_46_741
*7876 FILLER_46_745
*7877 FILLER_47_1464
*7878 FILLER_47_1476
*7879 FILLER_47_1488
*7880 FILLER_47_1500
*7881 FILLER_47_1504
*7882 FILLER_47_1506
*7883 FILLER_47_703
*7884 FILLER_47_715
*7885 FILLER_47_727
*7886 FILLER_47_739
*7887 FILLER_48_1464
*7888 FILLER_48_1476
*7889 FILLER_48_1488
*7890 FILLER_48_1490
*7891 FILLER_48_1502
*7892 FILLER_48_1506
*7893 FILLER_48_705
*7894 FILLER_48_717
*7895 FILLER_48_725
*7896 FILLER_48_727
*7897 FILLER_48_729
*7898 FILLER_49_1464
*7899 FILLER_49_1466
*7900 FILLER_49_1469
*7901 FILLER_49_1481
*7902 FILLER_49_1493
*7903 FILLER_49_1505
*7904 FILLER_49_705
*7905 FILLER_49_737
*7906 FILLER_49_740
*7907 FILLER_4_1004
*7908 FILLER_4_1016
*7909 FILLER_4_1020
*7910 FILLER_4_1032
*7911 FILLER_4_1037
*7912 FILLER_4_1049
*7913 FILLER_4_1055
*7914 FILLER_4_1067
*7915 FILLER_4_1075
*7916 FILLER_4_1077
*7917 FILLER_4_1080
*7918 FILLER_4_109
*7919 FILLER_4_1093
*7920 FILLER_4_1101
*7921 FILLER_4_1105
*7922 FILLER_4_1135
*7923 FILLER_4_1147
*7924 FILLER_4_1149
*7925 FILLER_4_1161
*7926 FILLER_4_1164
*7927 FILLER_4_1176
*7928 FILLER_4_1188
*7929 FILLER_4_1198
*7930 FILLER_4_1202
*7931 FILLER_4_1205
*7932 FILLER_4_1207
*7933 FILLER_4_121
*7934 FILLER_4_1210
*7935 FILLER_4_1222
*7936 FILLER_4_1230
*7937 FILLER_4_1232
*7938 FILLER_4_1235
*7939 FILLER_4_1247
*7940 FILLER_4_1259
*7941 FILLER_4_1261
*7942 FILLER_4_1273
*7943 FILLER_4_1285
*7944 FILLER_4_1297
*7945 FILLER_4_1309
*7946 FILLER_4_1313
*7947 FILLER_4_1315
*7948 FILLER_4_1317
*7949 FILLER_4_1329
*7950 FILLER_4_133
*7951 FILLER_4_1341
*7952 FILLER_4_1345
*7953 FILLER_4_1349
*7954 FILLER_4_1361
*7955 FILLER_4_1369
*7956 FILLER_4_137
*7957 FILLER_4_1371
*7958 FILLER_4_1373
*7959 FILLER_4_1385
*7960 FILLER_4_139
*7961 FILLER_4_1397
*7962 FILLER_4_1409
*7963 FILLER_4_141
*7964 FILLER_4_1421
*7965 FILLER_4_1425
*7966 FILLER_4_1427
*7967 FILLER_4_1429
*7968 FILLER_4_1441
*7969 FILLER_4_1453
*7970 FILLER_4_1465
*7971 FILLER_4_1477
*7972 FILLER_4_1481
*7973 FILLER_4_1483
*7974 FILLER_4_1485
*7975 FILLER_4_1497
*7976 FILLER_4_15
*7977 FILLER_4_1505
*7978 FILLER_4_153
*7979 FILLER_4_165
*7980 FILLER_4_177
*7981 FILLER_4_189
*7982 FILLER_4_193
*7983 FILLER_4_195
*7984 FILLER_4_197
*7985 FILLER_4_209
*7986 FILLER_4_221
*7987 FILLER_4_233
*7988 FILLER_4_245
*7989 FILLER_4_249
*7990 FILLER_4_251
*7991 FILLER_4_253
*7992 FILLER_4_265
*7993 FILLER_4_27
*7994 FILLER_4_277
*7995 FILLER_4_289
*7996 FILLER_4_29
*7997 FILLER_4_3
*7998 FILLER_4_301
*7999 FILLER_4_305
*8000 FILLER_4_307
*8001 FILLER_4_309
*8002 FILLER_4_321
*8003 FILLER_4_333
*8004 FILLER_4_345
*8005 FILLER_4_357
*8006 FILLER_4_361
*8007 FILLER_4_363
*8008 FILLER_4_365
*8009 FILLER_4_377
*8010 FILLER_4_389
*8011 FILLER_4_401
*8012 FILLER_4_41
*8013 FILLER_4_413
*8014 FILLER_4_417
*8015 FILLER_4_419
*8016 FILLER_4_421
*8017 FILLER_4_433
*8018 FILLER_4_445
*8019 FILLER_4_457
*8020 FILLER_4_469
*8021 FILLER_4_473
*8022 FILLER_4_475
*8023 FILLER_4_477
*8024 FILLER_4_489
*8025 FILLER_4_501
*8026 FILLER_4_513
*8027 FILLER_4_525
*8028 FILLER_4_529
*8029 FILLER_4_53
*8030 FILLER_4_531
*8031 FILLER_4_533
*8032 FILLER_4_545
*8033 FILLER_4_557
*8034 FILLER_4_563
*8035 FILLER_4_571
*8036 FILLER_4_598
*8037 FILLER_4_604
*8038 FILLER_4_608
*8039 FILLER_4_626
*8040 FILLER_4_630
*8041 FILLER_4_640
*8042 FILLER_4_645
*8043 FILLER_4_648
*8044 FILLER_4_65
*8045 FILLER_4_655
*8046 FILLER_4_665
*8047 FILLER_4_677
*8048 FILLER_4_689
*8049 FILLER_4_697
*8050 FILLER_4_699
*8051 FILLER_4_701
*8052 FILLER_4_713
*8053 FILLER_4_725
*8054 FILLER_4_737
*8055 FILLER_4_749
*8056 FILLER_4_753
*8057 FILLER_4_755
*8058 FILLER_4_757
*8059 FILLER_4_769
*8060 FILLER_4_77
*8061 FILLER_4_781
*8062 FILLER_4_793
*8063 FILLER_4_805
*8064 FILLER_4_809
*8065 FILLER_4_81
*8066 FILLER_4_811
*8067 FILLER_4_813
*8068 FILLER_4_825
*8069 FILLER_4_829
*8070 FILLER_4_83
*8071 FILLER_4_833
*8072 FILLER_4_845
*8073 FILLER_4_847
*8074 FILLER_4_85
*8075 FILLER_4_856
*8076 FILLER_4_869
*8077 FILLER_4_881
*8078 FILLER_4_883
*8079 FILLER_4_895
*8080 FILLER_4_907
*8081 FILLER_4_915
*8082 FILLER_4_918
*8083 FILLER_4_922
*8084 FILLER_4_925
*8085 FILLER_4_937
*8086 FILLER_4_948
*8087 FILLER_4_952
*8088 FILLER_4_963
*8089 FILLER_4_97
*8090 FILLER_4_975
*8091 FILLER_4_979
*8092 FILLER_4_981
*8093 FILLER_4_992
*8094 FILLER_50_1464
*8095 FILLER_50_1466
*8096 FILLER_50_1476
*8097 FILLER_50_1488
*8098 FILLER_50_1490
*8099 FILLER_50_1502
*8100 FILLER_50_1506
*8101 FILLER_50_727
*8102 FILLER_51_1464
*8103 FILLER_51_1476
*8104 FILLER_51_1488
*8105 FILLER_51_1500
*8106 FILLER_51_1504
*8107 FILLER_51_1506
*8108 FILLER_51_713
*8109 FILLER_51_721
*8110 FILLER_52_1464
*8111 FILLER_52_1476
*8112 FILLER_52_1488
*8113 FILLER_52_1490
*8114 FILLER_52_1502
*8115 FILLER_52_1506
*8116 FILLER_52_705
*8117 FILLER_52_709
*8118 FILLER_52_721
*8119 FILLER_52_725
*8120 FILLER_52_727
*8121 FILLER_52_729
*8122 FILLER_52_741
*8123 FILLER_53_1464
*8124 FILLER_53_1476
*8125 FILLER_53_1488
*8126 FILLER_53_1500
*8127 FILLER_53_1504
*8128 FILLER_53_1506
*8129 FILLER_53_724
*8130 FILLER_53_736
*8131 FILLER_53_744
*8132 FILLER_53_746
*8133 FILLER_54_1464
*8134 FILLER_54_1476
*8135 FILLER_54_1488
*8136 FILLER_54_1490
*8137 FILLER_54_1502
*8138 FILLER_54_1506
*8139 FILLER_54_703
*8140 FILLER_54_715
*8141 FILLER_54_727
*8142 FILLER_54_729
*8143 FILLER_54_741
*8144 FILLER_54_745
*8145 FILLER_55_1464
*8146 FILLER_55_1476
*8147 FILLER_55_1488
*8148 FILLER_55_1500
*8149 FILLER_55_1504
*8150 FILLER_55_1506
*8151 FILLER_55_703
*8152 FILLER_55_715
*8153 FILLER_55_727
*8154 FILLER_55_739
*8155 FILLER_56_1464
*8156 FILLER_56_1478
*8157 FILLER_56_1486
*8158 FILLER_56_1488
*8159 FILLER_56_1490
*8160 FILLER_56_1502
*8161 FILLER_56_1506
*8162 FILLER_56_703
*8163 FILLER_56_715
*8164 FILLER_56_727
*8165 FILLER_56_729
*8166 FILLER_56_741
*8167 FILLER_56_745
*8168 FILLER_57_1464
*8169 FILLER_57_1485
*8170 FILLER_57_1497
*8171 FILLER_57_1505
*8172 FILLER_57_703
*8173 FILLER_57_715
*8174 FILLER_57_727
*8175 FILLER_57_739
*8176 FILLER_58_1464
*8177 FILLER_58_1470
*8178 FILLER_58_1482
*8179 FILLER_58_1486
*8180 FILLER_58_1488
*8181 FILLER_58_1490
*8182 FILLER_58_1502
*8183 FILLER_58_1506
*8184 FILLER_58_703
*8185 FILLER_58_711
*8186 FILLER_58_714
*8187 FILLER_58_726
*8188 FILLER_58_729
*8189 FILLER_58_733
*8190 FILLER_58_744
*8191 FILLER_58_746
*8192 FILLER_59_1464
*8193 FILLER_59_1477
*8194 FILLER_59_1489
*8195 FILLER_59_1501
*8196 FILLER_59_1505
*8197 FILLER_59_703
*8198 FILLER_59_705
*8199 FILLER_59_727
*8200 FILLER_59_739
*8201 FILLER_5_1001
*8202 FILLER_5_1005
*8203 FILLER_5_1007
*8204 FILLER_5_1009
*8205 FILLER_5_1017
*8206 FILLER_5_1020
*8207 FILLER_5_1032
*8208 FILLER_5_1044
*8209 FILLER_5_105
*8210 FILLER_5_1052
*8211 FILLER_5_1055
*8212 FILLER_5_1063
*8213 FILLER_5_1065
*8214 FILLER_5_1077
*8215 FILLER_5_1080
*8216 FILLER_5_109
*8217 FILLER_5_1092
*8218 FILLER_5_1100
*8219 FILLER_5_1102
*8220 FILLER_5_1105
*8221 FILLER_5_111
*8222 FILLER_5_1117
*8223 FILLER_5_1119
*8224 FILLER_5_1121
*8225 FILLER_5_113
*8226 FILLER_5_1135
*8227 FILLER_5_1147
*8228 FILLER_5_1159
*8229 FILLER_5_1161
*8230 FILLER_5_1164
*8231 FILLER_5_1177
*8232 FILLER_5_1189
*8233 FILLER_5_1201
*8234 FILLER_5_1205
*8235 FILLER_5_1207
*8236 FILLER_5_1217
*8237 FILLER_5_1229
*8238 FILLER_5_1231
*8239 FILLER_5_1235
*8240 FILLER_5_1247
*8241 FILLER_5_125
*8242 FILLER_5_1259
*8243 FILLER_5_1271
*8244 FILLER_5_1283
*8245 FILLER_5_1287
*8246 FILLER_5_1289
*8247 FILLER_5_1301
*8248 FILLER_5_1313
*8249 FILLER_5_1325
*8250 FILLER_5_1337
*8251 FILLER_5_1341
*8252 FILLER_5_1343
*8253 FILLER_5_1345
*8254 FILLER_5_1349
*8255 FILLER_5_1361
*8256 FILLER_5_137
*8257 FILLER_5_1373
*8258 FILLER_5_1385
*8259 FILLER_5_1397
*8260 FILLER_5_1399
*8261 FILLER_5_1401
*8262 FILLER_5_1413
*8263 FILLER_5_1425
*8264 FILLER_5_1437
*8265 FILLER_5_1449
*8266 FILLER_5_1453
*8267 FILLER_5_1455
*8268 FILLER_5_1457
*8269 FILLER_5_1469
*8270 FILLER_5_1481
*8271 FILLER_5_149
*8272 FILLER_5_1493
*8273 FILLER_5_15
*8274 FILLER_5_1505
*8275 FILLER_5_161
*8276 FILLER_5_165
*8277 FILLER_5_167
*8278 FILLER_5_169
*8279 FILLER_5_181
*8280 FILLER_5_193
*8281 FILLER_5_205
*8282 FILLER_5_217
*8283 FILLER_5_221
*8284 FILLER_5_223
*8285 FILLER_5_225
*8286 FILLER_5_237
*8287 FILLER_5_249
*8288 FILLER_5_261
*8289 FILLER_5_27
*8290 FILLER_5_273
*8291 FILLER_5_277
*8292 FILLER_5_279
*8293 FILLER_5_281
*8294 FILLER_5_293
*8295 FILLER_5_3
*8296 FILLER_5_305
*8297 FILLER_5_317
*8298 FILLER_5_329
*8299 FILLER_5_333
*8300 FILLER_5_335
*8301 FILLER_5_337
*8302 FILLER_5_349
*8303 FILLER_5_361
*8304 FILLER_5_373
*8305 FILLER_5_385
*8306 FILLER_5_389
*8307 FILLER_5_39
*8308 FILLER_5_391
*8309 FILLER_5_393
*8310 FILLER_5_405
*8311 FILLER_5_417
*8312 FILLER_5_429
*8313 FILLER_5_441
*8314 FILLER_5_445
*8315 FILLER_5_447
*8316 FILLER_5_449
*8317 FILLER_5_461
*8318 FILLER_5_473
*8319 FILLER_5_485
*8320 FILLER_5_497
*8321 FILLER_5_501
*8322 FILLER_5_503
*8323 FILLER_5_505
*8324 FILLER_5_51
*8325 FILLER_5_517
*8326 FILLER_5_529
*8327 FILLER_5_541
*8328 FILLER_5_55
*8329 FILLER_5_553
*8330 FILLER_5_557
*8331 FILLER_5_559
*8332 FILLER_5_57
*8333 FILLER_5_570
*8334 FILLER_5_582
*8335 FILLER_5_586
*8336 FILLER_5_588
*8337 FILLER_5_599
*8338 FILLER_5_601
*8339 FILLER_5_611
*8340 FILLER_5_615
*8341 FILLER_5_617
*8342 FILLER_5_625
*8343 FILLER_5_627
*8344 FILLER_5_655
*8345 FILLER_5_665
*8346 FILLER_5_669
*8347 FILLER_5_671
*8348 FILLER_5_673
*8349 FILLER_5_685
*8350 FILLER_5_69
*8351 FILLER_5_697
*8352 FILLER_5_709
*8353 FILLER_5_721
*8354 FILLER_5_725
*8355 FILLER_5_727
*8356 FILLER_5_729
*8357 FILLER_5_741
*8358 FILLER_5_753
*8359 FILLER_5_765
*8360 FILLER_5_777
*8361 FILLER_5_781
*8362 FILLER_5_783
*8363 FILLER_5_785
*8364 FILLER_5_797
*8365 FILLER_5_809
*8366 FILLER_5_81
*8367 FILLER_5_821
*8368 FILLER_5_829
*8369 FILLER_5_841
*8370 FILLER_5_853
*8371 FILLER_5_865
*8372 FILLER_5_877
*8373 FILLER_5_889
*8374 FILLER_5_893
*8375 FILLER_5_895
*8376 FILLER_5_897
*8377 FILLER_5_909
*8378 FILLER_5_913
*8379 FILLER_5_915
*8380 FILLER_5_918
*8381 FILLER_5_93
*8382 FILLER_5_930
*8383 FILLER_5_942
*8384 FILLER_5_950
*8385 FILLER_5_953
*8386 FILLER_5_965
*8387 FILLER_5_977
*8388 FILLER_5_989
*8389 FILLER_60_1480
*8390 FILLER_60_1488
*8391 FILLER_60_1490
*8392 FILLER_60_1502
*8393 FILLER_60_1506
*8394 FILLER_60_703
*8395 FILLER_60_715
*8396 FILLER_60_723
*8397 FILLER_60_729
*8398 FILLER_61_1464
*8399 FILLER_61_1476
*8400 FILLER_61_1488
*8401 FILLER_61_1500
*8402 FILLER_61_1504
*8403 FILLER_61_1506
*8404 FILLER_61_703
*8405 FILLER_61_709
*8406 FILLER_61_721
*8407 FILLER_61_733
*8408 FILLER_61_741
*8409 FILLER_62_1482
*8410 FILLER_62_1486
*8411 FILLER_62_1488
*8412 FILLER_62_1490
*8413 FILLER_62_1502
*8414 FILLER_62_1506
*8415 FILLER_62_703
*8416 FILLER_62_716
*8417 FILLER_62_729
*8418 FILLER_62_741
*8419 FILLER_62_745
*8420 FILLER_63_1473
*8421 FILLER_63_1485
*8422 FILLER_63_1497
*8423 FILLER_63_1505
*8424 FILLER_63_703
*8425 FILLER_63_715
*8426 FILLER_63_727
*8427 FILLER_64_1480
*8428 FILLER_64_1488
*8429 FILLER_64_1490
*8430 FILLER_64_1502
*8431 FILLER_64_1506
*8432 FILLER_64_703
*8433 FILLER_64_711
*8434 FILLER_64_713
*8435 FILLER_64_716
*8436 FILLER_64_729
*8437 FILLER_64_741
*8438 FILLER_64_745
*8439 FILLER_65_1464
*8440 FILLER_65_1476
*8441 FILLER_65_1488
*8442 FILLER_65_1500
*8443 FILLER_65_1504
*8444 FILLER_65_1506
*8445 FILLER_65_703
*8446 FILLER_65_735
*8447 FILLER_66_1480
*8448 FILLER_66_1488
*8449 FILLER_66_1490
*8450 FILLER_66_1502
*8451 FILLER_66_1506
*8452 FILLER_66_703
*8453 FILLER_66_715
*8454 FILLER_66_727
*8455 FILLER_66_729
*8456 FILLER_66_741
*8457 FILLER_66_745
*8458 FILLER_67_1464
*8459 FILLER_67_1476
*8460 FILLER_67_1488
*8461 FILLER_67_1500
*8462 FILLER_67_1504
*8463 FILLER_67_1506
*8464 FILLER_67_703
*8465 FILLER_67_715
*8466 FILLER_67_727
*8467 FILLER_67_739
*8468 FILLER_68_1480
*8469 FILLER_68_1488
*8470 FILLER_68_1490
*8471 FILLER_68_1502
*8472 FILLER_68_1506
*8473 FILLER_68_703
*8474 FILLER_68_715
*8475 FILLER_68_727
*8476 FILLER_68_729
*8477 FILLER_68_741
*8478 FILLER_68_745
*8479 FILLER_69_1464
*8480 FILLER_69_1476
*8481 FILLER_69_1488
*8482 FILLER_69_1500
*8483 FILLER_69_1504
*8484 FILLER_69_1506
*8485 FILLER_69_703
*8486 FILLER_69_715
*8487 FILLER_69_727
*8488 FILLER_69_739
*8489 FILLER_6_1005
*8490 FILLER_6_1017
*8491 FILLER_6_1020
*8492 FILLER_6_1032
*8493 FILLER_6_1037
*8494 FILLER_6_1049
*8495 FILLER_6_1062
*8496 FILLER_6_1074
*8497 FILLER_6_1089
*8498 FILLER_6_109
*8499 FILLER_6_1091
*8500 FILLER_6_1093
*8501 FILLER_6_1112
*8502 FILLER_6_1124
*8503 FILLER_6_1128
*8504 FILLER_6_1130
*8505 FILLER_6_1142
*8506 FILLER_6_1146
*8507 FILLER_6_1149
*8508 FILLER_6_1157
*8509 FILLER_6_1159
*8510 FILLER_6_1171
*8511 FILLER_6_1183
*8512 FILLER_6_1195
*8513 FILLER_6_1203
*8514 FILLER_6_1205
*8515 FILLER_6_121
*8516 FILLER_6_1217
*8517 FILLER_6_1229
*8518 FILLER_6_1235
*8519 FILLER_6_1247
*8520 FILLER_6_1259
*8521 FILLER_6_1261
*8522 FILLER_6_1273
*8523 FILLER_6_1285
*8524 FILLER_6_1297
*8525 FILLER_6_1309
*8526 FILLER_6_1313
*8527 FILLER_6_1315
*8528 FILLER_6_1317
*8529 FILLER_6_1329
*8530 FILLER_6_133
*8531 FILLER_6_1341
*8532 FILLER_6_1345
*8533 FILLER_6_1349
*8534 FILLER_6_1361
*8535 FILLER_6_1369
*8536 FILLER_6_137
*8537 FILLER_6_1371
*8538 FILLER_6_1373
*8539 FILLER_6_1385
*8540 FILLER_6_139
*8541 FILLER_6_1397
*8542 FILLER_6_1409
*8543 FILLER_6_141
*8544 FILLER_6_1421
*8545 FILLER_6_1425
*8546 FILLER_6_1427
*8547 FILLER_6_1429
*8548 FILLER_6_1441
*8549 FILLER_6_1453
*8550 FILLER_6_1465
*8551 FILLER_6_1477
*8552 FILLER_6_1481
*8553 FILLER_6_1483
*8554 FILLER_6_1485
*8555 FILLER_6_1497
*8556 FILLER_6_15
*8557 FILLER_6_1505
*8558 FILLER_6_153
*8559 FILLER_6_165
*8560 FILLER_6_177
*8561 FILLER_6_189
*8562 FILLER_6_193
*8563 FILLER_6_195
*8564 FILLER_6_197
*8565 FILLER_6_209
*8566 FILLER_6_221
*8567 FILLER_6_233
*8568 FILLER_6_245
*8569 FILLER_6_249
*8570 FILLER_6_251
*8571 FILLER_6_253
*8572 FILLER_6_265
*8573 FILLER_6_27
*8574 FILLER_6_277
*8575 FILLER_6_289
*8576 FILLER_6_29
*8577 FILLER_6_3
*8578 FILLER_6_301
*8579 FILLER_6_305
*8580 FILLER_6_307
*8581 FILLER_6_309
*8582 FILLER_6_321
*8583 FILLER_6_333
*8584 FILLER_6_345
*8585 FILLER_6_357
*8586 FILLER_6_361
*8587 FILLER_6_363
*8588 FILLER_6_365
*8589 FILLER_6_377
*8590 FILLER_6_389
*8591 FILLER_6_401
*8592 FILLER_6_41
*8593 FILLER_6_413
*8594 FILLER_6_417
*8595 FILLER_6_419
*8596 FILLER_6_421
*8597 FILLER_6_433
*8598 FILLER_6_445
*8599 FILLER_6_457
*8600 FILLER_6_469
*8601 FILLER_6_473
*8602 FILLER_6_475
*8603 FILLER_6_477
*8604 FILLER_6_489
*8605 FILLER_6_501
*8606 FILLER_6_513
*8607 FILLER_6_525
*8608 FILLER_6_529
*8609 FILLER_6_53
*8610 FILLER_6_531
*8611 FILLER_6_533
*8612 FILLER_6_537
*8613 FILLER_6_541
*8614 FILLER_6_553
*8615 FILLER_6_565
*8616 FILLER_6_569
*8617 FILLER_6_571
*8618 FILLER_6_574
*8619 FILLER_6_586
*8620 FILLER_6_589
*8621 FILLER_6_597
*8622 FILLER_6_599
*8623 FILLER_6_610
*8624 FILLER_6_622
*8625 FILLER_6_634
*8626 FILLER_6_642
*8627 FILLER_6_645
*8628 FILLER_6_647
*8629 FILLER_6_65
*8630 FILLER_6_660
*8631 FILLER_6_672
*8632 FILLER_6_684
*8633 FILLER_6_696
*8634 FILLER_6_701
*8635 FILLER_6_713
*8636 FILLER_6_725
*8637 FILLER_6_737
*8638 FILLER_6_749
*8639 FILLER_6_753
*8640 FILLER_6_755
*8641 FILLER_6_757
*8642 FILLER_6_769
*8643 FILLER_6_77
*8644 FILLER_6_781
*8645 FILLER_6_793
*8646 FILLER_6_796
*8647 FILLER_6_808
*8648 FILLER_6_81
*8649 FILLER_6_813
*8650 FILLER_6_825
*8651 FILLER_6_83
*8652 FILLER_6_837
*8653 FILLER_6_849
*8654 FILLER_6_85
*8655 FILLER_6_861
*8656 FILLER_6_865
*8657 FILLER_6_867
*8658 FILLER_6_869
*8659 FILLER_6_881
*8660 FILLER_6_893
*8661 FILLER_6_905
*8662 FILLER_6_913
*8663 FILLER_6_915
*8664 FILLER_6_918
*8665 FILLER_6_922
*8666 FILLER_6_925
*8667 FILLER_6_937
*8668 FILLER_6_949
*8669 FILLER_6_961
*8670 FILLER_6_97
*8671 FILLER_6_973
*8672 FILLER_6_977
*8673 FILLER_6_979
*8674 FILLER_6_981
*8675 FILLER_6_993
*8676 FILLER_70_1480
*8677 FILLER_70_1488
*8678 FILLER_70_1490
*8679 FILLER_70_1502
*8680 FILLER_70_1506
*8681 FILLER_70_703
*8682 FILLER_70_715
*8683 FILLER_70_727
*8684 FILLER_70_729
*8685 FILLER_70_741
*8686 FILLER_70_745
*8687 FILLER_71_1464
*8688 FILLER_71_1476
*8689 FILLER_71_1488
*8690 FILLER_71_1500
*8691 FILLER_71_1504
*8692 FILLER_71_1506
*8693 FILLER_71_703
*8694 FILLER_71_715
*8695 FILLER_71_727
*8696 FILLER_71_739
*8697 FILLER_72_1480
*8698 FILLER_72_1488
*8699 FILLER_72_1490
*8700 FILLER_72_1502
*8701 FILLER_72_1506
*8702 FILLER_72_703
*8703 FILLER_72_715
*8704 FILLER_72_727
*8705 FILLER_72_729
*8706 FILLER_72_737
*8707 FILLER_73_1464
*8708 FILLER_73_1476
*8709 FILLER_73_1488
*8710 FILLER_73_1500
*8711 FILLER_73_1504
*8712 FILLER_73_1506
*8713 FILLER_73_703
*8714 FILLER_73_715
*8715 FILLER_73_727
*8716 FILLER_73_739
*8717 FILLER_74_1480
*8718 FILLER_74_1488
*8719 FILLER_74_1490
*8720 FILLER_74_1502
*8721 FILLER_74_1506
*8722 FILLER_74_703
*8723 FILLER_74_715
*8724 FILLER_74_727
*8725 FILLER_74_729
*8726 FILLER_74_741
*8727 FILLER_74_745
*8728 FILLER_75_1467
*8729 FILLER_75_1479
*8730 FILLER_75_1491
*8731 FILLER_75_1503
*8732 FILLER_75_703
*8733 FILLER_75_715
*8734 FILLER_75_727
*8735 FILLER_75_739
*8736 FILLER_76_1464
*8737 FILLER_76_1482
*8738 FILLER_76_1486
*8739 FILLER_76_1488
*8740 FILLER_76_1490
*8741 FILLER_76_1502
*8742 FILLER_76_1506
*8743 FILLER_76_706
*8744 FILLER_76_718
*8745 FILLER_76_726
*8746 FILLER_76_729
*8747 FILLER_76_741
*8748 FILLER_76_745
*8749 FILLER_77_1464
*8750 FILLER_77_1476
*8751 FILLER_77_1488
*8752 FILLER_77_1500
*8753 FILLER_77_1504
*8754 FILLER_77_1506
*8755 FILLER_77_703
*8756 FILLER_77_715
*8757 FILLER_77_727
*8758 FILLER_77_739
*8759 FILLER_78_1467
*8760 FILLER_78_1479
*8761 FILLER_78_1487
*8762 FILLER_78_1490
*8763 FILLER_78_1502
*8764 FILLER_78_1506
*8765 FILLER_78_706
*8766 FILLER_78_718
*8767 FILLER_78_726
*8768 FILLER_78_729
*8769 FILLER_78_741
*8770 FILLER_78_745
*8771 FILLER_79_1464
*8772 FILLER_79_1476
*8773 FILLER_79_1488
*8774 FILLER_79_1500
*8775 FILLER_79_1504
*8776 FILLER_79_1506
*8777 FILLER_79_703
*8778 FILLER_79_715
*8779 FILLER_79_727
*8780 FILLER_79_739
*8781 FILLER_7_1001
*8782 FILLER_7_1005
*8783 FILLER_7_1007
*8784 FILLER_7_1009
*8785 FILLER_7_1013
*8786 FILLER_7_1015
*8787 FILLER_7_1029
*8788 FILLER_7_1041
*8789 FILLER_7_105
*8790 FILLER_7_1055
*8791 FILLER_7_1063
*8792 FILLER_7_1065
*8793 FILLER_7_1077
*8794 FILLER_7_1084
*8795 FILLER_7_109
*8796 FILLER_7_1096
*8797 FILLER_7_1100
*8798 FILLER_7_1102
*8799 FILLER_7_1109
*8800 FILLER_7_111
*8801 FILLER_7_1117
*8802 FILLER_7_1119
*8803 FILLER_7_1121
*8804 FILLER_7_113
*8805 FILLER_7_1139
*8806 FILLER_7_1143
*8807 FILLER_7_1145
*8808 FILLER_7_1172
*8809 FILLER_7_1177
*8810 FILLER_7_1189
*8811 FILLER_7_1201
*8812 FILLER_7_1213
*8813 FILLER_7_1225
*8814 FILLER_7_1229
*8815 FILLER_7_1231
*8816 FILLER_7_1237
*8817 FILLER_7_1249
*8818 FILLER_7_125
*8819 FILLER_7_1261
*8820 FILLER_7_1273
*8821 FILLER_7_1285
*8822 FILLER_7_1287
*8823 FILLER_7_1289
*8824 FILLER_7_1301
*8825 FILLER_7_1313
*8826 FILLER_7_1325
*8827 FILLER_7_1337
*8828 FILLER_7_1341
*8829 FILLER_7_1343
*8830 FILLER_7_1345
*8831 FILLER_7_1349
*8832 FILLER_7_1361
*8833 FILLER_7_137
*8834 FILLER_7_1373
*8835 FILLER_7_1385
*8836 FILLER_7_1397
*8837 FILLER_7_1399
*8838 FILLER_7_1401
*8839 FILLER_7_1413
*8840 FILLER_7_1425
*8841 FILLER_7_1437
*8842 FILLER_7_1449
*8843 FILLER_7_1453
*8844 FILLER_7_1455
*8845 FILLER_7_1457
*8846 FILLER_7_1469
*8847 FILLER_7_1481
*8848 FILLER_7_149
*8849 FILLER_7_1493
*8850 FILLER_7_15
*8851 FILLER_7_1505
*8852 FILLER_7_161
*8853 FILLER_7_165
*8854 FILLER_7_167
*8855 FILLER_7_169
*8856 FILLER_7_181
*8857 FILLER_7_193
*8858 FILLER_7_205
*8859 FILLER_7_217
*8860 FILLER_7_221
*8861 FILLER_7_223
*8862 FILLER_7_225
*8863 FILLER_7_237
*8864 FILLER_7_249
*8865 FILLER_7_261
*8866 FILLER_7_27
*8867 FILLER_7_273
*8868 FILLER_7_277
*8869 FILLER_7_279
*8870 FILLER_7_281
*8871 FILLER_7_293
*8872 FILLER_7_3
*8873 FILLER_7_305
*8874 FILLER_7_317
*8875 FILLER_7_329
*8876 FILLER_7_333
*8877 FILLER_7_335
*8878 FILLER_7_337
*8879 FILLER_7_349
*8880 FILLER_7_361
*8881 FILLER_7_373
*8882 FILLER_7_385
*8883 FILLER_7_389
*8884 FILLER_7_39
*8885 FILLER_7_391
*8886 FILLER_7_393
*8887 FILLER_7_405
*8888 FILLER_7_417
*8889 FILLER_7_429
*8890 FILLER_7_441
*8891 FILLER_7_445
*8892 FILLER_7_447
*8893 FILLER_7_449
*8894 FILLER_7_461
*8895 FILLER_7_473
*8896 FILLER_7_485
*8897 FILLER_7_497
*8898 FILLER_7_501
*8899 FILLER_7_503
*8900 FILLER_7_505
*8901 FILLER_7_51
*8902 FILLER_7_517
*8903 FILLER_7_529
*8904 FILLER_7_537
*8905 FILLER_7_548
*8906 FILLER_7_55
*8907 FILLER_7_561
*8908 FILLER_7_569
*8909 FILLER_7_57
*8910 FILLER_7_571
*8911 FILLER_7_581
*8912 FILLER_7_593
*8913 FILLER_7_597
*8914 FILLER_7_599
*8915 FILLER_7_609
*8916 FILLER_7_613
*8917 FILLER_7_615
*8918 FILLER_7_617
*8919 FILLER_7_629
*8920 FILLER_7_631
*8921 FILLER_7_652
*8922 FILLER_7_663
*8923 FILLER_7_671
*8924 FILLER_7_673
*8925 FILLER_7_685
*8926 FILLER_7_69
*8927 FILLER_7_697
*8928 FILLER_7_709
*8929 FILLER_7_721
*8930 FILLER_7_725
*8931 FILLER_7_727
*8932 FILLER_7_729
*8933 FILLER_7_741
*8934 FILLER_7_753
*8935 FILLER_7_765
*8936 FILLER_7_777
*8937 FILLER_7_781
*8938 FILLER_7_783
*8939 FILLER_7_785
*8940 FILLER_7_793
*8941 FILLER_7_803
*8942 FILLER_7_81
*8943 FILLER_7_815
*8944 FILLER_7_827
*8945 FILLER_7_839
*8946 FILLER_7_841
*8947 FILLER_7_853
*8948 FILLER_7_865
*8949 FILLER_7_877
*8950 FILLER_7_889
*8951 FILLER_7_893
*8952 FILLER_7_895
*8953 FILLER_7_897
*8954 FILLER_7_909
*8955 FILLER_7_929
*8956 FILLER_7_93
*8957 FILLER_7_941
*8958 FILLER_7_949
*8959 FILLER_7_951
*8960 FILLER_7_953
*8961 FILLER_7_965
*8962 FILLER_7_977
*8963 FILLER_7_989
*8964 FILLER_80_1464
*8965 FILLER_80_1476
*8966 FILLER_80_1488
*8967 FILLER_80_1490
*8968 FILLER_80_1502
*8969 FILLER_80_1506
*8970 FILLER_80_703
*8971 FILLER_80_715
*8972 FILLER_80_727
*8973 FILLER_80_729
*8974 FILLER_80_741
*8975 FILLER_80_745
*8976 FILLER_81_1464
*8977 FILLER_81_1476
*8978 FILLER_81_1488
*8979 FILLER_81_1500
*8980 FILLER_81_1504
*8981 FILLER_81_1506
*8982 FILLER_81_703
*8983 FILLER_81_715
*8984 FILLER_81_727
*8985 FILLER_81_739
*8986 FILLER_82_1464
*8987 FILLER_82_1476
*8988 FILLER_82_1488
*8989 FILLER_82_1490
*8990 FILLER_82_1502
*8991 FILLER_82_1506
*8992 FILLER_82_703
*8993 FILLER_82_715
*8994 FILLER_82_727
*8995 FILLER_82_729
*8996 FILLER_82_741
*8997 FILLER_82_745
*8998 FILLER_83_1464
*8999 FILLER_83_1476
*9000 FILLER_83_1488
*9001 FILLER_83_1500
*9002 FILLER_83_1504
*9003 FILLER_83_1506
*9004 FILLER_83_703
*9005 FILLER_83_715
*9006 FILLER_83_727
*9007 FILLER_83_739
*9008 FILLER_84_1470
*9009 FILLER_84_1482
*9010 FILLER_84_1486
*9011 FILLER_84_1488
*9012 FILLER_84_1490
*9013 FILLER_84_1502
*9014 FILLER_84_1506
*9015 FILLER_84_709
*9016 FILLER_84_721
*9017 FILLER_84_725
*9018 FILLER_84_727
*9019 FILLER_84_729
*9020 FILLER_84_741
*9021 FILLER_84_745
*9022 FILLER_85_1464
*9023 FILLER_85_1476
*9024 FILLER_85_1488
*9025 FILLER_85_1500
*9026 FILLER_85_1504
*9027 FILLER_85_1506
*9028 FILLER_85_703
*9029 FILLER_85_715
*9030 FILLER_85_727
*9031 FILLER_85_739
*9032 FILLER_86_1464
*9033 FILLER_86_1476
*9034 FILLER_86_1488
*9035 FILLER_86_1490
*9036 FILLER_86_1502
*9037 FILLER_86_1506
*9038 FILLER_86_703
*9039 FILLER_86_715
*9040 FILLER_86_727
*9041 FILLER_86_729
*9042 FILLER_86_741
*9043 FILLER_86_745
*9044 FILLER_87_1464
*9045 FILLER_87_1476
*9046 FILLER_87_1488
*9047 FILLER_87_1500
*9048 FILLER_87_1504
*9049 FILLER_87_1506
*9050 FILLER_87_703
*9051 FILLER_87_715
*9052 FILLER_87_727
*9053 FILLER_87_739
*9054 FILLER_88_1467
*9055 FILLER_88_1479
*9056 FILLER_88_1487
*9057 FILLER_88_1490
*9058 FILLER_88_1502
*9059 FILLER_88_1506
*9060 FILLER_88_706
*9061 FILLER_88_718
*9062 FILLER_88_726
*9063 FILLER_88_729
*9064 FILLER_88_741
*9065 FILLER_88_745
*9066 FILLER_89_1467
*9067 FILLER_89_1479
*9068 FILLER_89_1491
*9069 FILLER_89_1503
*9070 FILLER_89_706
*9071 FILLER_89_718
*9072 FILLER_89_730
*9073 FILLER_89_742
*9074 FILLER_89_746
*9075 FILLER_8_1005
*9076 FILLER_8_1007
*9077 FILLER_8_1009
*9078 FILLER_8_1032
*9079 FILLER_8_1063
*9080 FILLER_8_1065
*9081 FILLER_8_1067
*9082 FILLER_8_1088
*9083 FILLER_8_109
*9084 FILLER_8_111
*9085 FILLER_8_1115
*9086 FILLER_8_1119
*9087 FILLER_8_1121
*9088 FILLER_8_113
*9089 FILLER_8_1143
*9090 FILLER_8_1147
*9091 FILLER_8_1149
*9092 FILLER_8_1151
*9093 FILLER_8_1177
*9094 FILLER_8_1189
*9095 FILLER_8_1201
*9096 FILLER_8_1203
*9097 FILLER_8_1205
*9098 FILLER_8_1217
*9099 FILLER_8_1225
*9100 FILLER_8_1244
*9101 FILLER_8_125
*9102 FILLER_8_1256
*9103 FILLER_8_1261
*9104 FILLER_8_1273
*9105 FILLER_8_1285
*9106 FILLER_8_1287
*9107 FILLER_8_1289
*9108 FILLER_8_1301
*9109 FILLER_8_1313
*9110 FILLER_8_1315
*9111 FILLER_8_1317
*9112 FILLER_8_1329
*9113 FILLER_8_1341
*9114 FILLER_8_1358
*9115 FILLER_8_137
*9116 FILLER_8_1370
*9117 FILLER_8_1373
*9118 FILLER_8_1385
*9119 FILLER_8_139
*9120 FILLER_8_1397
*9121 FILLER_8_1399
*9122 FILLER_8_1401
*9123 FILLER_8_141
*9124 FILLER_8_1413
*9125 FILLER_8_1425
*9126 FILLER_8_1427
*9127 FILLER_8_1429
*9128 FILLER_8_1441
*9129 FILLER_8_1453
*9130 FILLER_8_1455
*9131 FILLER_8_1457
*9132 FILLER_8_1469
*9133 FILLER_8_1481
*9134 FILLER_8_1483
*9135 FILLER_8_1485
*9136 FILLER_8_1497
*9137 FILLER_8_15
*9138 FILLER_8_1505
*9139 FILLER_8_153
*9140 FILLER_8_165
*9141 FILLER_8_167
*9142 FILLER_8_169
*9143 FILLER_8_181
*9144 FILLER_8_193
*9145 FILLER_8_195
*9146 FILLER_8_197
*9147 FILLER_8_209
*9148 FILLER_8_221
*9149 FILLER_8_223
*9150 FILLER_8_225
*9151 FILLER_8_237
*9152 FILLER_8_249
*9153 FILLER_8_251
*9154 FILLER_8_253
*9155 FILLER_8_265
*9156 FILLER_8_27
*9157 FILLER_8_277
*9158 FILLER_8_279
*9159 FILLER_8_281
*9160 FILLER_8_29
*9161 FILLER_8_293
*9162 FILLER_8_3
*9163 FILLER_8_305
*9164 FILLER_8_307
*9165 FILLER_8_309
*9166 FILLER_8_321
*9167 FILLER_8_333
*9168 FILLER_8_335
*9169 FILLER_8_337
*9170 FILLER_8_349
*9171 FILLER_8_361
*9172 FILLER_8_363
*9173 FILLER_8_365
*9174 FILLER_8_377
*9175 FILLER_8_389
*9176 FILLER_8_391
*9177 FILLER_8_393
*9178 FILLER_8_405
*9179 FILLER_8_41
*9180 FILLER_8_417
*9181 FILLER_8_419
*9182 FILLER_8_421
*9183 FILLER_8_433
*9184 FILLER_8_445
*9185 FILLER_8_447
*9186 FILLER_8_449
*9187 FILLER_8_461
*9188 FILLER_8_473
*9189 FILLER_8_475
*9190 FILLER_8_477
*9191 FILLER_8_489
*9192 FILLER_8_501
*9193 FILLER_8_503
*9194 FILLER_8_505
*9195 FILLER_8_517
*9196 FILLER_8_529
*9197 FILLER_8_53
*9198 FILLER_8_531
*9199 FILLER_8_533
*9200 FILLER_8_545
*9201 FILLER_8_55
*9202 FILLER_8_557
*9203 FILLER_8_559
*9204 FILLER_8_561
*9205 FILLER_8_57
*9206 FILLER_8_573
*9207 FILLER_8_585
*9208 FILLER_8_587
*9209 FILLER_8_589
*9210 FILLER_8_601
*9211 FILLER_8_613
*9212 FILLER_8_615
*9213 FILLER_8_617
*9214 FILLER_8_629
*9215 FILLER_8_641
*9216 FILLER_8_643
*9217 FILLER_8_645
*9218 FILLER_8_653
*9219 FILLER_8_655
*9220 FILLER_8_668
*9221 FILLER_8_673
*9222 FILLER_8_685
*9223 FILLER_8_69
*9224 FILLER_8_697
*9225 FILLER_8_699
*9226 FILLER_8_701
*9227 FILLER_8_713
*9228 FILLER_8_725
*9229 FILLER_8_727
*9230 FILLER_8_729
*9231 FILLER_8_741
*9232 FILLER_8_753
*9233 FILLER_8_755
*9234 FILLER_8_757
*9235 FILLER_8_769
*9236 FILLER_8_781
*9237 FILLER_8_783
*9238 FILLER_8_785
*9239 FILLER_8_797
*9240 FILLER_8_809
*9241 FILLER_8_81
*9242 FILLER_8_811
*9243 FILLER_8_813
*9244 FILLER_8_825
*9245 FILLER_8_83
*9246 FILLER_8_837
*9247 FILLER_8_839
*9248 FILLER_8_849
*9249 FILLER_8_85
*9250 FILLER_8_861
*9251 FILLER_8_865
*9252 FILLER_8_867
*9253 FILLER_8_869
*9254 FILLER_8_881
*9255 FILLER_8_893
*9256 FILLER_8_895
*9257 FILLER_8_897
*9258 FILLER_8_905
*9259 FILLER_8_927
*9260 FILLER_8_939
*9261 FILLER_8_951
*9262 FILLER_8_953
*9263 FILLER_8_965
*9264 FILLER_8_97
*9265 FILLER_8_977
*9266 FILLER_8_979
*9267 FILLER_8_981
*9268 FILLER_8_993
*9269 FILLER_90_1467
*9270 FILLER_90_1479
*9271 FILLER_90_1487
*9272 FILLER_90_1490
*9273 FILLER_90_1502
*9274 FILLER_90_1506
*9275 FILLER_90_706
*9276 FILLER_90_718
*9277 FILLER_90_726
*9278 FILLER_90_729
*9279 FILLER_91_1464
*9280 FILLER_91_1476
*9281 FILLER_91_1488
*9282 FILLER_91_1500
*9283 FILLER_91_1504
*9284 FILLER_91_1506
*9285 FILLER_91_703
*9286 FILLER_91_715
*9287 FILLER_91_727
*9288 FILLER_91_739
*9289 FILLER_92_1464
*9290 FILLER_92_1476
*9291 FILLER_92_1488
*9292 FILLER_92_1490
*9293 FILLER_92_1502
*9294 FILLER_92_1506
*9295 FILLER_92_703
*9296 FILLER_92_715
*9297 FILLER_92_727
*9298 FILLER_92_729
*9299 FILLER_93_1464
*9300 FILLER_93_1476
*9301 FILLER_93_1488
*9302 FILLER_93_1500
*9303 FILLER_93_1504
*9304 FILLER_93_1506
*9305 FILLER_93_725
*9306 FILLER_94_1470
*9307 FILLER_94_1482
*9308 FILLER_94_1486
*9309 FILLER_94_1488
*9310 FILLER_94_1490
*9311 FILLER_94_1502
*9312 FILLER_94_1506
*9313 FILLER_94_709
*9314 FILLER_94_721
*9315 FILLER_94_725
*9316 FILLER_94_727
*9317 FILLER_94_729
*9318 FILLER_95_1464
*9319 FILLER_95_1476
*9320 FILLER_95_1488
*9321 FILLER_95_1500
*9322 FILLER_95_1504
*9323 FILLER_95_1506
*9324 FILLER_95_703
*9325 FILLER_95_715
*9326 FILLER_95_727
*9327 FILLER_95_739
*9328 FILLER_96_1464
*9329 FILLER_96_1476
*9330 FILLER_96_1488
*9331 FILLER_96_1490
*9332 FILLER_96_1502
*9333 FILLER_96_1506
*9334 FILLER_96_703
*9335 FILLER_96_715
*9336 FILLER_96_727
*9337 FILLER_96_729
*9338 FILLER_97_1464
*9339 FILLER_97_1476
*9340 FILLER_97_1488
*9341 FILLER_97_1500
*9342 FILLER_97_1504
*9343 FILLER_97_1506
*9344 FILLER_97_703
*9345 FILLER_97_715
*9346 FILLER_97_727
*9347 FILLER_97_739
*9348 FILLER_98_1464
*9349 FILLER_98_1476
*9350 FILLER_98_1488
*9351 FILLER_98_1490
*9352 FILLER_98_1502
*9353 FILLER_98_1506
*9354 FILLER_98_703
*9355 FILLER_98_715
*9356 FILLER_98_727
*9357 FILLER_98_729
*9358 FILLER_99_1464
*9359 FILLER_99_1476
*9360 FILLER_99_1488
*9361 FILLER_99_1500
*9362 FILLER_99_1504
*9363 FILLER_99_1506
*9364 FILLER_99_703
*9365 FILLER_99_715
*9366 FILLER_99_727
*9367 FILLER_99_739
*9368 FILLER_9_1464
*9369 FILLER_9_1476
*9370 FILLER_9_1488
*9371 FILLER_9_1500
*9372 FILLER_9_1504
*9373 FILLER_9_1506
*9374 FILLER_9_712
*9375 FILLER_9_724
*9376 FILLER_9_736
*9377 FILLER_9_744
*9378 FILLER_9_746
*9379 PHY_EDGE_ROW_0_Left_312
*9380 PHY_EDGE_ROW_0_Right_321
*9381 PHY_EDGE_ROW_100_2_Left_252
*9382 PHY_EDGE_ROW_100_2_Right_896
*9383 PHY_EDGE_ROW_100_3_Left_747
*9384 PHY_EDGE_ROW_100_3_Right_439
*9385 PHY_EDGE_ROW_101_2_Left_253
*9386 PHY_EDGE_ROW_101_2_Right_897
*9387 PHY_EDGE_ROW_101_3_Left_748
*9388 PHY_EDGE_ROW_101_3_Right_440
*9389 PHY_EDGE_ROW_102_2_Left_254
*9390 PHY_EDGE_ROW_102_2_Right_898
*9391 PHY_EDGE_ROW_102_3_Left_749
*9392 PHY_EDGE_ROW_102_3_Right_441
*9393 PHY_EDGE_ROW_103_2_Left_255
*9394 PHY_EDGE_ROW_103_2_Right_899
*9395 PHY_EDGE_ROW_103_3_Left_750
*9396 PHY_EDGE_ROW_103_3_Right_442
*9397 PHY_EDGE_ROW_104_2_Left_256
*9398 PHY_EDGE_ROW_104_2_Right_900
*9399 PHY_EDGE_ROW_104_3_Left_751
*9400 PHY_EDGE_ROW_104_3_Right_443
*9401 PHY_EDGE_ROW_105_2_Left_257
*9402 PHY_EDGE_ROW_105_2_Right_901
*9403 PHY_EDGE_ROW_105_3_Left_752
*9404 PHY_EDGE_ROW_105_3_Right_444
*9405 PHY_EDGE_ROW_106_2_Left_258
*9406 PHY_EDGE_ROW_106_2_Right_902
*9407 PHY_EDGE_ROW_106_3_Left_753
*9408 PHY_EDGE_ROW_106_3_Right_445
*9409 PHY_EDGE_ROW_107_2_Left_259
*9410 PHY_EDGE_ROW_107_2_Right_903
*9411 PHY_EDGE_ROW_107_3_Left_754
*9412 PHY_EDGE_ROW_107_3_Right_446
*9413 PHY_EDGE_ROW_108_2_Left_260
*9414 PHY_EDGE_ROW_108_2_Right_904
*9415 PHY_EDGE_ROW_108_3_Left_755
*9416 PHY_EDGE_ROW_108_3_Right_447
*9417 PHY_EDGE_ROW_109_2_Left_261
*9418 PHY_EDGE_ROW_109_2_Right_905
*9419 PHY_EDGE_ROW_109_3_Left_756
*9420 PHY_EDGE_ROW_109_3_Right_448
*9421 PHY_EDGE_ROW_10_2_Left_162
*9422 PHY_EDGE_ROW_10_2_Right_806
*9423 PHY_EDGE_ROW_10_3_Left_657
*9424 PHY_EDGE_ROW_10_3_Right_349
*9425 PHY_EDGE_ROW_110_2_Left_262
*9426 PHY_EDGE_ROW_110_2_Right_906
*9427 PHY_EDGE_ROW_110_3_Left_757
*9428 PHY_EDGE_ROW_110_3_Right_449
*9429 PHY_EDGE_ROW_111_2_Left_263
*9430 PHY_EDGE_ROW_111_2_Right_907
*9431 PHY_EDGE_ROW_111_3_Left_758
*9432 PHY_EDGE_ROW_111_3_Right_450
*9433 PHY_EDGE_ROW_112_2_Left_264
*9434 PHY_EDGE_ROW_112_2_Right_908
*9435 PHY_EDGE_ROW_112_3_Left_759
*9436 PHY_EDGE_ROW_112_3_Right_451
*9437 PHY_EDGE_ROW_113_2_Left_265
*9438 PHY_EDGE_ROW_113_2_Right_909
*9439 PHY_EDGE_ROW_113_3_Left_760
*9440 PHY_EDGE_ROW_113_3_Right_452
*9441 PHY_EDGE_ROW_114_2_Left_266
*9442 PHY_EDGE_ROW_114_2_Right_910
*9443 PHY_EDGE_ROW_114_3_Left_761
*9444 PHY_EDGE_ROW_114_3_Right_453
*9445 PHY_EDGE_ROW_115_2_Left_267
*9446 PHY_EDGE_ROW_115_2_Right_911
*9447 PHY_EDGE_ROW_115_3_Left_762
*9448 PHY_EDGE_ROW_115_3_Right_454
*9449 PHY_EDGE_ROW_116_2_Left_268
*9450 PHY_EDGE_ROW_116_2_Right_912
*9451 PHY_EDGE_ROW_116_3_Left_763
*9452 PHY_EDGE_ROW_116_3_Right_455
*9453 PHY_EDGE_ROW_117_2_Left_269
*9454 PHY_EDGE_ROW_117_2_Right_913
*9455 PHY_EDGE_ROW_117_3_Left_764
*9456 PHY_EDGE_ROW_117_3_Right_456
*9457 PHY_EDGE_ROW_118_2_Left_270
*9458 PHY_EDGE_ROW_118_2_Right_914
*9459 PHY_EDGE_ROW_118_3_Left_765
*9460 PHY_EDGE_ROW_118_3_Right_457
*9461 PHY_EDGE_ROW_119_2_Left_271
*9462 PHY_EDGE_ROW_119_2_Right_915
*9463 PHY_EDGE_ROW_119_3_Left_766
*9464 PHY_EDGE_ROW_119_3_Right_458
*9465 PHY_EDGE_ROW_11_2_Left_163
*9466 PHY_EDGE_ROW_11_2_Right_807
*9467 PHY_EDGE_ROW_11_3_Left_658
*9468 PHY_EDGE_ROW_11_3_Right_350
*9469 PHY_EDGE_ROW_120_2_Left_272
*9470 PHY_EDGE_ROW_120_2_Right_916
*9471 PHY_EDGE_ROW_120_3_Left_767
*9472 PHY_EDGE_ROW_120_3_Right_459
*9473 PHY_EDGE_ROW_121_2_Left_273
*9474 PHY_EDGE_ROW_121_2_Right_917
*9475 PHY_EDGE_ROW_121_3_Left_768
*9476 PHY_EDGE_ROW_121_3_Right_460
*9477 PHY_EDGE_ROW_122_2_Left_274
*9478 PHY_EDGE_ROW_122_2_Right_918
*9479 PHY_EDGE_ROW_122_3_Left_769
*9480 PHY_EDGE_ROW_122_3_Right_461
*9481 PHY_EDGE_ROW_123_2_Left_275
*9482 PHY_EDGE_ROW_123_2_Right_919
*9483 PHY_EDGE_ROW_123_3_Left_770
*9484 PHY_EDGE_ROW_123_3_Right_462
*9485 PHY_EDGE_ROW_124_2_Left_276
*9486 PHY_EDGE_ROW_124_2_Right_920
*9487 PHY_EDGE_ROW_124_3_Left_771
*9488 PHY_EDGE_ROW_124_3_Right_463
*9489 PHY_EDGE_ROW_125_2_Left_277
*9490 PHY_EDGE_ROW_125_2_Right_921
*9491 PHY_EDGE_ROW_125_3_Left_772
*9492 PHY_EDGE_ROW_125_3_Right_464
*9493 PHY_EDGE_ROW_126_2_Left_278
*9494 PHY_EDGE_ROW_126_2_Right_922
*9495 PHY_EDGE_ROW_126_3_Left_773
*9496 PHY_EDGE_ROW_126_3_Right_465
*9497 PHY_EDGE_ROW_127_2_Left_279
*9498 PHY_EDGE_ROW_127_2_Right_923
*9499 PHY_EDGE_ROW_127_3_Left_774
*9500 PHY_EDGE_ROW_127_3_Right_466
*9501 PHY_EDGE_ROW_128_2_Left_280
*9502 PHY_EDGE_ROW_128_2_Right_924
*9503 PHY_EDGE_ROW_128_3_Left_775
*9504 PHY_EDGE_ROW_128_3_Right_467
*9505 PHY_EDGE_ROW_129_2_Left_281
*9506 PHY_EDGE_ROW_129_2_Right_925
*9507 PHY_EDGE_ROW_129_3_Left_776
*9508 PHY_EDGE_ROW_129_3_Right_468
*9509 PHY_EDGE_ROW_12_2_Left_164
*9510 PHY_EDGE_ROW_12_2_Right_808
*9511 PHY_EDGE_ROW_12_3_Left_659
*9512 PHY_EDGE_ROW_12_3_Right_351
*9513 PHY_EDGE_ROW_130_2_Left_282
*9514 PHY_EDGE_ROW_130_2_Right_926
*9515 PHY_EDGE_ROW_130_3_Left_777
*9516 PHY_EDGE_ROW_130_3_Right_469
*9517 PHY_EDGE_ROW_131_2_Left_283
*9518 PHY_EDGE_ROW_131_2_Right_927
*9519 PHY_EDGE_ROW_131_3_Left_778
*9520 PHY_EDGE_ROW_131_3_Right_470
*9521 PHY_EDGE_ROW_132_2_Left_284
*9522 PHY_EDGE_ROW_132_2_Right_928
*9523 PHY_EDGE_ROW_132_3_Left_779
*9524 PHY_EDGE_ROW_132_3_Right_471
*9525 PHY_EDGE_ROW_133_2_Left_285
*9526 PHY_EDGE_ROW_133_2_Right_929
*9527 PHY_EDGE_ROW_133_3_Left_780
*9528 PHY_EDGE_ROW_133_3_Right_472
*9529 PHY_EDGE_ROW_134_2_Left_286
*9530 PHY_EDGE_ROW_134_2_Right_930
*9531 PHY_EDGE_ROW_134_3_Left_781
*9532 PHY_EDGE_ROW_134_3_Right_473
*9533 PHY_EDGE_ROW_135_2_Left_287
*9534 PHY_EDGE_ROW_135_2_Right_931
*9535 PHY_EDGE_ROW_135_3_Left_782
*9536 PHY_EDGE_ROW_135_3_Right_474
*9537 PHY_EDGE_ROW_136_2_Left_288
*9538 PHY_EDGE_ROW_136_2_Right_932
*9539 PHY_EDGE_ROW_136_3_Left_783
*9540 PHY_EDGE_ROW_136_3_Right_475
*9541 PHY_EDGE_ROW_137_2_Left_289
*9542 PHY_EDGE_ROW_137_2_Right_933
*9543 PHY_EDGE_ROW_137_3_Left_784
*9544 PHY_EDGE_ROW_137_3_Right_476
*9545 PHY_EDGE_ROW_138_2_Left_290
*9546 PHY_EDGE_ROW_138_2_Right_934
*9547 PHY_EDGE_ROW_138_3_Left_785
*9548 PHY_EDGE_ROW_138_3_Right_477
*9549 PHY_EDGE_ROW_139_2_Left_291
*9550 PHY_EDGE_ROW_139_2_Right_935
*9551 PHY_EDGE_ROW_139_3_Left_786
*9552 PHY_EDGE_ROW_139_3_Right_478
*9553 PHY_EDGE_ROW_13_2_Left_165
*9554 PHY_EDGE_ROW_13_2_Right_809
*9555 PHY_EDGE_ROW_13_3_Left_660
*9556 PHY_EDGE_ROW_13_3_Right_352
*9557 PHY_EDGE_ROW_140_2_Left_292
*9558 PHY_EDGE_ROW_140_2_Right_936
*9559 PHY_EDGE_ROW_140_3_Left_787
*9560 PHY_EDGE_ROW_140_3_Right_479
*9561 PHY_EDGE_ROW_141_2_Left_293
*9562 PHY_EDGE_ROW_141_2_Right_937
*9563 PHY_EDGE_ROW_141_3_Left_788
*9564 PHY_EDGE_ROW_141_3_Right_480
*9565 PHY_EDGE_ROW_142_2_Left_294
*9566 PHY_EDGE_ROW_142_2_Right_938
*9567 PHY_EDGE_ROW_142_3_Left_789
*9568 PHY_EDGE_ROW_142_3_Right_481
*9569 PHY_EDGE_ROW_143_2_Left_295
*9570 PHY_EDGE_ROW_143_2_Right_939
*9571 PHY_EDGE_ROW_143_3_Left_790
*9572 PHY_EDGE_ROW_143_3_Right_482
*9573 PHY_EDGE_ROW_144_2_Left_296
*9574 PHY_EDGE_ROW_144_2_Right_940
*9575 PHY_EDGE_ROW_144_3_Left_791
*9576 PHY_EDGE_ROW_144_3_Right_483
*9577 PHY_EDGE_ROW_145_2_Left_297
*9578 PHY_EDGE_ROW_145_2_Right_941
*9579 PHY_EDGE_ROW_145_3_Left_792
*9580 PHY_EDGE_ROW_145_3_Right_484
*9581 PHY_EDGE_ROW_146_2_Left_298
*9582 PHY_EDGE_ROW_146_2_Right_942
*9583 PHY_EDGE_ROW_146_3_Left_793
*9584 PHY_EDGE_ROW_146_3_Right_485
*9585 PHY_EDGE_ROW_147_2_Left_299
*9586 PHY_EDGE_ROW_147_2_Right_943
*9587 PHY_EDGE_ROW_147_3_Left_794
*9588 PHY_EDGE_ROW_147_3_Right_486
*9589 PHY_EDGE_ROW_148_2_Left_300
*9590 PHY_EDGE_ROW_148_2_Right_944
*9591 PHY_EDGE_ROW_148_3_Left_795
*9592 PHY_EDGE_ROW_148_3_Right_487
*9593 PHY_EDGE_ROW_149_2_Left_301
*9594 PHY_EDGE_ROW_149_2_Right_945
*9595 PHY_EDGE_ROW_149_3_Left_796
*9596 PHY_EDGE_ROW_149_3_Right_488
*9597 PHY_EDGE_ROW_14_2_Left_166
*9598 PHY_EDGE_ROW_14_2_Right_810
*9599 PHY_EDGE_ROW_14_3_Left_661
*9600 PHY_EDGE_ROW_14_3_Right_353
*9601 PHY_EDGE_ROW_150_2_Left_302
*9602 PHY_EDGE_ROW_150_2_Right_946
*9603 PHY_EDGE_ROW_150_3_Left_797
*9604 PHY_EDGE_ROW_150_3_Right_489
*9605 PHY_EDGE_ROW_151_2_Left_303
*9606 PHY_EDGE_ROW_151_2_Right_947
*9607 PHY_EDGE_ROW_151_3_Left_798
*9608 PHY_EDGE_ROW_151_3_Right_490
*9609 PHY_EDGE_ROW_152_2_Left_304
*9610 PHY_EDGE_ROW_152_2_Right_948
*9611 PHY_EDGE_ROW_152_3_Left_799
*9612 PHY_EDGE_ROW_152_3_Right_491
*9613 PHY_EDGE_ROW_153_2_Left_305
*9614 PHY_EDGE_ROW_153_2_Right_949
*9615 PHY_EDGE_ROW_153_3_Left_800
*9616 PHY_EDGE_ROW_153_3_Right_492
*9617 PHY_EDGE_ROW_154_2_Left_306
*9618 PHY_EDGE_ROW_154_2_Right_950
*9619 PHY_EDGE_ROW_154_3_Left_801
*9620 PHY_EDGE_ROW_154_3_Right_493
*9621 PHY_EDGE_ROW_155_2_Left_307
*9622 PHY_EDGE_ROW_155_2_Right_951
*9623 PHY_EDGE_ROW_155_3_Left_802
*9624 PHY_EDGE_ROW_155_3_Right_494
*9625 PHY_EDGE_ROW_156_2_Left_308
*9626 PHY_EDGE_ROW_156_2_Right_952
*9627 PHY_EDGE_ROW_156_3_Left_803
*9628 PHY_EDGE_ROW_156_3_Right_495
*9629 PHY_EDGE_ROW_157_2_Left_309
*9630 PHY_EDGE_ROW_157_2_Right_953
*9631 PHY_EDGE_ROW_157_3_Left_804
*9632 PHY_EDGE_ROW_157_3_Right_496
*9633 PHY_EDGE_ROW_158_2_Left_310
*9634 PHY_EDGE_ROW_158_2_Right_954
*9635 PHY_EDGE_ROW_158_3_Left_805
*9636 PHY_EDGE_ROW_158_3_Right_497
*9637 PHY_EDGE_ROW_159_Left_151
*9638 PHY_EDGE_ROW_159_Right_330
*9639 PHY_EDGE_ROW_15_2_Left_167
*9640 PHY_EDGE_ROW_15_2_Right_811
*9641 PHY_EDGE_ROW_15_3_Left_662
*9642 PHY_EDGE_ROW_15_3_Right_354
*9643 PHY_EDGE_ROW_160_Left_152
*9644 PHY_EDGE_ROW_160_Right_331
*9645 PHY_EDGE_ROW_161_Left_153
*9646 PHY_EDGE_ROW_161_Right_332
*9647 PHY_EDGE_ROW_162_Left_154
*9648 PHY_EDGE_ROW_162_Right_333
*9649 PHY_EDGE_ROW_163_Left_155
*9650 PHY_EDGE_ROW_163_Right_334
*9651 PHY_EDGE_ROW_164_Left_156
*9652 PHY_EDGE_ROW_164_Right_335
*9653 PHY_EDGE_ROW_165_Left_157
*9654 PHY_EDGE_ROW_165_Right_336
*9655 PHY_EDGE_ROW_166_Left_158
*9656 PHY_EDGE_ROW_166_Right_337
*9657 PHY_EDGE_ROW_167_Left_159
*9658 PHY_EDGE_ROW_167_Right_338
*9659 PHY_EDGE_ROW_168_Left_160
*9660 PHY_EDGE_ROW_168_Right_339
*9661 PHY_EDGE_ROW_169_Left_161
*9662 PHY_EDGE_ROW_169_Right_340
*9663 PHY_EDGE_ROW_16_2_Left_168
*9664 PHY_EDGE_ROW_16_2_Right_812
*9665 PHY_EDGE_ROW_16_3_Left_663
*9666 PHY_EDGE_ROW_16_3_Right_355
*9667 PHY_EDGE_ROW_170_2_Left_0
*9668 PHY_EDGE_ROW_170_2_Right_1107
*9669 PHY_EDGE_ROW_170_3_Left_956
*9670 PHY_EDGE_ROW_170_3_Right_498
*9671 PHY_EDGE_ROW_171_2_Left_1
*9672 PHY_EDGE_ROW_171_2_Right_1108
*9673 PHY_EDGE_ROW_171_3_Left_957
*9674 PHY_EDGE_ROW_171_3_Right_499
*9675 PHY_EDGE_ROW_172_2_Left_2
*9676 PHY_EDGE_ROW_172_2_Right_1109
*9677 PHY_EDGE_ROW_172_3_Left_958
*9678 PHY_EDGE_ROW_172_3_Right_500
*9679 PHY_EDGE_ROW_173_2_Left_3
*9680 PHY_EDGE_ROW_173_2_Right_1110
*9681 PHY_EDGE_ROW_173_3_Left_959
*9682 PHY_EDGE_ROW_173_3_Right_501
*9683 PHY_EDGE_ROW_174_2_Left_4
*9684 PHY_EDGE_ROW_174_2_Right_1111
*9685 PHY_EDGE_ROW_174_3_Left_960
*9686 PHY_EDGE_ROW_174_3_Right_502
*9687 PHY_EDGE_ROW_175_2_Left_5
*9688 PHY_EDGE_ROW_175_2_Right_1112
*9689 PHY_EDGE_ROW_175_3_Left_961
*9690 PHY_EDGE_ROW_175_3_Right_503
*9691 PHY_EDGE_ROW_176_2_Left_6
*9692 PHY_EDGE_ROW_176_2_Right_1113
*9693 PHY_EDGE_ROW_176_3_Left_962
*9694 PHY_EDGE_ROW_176_3_Right_504
*9695 PHY_EDGE_ROW_177_2_Left_7
*9696 PHY_EDGE_ROW_177_2_Right_1114
*9697 PHY_EDGE_ROW_177_3_Left_963
*9698 PHY_EDGE_ROW_177_3_Right_505
*9699 PHY_EDGE_ROW_178_2_Left_8
*9700 PHY_EDGE_ROW_178_2_Right_1115
*9701 PHY_EDGE_ROW_178_3_Left_964
*9702 PHY_EDGE_ROW_178_3_Right_506
*9703 PHY_EDGE_ROW_179_2_Left_9
*9704 PHY_EDGE_ROW_179_2_Right_1116
*9705 PHY_EDGE_ROW_179_3_Left_965
*9706 PHY_EDGE_ROW_179_3_Right_507
*9707 PHY_EDGE_ROW_17_2_Left_169
*9708 PHY_EDGE_ROW_17_2_Right_813
*9709 PHY_EDGE_ROW_17_3_Left_664
*9710 PHY_EDGE_ROW_17_3_Right_356
*9711 PHY_EDGE_ROW_180_2_Left_10
*9712 PHY_EDGE_ROW_180_2_Right_1117
*9713 PHY_EDGE_ROW_180_3_Left_966
*9714 PHY_EDGE_ROW_180_3_Right_508
*9715 PHY_EDGE_ROW_181_2_Left_11
*9716 PHY_EDGE_ROW_181_2_Right_1118
*9717 PHY_EDGE_ROW_181_3_Left_967
*9718 PHY_EDGE_ROW_181_3_Right_509
*9719 PHY_EDGE_ROW_182_2_Left_12
*9720 PHY_EDGE_ROW_182_2_Right_1119
*9721 PHY_EDGE_ROW_182_3_Left_968
*9722 PHY_EDGE_ROW_182_3_Right_510
*9723 PHY_EDGE_ROW_183_2_Left_13
*9724 PHY_EDGE_ROW_183_2_Right_1120
*9725 PHY_EDGE_ROW_183_3_Left_969
*9726 PHY_EDGE_ROW_183_3_Right_511
*9727 PHY_EDGE_ROW_184_2_Left_14
*9728 PHY_EDGE_ROW_184_2_Right_1121
*9729 PHY_EDGE_ROW_184_3_Left_970
*9730 PHY_EDGE_ROW_184_3_Right_512
*9731 PHY_EDGE_ROW_185_2_Left_15
*9732 PHY_EDGE_ROW_185_2_Right_1122
*9733 PHY_EDGE_ROW_185_3_Left_971
*9734 PHY_EDGE_ROW_185_3_Right_513
*9735 PHY_EDGE_ROW_186_2_Left_16
*9736 PHY_EDGE_ROW_186_2_Right_1123
*9737 PHY_EDGE_ROW_186_3_Left_972
*9738 PHY_EDGE_ROW_186_3_Right_514
*9739 PHY_EDGE_ROW_187_2_Left_17
*9740 PHY_EDGE_ROW_187_2_Right_1124
*9741 PHY_EDGE_ROW_187_3_Left_973
*9742 PHY_EDGE_ROW_187_3_Right_515
*9743 PHY_EDGE_ROW_188_2_Left_18
*9744 PHY_EDGE_ROW_188_2_Right_1125
*9745 PHY_EDGE_ROW_188_3_Left_974
*9746 PHY_EDGE_ROW_188_3_Right_516
*9747 PHY_EDGE_ROW_189_2_Left_19
*9748 PHY_EDGE_ROW_189_2_Right_1126
*9749 PHY_EDGE_ROW_189_3_Left_975
*9750 PHY_EDGE_ROW_189_3_Right_517
*9751 PHY_EDGE_ROW_18_2_Left_170
*9752 PHY_EDGE_ROW_18_2_Right_814
*9753 PHY_EDGE_ROW_18_3_Left_665
*9754 PHY_EDGE_ROW_18_3_Right_357
*9755 PHY_EDGE_ROW_190_2_Left_20
*9756 PHY_EDGE_ROW_190_2_Right_1127
*9757 PHY_EDGE_ROW_190_3_Left_976
*9758 PHY_EDGE_ROW_190_3_Right_518
*9759 PHY_EDGE_ROW_191_2_Left_21
*9760 PHY_EDGE_ROW_191_2_Right_1128
*9761 PHY_EDGE_ROW_191_3_Left_977
*9762 PHY_EDGE_ROW_191_3_Right_519
*9763 PHY_EDGE_ROW_192_2_Left_22
*9764 PHY_EDGE_ROW_192_2_Right_1129
*9765 PHY_EDGE_ROW_192_3_Left_978
*9766 PHY_EDGE_ROW_192_3_Right_520
*9767 PHY_EDGE_ROW_193_2_Left_23
*9768 PHY_EDGE_ROW_193_2_Right_1130
*9769 PHY_EDGE_ROW_193_3_Left_979
*9770 PHY_EDGE_ROW_193_3_Right_521
*9771 PHY_EDGE_ROW_194_2_Left_24
*9772 PHY_EDGE_ROW_194_2_Right_1131
*9773 PHY_EDGE_ROW_194_3_Left_980
*9774 PHY_EDGE_ROW_194_3_Right_522
*9775 PHY_EDGE_ROW_195_2_Left_25
*9776 PHY_EDGE_ROW_195_2_Right_1132
*9777 PHY_EDGE_ROW_195_3_Left_981
*9778 PHY_EDGE_ROW_195_3_Right_523
*9779 PHY_EDGE_ROW_196_2_Left_26
*9780 PHY_EDGE_ROW_196_2_Right_1133
*9781 PHY_EDGE_ROW_196_3_Left_982
*9782 PHY_EDGE_ROW_196_3_Right_524
*9783 PHY_EDGE_ROW_197_2_Left_27
*9784 PHY_EDGE_ROW_197_2_Right_1134
*9785 PHY_EDGE_ROW_197_3_Left_983
*9786 PHY_EDGE_ROW_197_3_Right_525
*9787 PHY_EDGE_ROW_198_2_Left_28
*9788 PHY_EDGE_ROW_198_2_Right_1135
*9789 PHY_EDGE_ROW_198_3_Left_984
*9790 PHY_EDGE_ROW_198_3_Right_526
*9791 PHY_EDGE_ROW_199_2_Left_29
*9792 PHY_EDGE_ROW_199_2_Right_1136
*9793 PHY_EDGE_ROW_199_3_Left_985
*9794 PHY_EDGE_ROW_199_3_Right_527
*9795 PHY_EDGE_ROW_19_2_Left_171
*9796 PHY_EDGE_ROW_19_2_Right_815
*9797 PHY_EDGE_ROW_19_3_Left_666
*9798 PHY_EDGE_ROW_19_3_Right_358
*9799 PHY_EDGE_ROW_1_Left_313
*9800 PHY_EDGE_ROW_1_Right_322
*9801 PHY_EDGE_ROW_200_2_Left_30
*9802 PHY_EDGE_ROW_200_2_Right_1137
*9803 PHY_EDGE_ROW_200_3_Left_986
*9804 PHY_EDGE_ROW_200_3_Right_528
*9805 PHY_EDGE_ROW_201_2_Left_31
*9806 PHY_EDGE_ROW_201_2_Right_1138
*9807 PHY_EDGE_ROW_201_3_Left_987
*9808 PHY_EDGE_ROW_201_3_Right_529
*9809 PHY_EDGE_ROW_202_2_Left_32
*9810 PHY_EDGE_ROW_202_2_Right_1139
*9811 PHY_EDGE_ROW_202_3_Left_988
*9812 PHY_EDGE_ROW_202_3_Right_530
*9813 PHY_EDGE_ROW_203_2_Left_33
*9814 PHY_EDGE_ROW_203_2_Right_1140
*9815 PHY_EDGE_ROW_203_3_Left_989
*9816 PHY_EDGE_ROW_203_3_Right_531
*9817 PHY_EDGE_ROW_204_2_Left_34
*9818 PHY_EDGE_ROW_204_2_Right_1141
*9819 PHY_EDGE_ROW_204_3_Left_990
*9820 PHY_EDGE_ROW_204_3_Right_532
*9821 PHY_EDGE_ROW_205_2_Left_35
*9822 PHY_EDGE_ROW_205_2_Right_1142
*9823 PHY_EDGE_ROW_205_3_Left_991
*9824 PHY_EDGE_ROW_205_3_Right_533
*9825 PHY_EDGE_ROW_206_2_Left_36
*9826 PHY_EDGE_ROW_206_2_Right_1143
*9827 PHY_EDGE_ROW_206_3_Left_992
*9828 PHY_EDGE_ROW_206_3_Right_534
*9829 PHY_EDGE_ROW_207_2_Left_37
*9830 PHY_EDGE_ROW_207_2_Right_1144
*9831 PHY_EDGE_ROW_207_3_Left_993
*9832 PHY_EDGE_ROW_207_3_Right_535
*9833 PHY_EDGE_ROW_208_2_Left_38
*9834 PHY_EDGE_ROW_208_2_Right_1145
*9835 PHY_EDGE_ROW_208_3_Left_994
*9836 PHY_EDGE_ROW_208_3_Right_536
*9837 PHY_EDGE_ROW_209_2_Left_39
*9838 PHY_EDGE_ROW_209_2_Right_1146
*9839 PHY_EDGE_ROW_209_3_Left_995
*9840 PHY_EDGE_ROW_209_3_Right_537
*9841 PHY_EDGE_ROW_20_2_Left_172
*9842 PHY_EDGE_ROW_20_2_Right_816
*9843 PHY_EDGE_ROW_20_3_Left_667
*9844 PHY_EDGE_ROW_20_3_Right_359
*9845 PHY_EDGE_ROW_210_2_Left_40
*9846 PHY_EDGE_ROW_210_2_Right_1147
*9847 PHY_EDGE_ROW_210_3_Left_996
*9848 PHY_EDGE_ROW_210_3_Right_538
*9849 PHY_EDGE_ROW_211_2_Left_41
*9850 PHY_EDGE_ROW_211_2_Right_1148
*9851 PHY_EDGE_ROW_211_3_Left_997
*9852 PHY_EDGE_ROW_211_3_Right_539
*9853 PHY_EDGE_ROW_212_2_Left_42
*9854 PHY_EDGE_ROW_212_2_Right_1149
*9855 PHY_EDGE_ROW_212_3_Left_998
*9856 PHY_EDGE_ROW_212_3_Right_540
*9857 PHY_EDGE_ROW_213_2_Left_43
*9858 PHY_EDGE_ROW_213_2_Right_1150
*9859 PHY_EDGE_ROW_213_3_Left_999
*9860 PHY_EDGE_ROW_213_3_Right_541
*9861 PHY_EDGE_ROW_214_2_Left_44
*9862 PHY_EDGE_ROW_214_2_Right_1151
*9863 PHY_EDGE_ROW_214_3_Left_1000
*9864 PHY_EDGE_ROW_214_3_Right_542
*9865 PHY_EDGE_ROW_215_2_Left_45
*9866 PHY_EDGE_ROW_215_2_Right_1152
*9867 PHY_EDGE_ROW_215_3_Left_1001
*9868 PHY_EDGE_ROW_215_3_Right_543
*9869 PHY_EDGE_ROW_216_2_Left_46
*9870 PHY_EDGE_ROW_216_2_Right_1153
*9871 PHY_EDGE_ROW_216_3_Left_1002
*9872 PHY_EDGE_ROW_216_3_Right_544
*9873 PHY_EDGE_ROW_217_2_Left_47
*9874 PHY_EDGE_ROW_217_2_Right_1154
*9875 PHY_EDGE_ROW_217_3_Left_1003
*9876 PHY_EDGE_ROW_217_3_Right_545
*9877 PHY_EDGE_ROW_218_2_Left_48
*9878 PHY_EDGE_ROW_218_2_Right_1155
*9879 PHY_EDGE_ROW_218_3_Left_1004
*9880 PHY_EDGE_ROW_218_3_Right_546
*9881 PHY_EDGE_ROW_219_2_Left_49
*9882 PHY_EDGE_ROW_219_2_Right_1156
*9883 PHY_EDGE_ROW_219_3_Left_1005
*9884 PHY_EDGE_ROW_219_3_Right_547
*9885 PHY_EDGE_ROW_21_2_Left_173
*9886 PHY_EDGE_ROW_21_2_Right_817
*9887 PHY_EDGE_ROW_21_3_Left_668
*9888 PHY_EDGE_ROW_21_3_Right_360
*9889 PHY_EDGE_ROW_220_2_Left_50
*9890 PHY_EDGE_ROW_220_2_Right_1157
*9891 PHY_EDGE_ROW_220_3_Left_1006
*9892 PHY_EDGE_ROW_220_3_Right_548
*9893 PHY_EDGE_ROW_221_2_Left_51
*9894 PHY_EDGE_ROW_221_2_Right_1158
*9895 PHY_EDGE_ROW_221_3_Left_1007
*9896 PHY_EDGE_ROW_221_3_Right_549
*9897 PHY_EDGE_ROW_222_2_Left_52
*9898 PHY_EDGE_ROW_222_2_Right_1159
*9899 PHY_EDGE_ROW_222_3_Left_1008
*9900 PHY_EDGE_ROW_222_3_Right_550
*9901 PHY_EDGE_ROW_223_2_Left_53
*9902 PHY_EDGE_ROW_223_2_Right_1160
*9903 PHY_EDGE_ROW_223_3_Left_1009
*9904 PHY_EDGE_ROW_223_3_Right_551
*9905 PHY_EDGE_ROW_224_2_Left_54
*9906 PHY_EDGE_ROW_224_2_Right_1161
*9907 PHY_EDGE_ROW_224_3_Left_1010
*9908 PHY_EDGE_ROW_224_3_Right_552
*9909 PHY_EDGE_ROW_225_2_Left_55
*9910 PHY_EDGE_ROW_225_2_Right_1162
*9911 PHY_EDGE_ROW_225_3_Left_1011
*9912 PHY_EDGE_ROW_225_3_Right_553
*9913 PHY_EDGE_ROW_226_2_Left_56
*9914 PHY_EDGE_ROW_226_2_Right_1163
*9915 PHY_EDGE_ROW_226_3_Left_1012
*9916 PHY_EDGE_ROW_226_3_Right_554
*9917 PHY_EDGE_ROW_227_2_Left_57
*9918 PHY_EDGE_ROW_227_2_Right_1164
*9919 PHY_EDGE_ROW_227_3_Left_1013
*9920 PHY_EDGE_ROW_227_3_Right_555
*9921 PHY_EDGE_ROW_228_2_Left_58
*9922 PHY_EDGE_ROW_228_2_Right_1165
*9923 PHY_EDGE_ROW_228_3_Left_1014
*9924 PHY_EDGE_ROW_228_3_Right_556
*9925 PHY_EDGE_ROW_229_2_Left_59
*9926 PHY_EDGE_ROW_229_2_Right_1166
*9927 PHY_EDGE_ROW_229_3_Left_1015
*9928 PHY_EDGE_ROW_229_3_Right_557
*9929 PHY_EDGE_ROW_22_2_Left_174
*9930 PHY_EDGE_ROW_22_2_Right_818
*9931 PHY_EDGE_ROW_22_3_Left_669
*9932 PHY_EDGE_ROW_22_3_Right_361
*9933 PHY_EDGE_ROW_230_2_Left_60
*9934 PHY_EDGE_ROW_230_2_Right_1167
*9935 PHY_EDGE_ROW_230_3_Left_1016
*9936 PHY_EDGE_ROW_230_3_Right_558
*9937 PHY_EDGE_ROW_231_2_Left_61
*9938 PHY_EDGE_ROW_231_2_Right_1168
*9939 PHY_EDGE_ROW_231_3_Left_1017
*9940 PHY_EDGE_ROW_231_3_Right_559
*9941 PHY_EDGE_ROW_232_2_Left_62
*9942 PHY_EDGE_ROW_232_2_Right_1169
*9943 PHY_EDGE_ROW_232_3_Left_1018
*9944 PHY_EDGE_ROW_232_3_Right_560
*9945 PHY_EDGE_ROW_233_2_Left_63
*9946 PHY_EDGE_ROW_233_2_Right_1170
*9947 PHY_EDGE_ROW_233_3_Left_1019
*9948 PHY_EDGE_ROW_233_3_Right_561
*9949 PHY_EDGE_ROW_234_2_Left_64
*9950 PHY_EDGE_ROW_234_2_Right_1171
*9951 PHY_EDGE_ROW_234_3_Left_1020
*9952 PHY_EDGE_ROW_234_3_Right_562
*9953 PHY_EDGE_ROW_235_2_Left_65
*9954 PHY_EDGE_ROW_235_2_Right_1172
*9955 PHY_EDGE_ROW_235_3_Left_1021
*9956 PHY_EDGE_ROW_235_3_Right_563
*9957 PHY_EDGE_ROW_236_2_Left_66
*9958 PHY_EDGE_ROW_236_2_Right_1173
*9959 PHY_EDGE_ROW_236_3_Left_1022
*9960 PHY_EDGE_ROW_236_3_Right_564
*9961 PHY_EDGE_ROW_237_2_Left_67
*9962 PHY_EDGE_ROW_237_2_Right_1174
*9963 PHY_EDGE_ROW_237_3_Left_1023
*9964 PHY_EDGE_ROW_237_3_Right_565
*9965 PHY_EDGE_ROW_238_2_Left_68
*9966 PHY_EDGE_ROW_238_2_Right_1175
*9967 PHY_EDGE_ROW_238_3_Left_1024
*9968 PHY_EDGE_ROW_238_3_Right_566
*9969 PHY_EDGE_ROW_239_2_Left_69
*9970 PHY_EDGE_ROW_239_2_Right_1176
*9971 PHY_EDGE_ROW_239_3_Left_1025
*9972 PHY_EDGE_ROW_239_3_Right_567
*9973 PHY_EDGE_ROW_23_2_Left_175
*9974 PHY_EDGE_ROW_23_2_Right_819
*9975 PHY_EDGE_ROW_23_3_Left_670
*9976 PHY_EDGE_ROW_23_3_Right_362
*9977 PHY_EDGE_ROW_240_2_Left_70
*9978 PHY_EDGE_ROW_240_2_Right_1177
*9979 PHY_EDGE_ROW_240_3_Left_1026
*9980 PHY_EDGE_ROW_240_3_Right_568
*9981 PHY_EDGE_ROW_241_2_Left_71
*9982 PHY_EDGE_ROW_241_2_Right_1178
*9983 PHY_EDGE_ROW_241_3_Left_1027
*9984 PHY_EDGE_ROW_241_3_Right_569
*9985 PHY_EDGE_ROW_242_2_Left_72
*9986 PHY_EDGE_ROW_242_2_Right_1179
*9987 PHY_EDGE_ROW_242_3_Left_1028
*9988 PHY_EDGE_ROW_242_3_Right_570
*9989 PHY_EDGE_ROW_243_2_Left_73
*9990 PHY_EDGE_ROW_243_2_Right_1180
*9991 PHY_EDGE_ROW_243_3_Left_1029
*9992 PHY_EDGE_ROW_243_3_Right_571
*9993 PHY_EDGE_ROW_244_2_Left_74
*9994 PHY_EDGE_ROW_244_2_Right_1181
*9995 PHY_EDGE_ROW_244_3_Left_1030
*9996 PHY_EDGE_ROW_244_3_Right_572
*9997 PHY_EDGE_ROW_245_2_Left_75
*9998 PHY_EDGE_ROW_245_2_Right_1182
*9999 PHY_EDGE_ROW_245_3_Left_1031
*10000 PHY_EDGE_ROW_245_3_Right_573
*10001 PHY_EDGE_ROW_246_2_Left_76
*10002 PHY_EDGE_ROW_246_2_Right_1183
*10003 PHY_EDGE_ROW_246_3_Left_1032
*10004 PHY_EDGE_ROW_246_3_Right_574
*10005 PHY_EDGE_ROW_247_2_Left_77
*10006 PHY_EDGE_ROW_247_2_Right_1184
*10007 PHY_EDGE_ROW_247_3_Left_1033
*10008 PHY_EDGE_ROW_247_3_Right_575
*10009 PHY_EDGE_ROW_248_2_Left_78
*10010 PHY_EDGE_ROW_248_2_Right_1185
*10011 PHY_EDGE_ROW_248_3_Left_1034
*10012 PHY_EDGE_ROW_248_3_Right_576
*10013 PHY_EDGE_ROW_249_2_Left_79
*10014 PHY_EDGE_ROW_249_2_Right_1186
*10015 PHY_EDGE_ROW_249_3_Left_1035
*10016 PHY_EDGE_ROW_249_3_Right_577
*10017 PHY_EDGE_ROW_24_2_Left_176
*10018 PHY_EDGE_ROW_24_2_Right_820
*10019 PHY_EDGE_ROW_24_3_Left_671
*10020 PHY_EDGE_ROW_24_3_Right_363
*10021 PHY_EDGE_ROW_250_2_Left_80
*10022 PHY_EDGE_ROW_250_2_Right_1187
*10023 PHY_EDGE_ROW_250_3_Left_1036
*10024 PHY_EDGE_ROW_250_3_Right_578
*10025 PHY_EDGE_ROW_251_2_Left_81
*10026 PHY_EDGE_ROW_251_2_Right_1188
*10027 PHY_EDGE_ROW_251_3_Left_1037
*10028 PHY_EDGE_ROW_251_3_Right_579
*10029 PHY_EDGE_ROW_252_2_Left_82
*10030 PHY_EDGE_ROW_252_2_Right_1189
*10031 PHY_EDGE_ROW_252_3_Left_1038
*10032 PHY_EDGE_ROW_252_3_Right_580
*10033 PHY_EDGE_ROW_253_2_Left_83
*10034 PHY_EDGE_ROW_253_2_Right_1190
*10035 PHY_EDGE_ROW_253_3_Left_1039
*10036 PHY_EDGE_ROW_253_3_Right_581
*10037 PHY_EDGE_ROW_254_2_Left_84
*10038 PHY_EDGE_ROW_254_2_Right_1191
*10039 PHY_EDGE_ROW_254_3_Left_1040
*10040 PHY_EDGE_ROW_254_3_Right_582
*10041 PHY_EDGE_ROW_255_2_Left_85
*10042 PHY_EDGE_ROW_255_2_Right_1192
*10043 PHY_EDGE_ROW_255_3_Left_1041
*10044 PHY_EDGE_ROW_255_3_Right_583
*10045 PHY_EDGE_ROW_256_2_Left_86
*10046 PHY_EDGE_ROW_256_2_Right_1193
*10047 PHY_EDGE_ROW_256_3_Left_1042
*10048 PHY_EDGE_ROW_256_3_Right_584
*10049 PHY_EDGE_ROW_257_2_Left_87
*10050 PHY_EDGE_ROW_257_2_Right_1194
*10051 PHY_EDGE_ROW_257_3_Left_1043
*10052 PHY_EDGE_ROW_257_3_Right_585
*10053 PHY_EDGE_ROW_258_2_Left_88
*10054 PHY_EDGE_ROW_258_2_Right_1195
*10055 PHY_EDGE_ROW_258_3_Left_1044
*10056 PHY_EDGE_ROW_258_3_Right_586
*10057 PHY_EDGE_ROW_259_2_Left_89
*10058 PHY_EDGE_ROW_259_2_Right_1196
*10059 PHY_EDGE_ROW_259_3_Left_1045
*10060 PHY_EDGE_ROW_259_3_Right_587
*10061 PHY_EDGE_ROW_25_2_Left_177
*10062 PHY_EDGE_ROW_25_2_Right_821
*10063 PHY_EDGE_ROW_25_3_Left_672
*10064 PHY_EDGE_ROW_25_3_Right_364
*10065 PHY_EDGE_ROW_260_2_Left_90
*10066 PHY_EDGE_ROW_260_2_Right_1197
*10067 PHY_EDGE_ROW_260_3_Left_1046
*10068 PHY_EDGE_ROW_260_3_Right_588
*10069 PHY_EDGE_ROW_261_2_Left_91
*10070 PHY_EDGE_ROW_261_2_Right_1198
*10071 PHY_EDGE_ROW_261_3_Left_1047
*10072 PHY_EDGE_ROW_261_3_Right_589
*10073 PHY_EDGE_ROW_262_2_Left_92
*10074 PHY_EDGE_ROW_262_2_Right_1199
*10075 PHY_EDGE_ROW_262_3_Left_1048
*10076 PHY_EDGE_ROW_262_3_Right_590
*10077 PHY_EDGE_ROW_263_2_Left_93
*10078 PHY_EDGE_ROW_263_2_Right_1200
*10079 PHY_EDGE_ROW_263_3_Left_1049
*10080 PHY_EDGE_ROW_263_3_Right_591
*10081 PHY_EDGE_ROW_264_2_Left_94
*10082 PHY_EDGE_ROW_264_2_Right_1201
*10083 PHY_EDGE_ROW_264_3_Left_1050
*10084 PHY_EDGE_ROW_264_3_Right_592
*10085 PHY_EDGE_ROW_265_2_Left_95
*10086 PHY_EDGE_ROW_265_2_Right_1202
*10087 PHY_EDGE_ROW_265_3_Left_1051
*10088 PHY_EDGE_ROW_265_3_Right_593
*10089 PHY_EDGE_ROW_266_2_Left_96
*10090 PHY_EDGE_ROW_266_2_Right_1203
*10091 PHY_EDGE_ROW_266_3_Left_1052
*10092 PHY_EDGE_ROW_266_3_Right_594
*10093 PHY_EDGE_ROW_267_2_Left_97
*10094 PHY_EDGE_ROW_267_2_Right_1204
*10095 PHY_EDGE_ROW_267_3_Left_1053
*10096 PHY_EDGE_ROW_267_3_Right_595
*10097 PHY_EDGE_ROW_268_2_Left_98
*10098 PHY_EDGE_ROW_268_2_Right_1205
*10099 PHY_EDGE_ROW_268_3_Left_1054
*10100 PHY_EDGE_ROW_268_3_Right_596
*10101 PHY_EDGE_ROW_269_2_Left_99
*10102 PHY_EDGE_ROW_269_2_Right_1206
*10103 PHY_EDGE_ROW_269_3_Left_1055
*10104 PHY_EDGE_ROW_269_3_Right_597
*10105 PHY_EDGE_ROW_26_2_Left_178
*10106 PHY_EDGE_ROW_26_2_Right_822
*10107 PHY_EDGE_ROW_26_3_Left_673
*10108 PHY_EDGE_ROW_26_3_Right_365
*10109 PHY_EDGE_ROW_270_2_Left_100
*10110 PHY_EDGE_ROW_270_2_Right_1207
*10111 PHY_EDGE_ROW_270_3_Left_1056
*10112 PHY_EDGE_ROW_270_3_Right_598
*10113 PHY_EDGE_ROW_271_2_Left_101
*10114 PHY_EDGE_ROW_271_2_Right_1208
*10115 PHY_EDGE_ROW_271_3_Left_1057
*10116 PHY_EDGE_ROW_271_3_Right_599
*10117 PHY_EDGE_ROW_272_2_Left_102
*10118 PHY_EDGE_ROW_272_2_Right_1209
*10119 PHY_EDGE_ROW_272_3_Left_1058
*10120 PHY_EDGE_ROW_272_3_Right_600
*10121 PHY_EDGE_ROW_273_2_Left_103
*10122 PHY_EDGE_ROW_273_2_Right_1210
*10123 PHY_EDGE_ROW_273_3_Left_1059
*10124 PHY_EDGE_ROW_273_3_Right_601
*10125 PHY_EDGE_ROW_274_2_Left_104
*10126 PHY_EDGE_ROW_274_2_Right_1211
*10127 PHY_EDGE_ROW_274_3_Left_1060
*10128 PHY_EDGE_ROW_274_3_Right_602
*10129 PHY_EDGE_ROW_275_2_Left_105
*10130 PHY_EDGE_ROW_275_2_Right_1212
*10131 PHY_EDGE_ROW_275_3_Left_1061
*10132 PHY_EDGE_ROW_275_3_Right_603
*10133 PHY_EDGE_ROW_276_2_Left_106
*10134 PHY_EDGE_ROW_276_2_Right_1213
*10135 PHY_EDGE_ROW_276_3_Left_1062
*10136 PHY_EDGE_ROW_276_3_Right_604
*10137 PHY_EDGE_ROW_277_2_Left_107
*10138 PHY_EDGE_ROW_277_2_Right_1214
*10139 PHY_EDGE_ROW_277_3_Left_1063
*10140 PHY_EDGE_ROW_277_3_Right_605
*10141 PHY_EDGE_ROW_278_2_Left_108
*10142 PHY_EDGE_ROW_278_2_Right_1215
*10143 PHY_EDGE_ROW_278_3_Left_1064
*10144 PHY_EDGE_ROW_278_3_Right_606
*10145 PHY_EDGE_ROW_279_2_Left_109
*10146 PHY_EDGE_ROW_279_2_Right_1216
*10147 PHY_EDGE_ROW_279_3_Left_1065
*10148 PHY_EDGE_ROW_279_3_Right_607
*10149 PHY_EDGE_ROW_27_2_Left_179
*10150 PHY_EDGE_ROW_27_2_Right_823
*10151 PHY_EDGE_ROW_27_3_Left_674
*10152 PHY_EDGE_ROW_27_3_Right_366
*10153 PHY_EDGE_ROW_280_2_Left_110
*10154 PHY_EDGE_ROW_280_2_Right_1217
*10155 PHY_EDGE_ROW_280_3_Left_1066
*10156 PHY_EDGE_ROW_280_3_Right_608
*10157 PHY_EDGE_ROW_281_2_Left_111
*10158 PHY_EDGE_ROW_281_2_Right_1218
*10159 PHY_EDGE_ROW_281_3_Left_1067
*10160 PHY_EDGE_ROW_281_3_Right_609
*10161 PHY_EDGE_ROW_282_2_Left_112
*10162 PHY_EDGE_ROW_282_2_Right_1219
*10163 PHY_EDGE_ROW_282_3_Left_1068
*10164 PHY_EDGE_ROW_282_3_Right_610
*10165 PHY_EDGE_ROW_283_2_Left_113
*10166 PHY_EDGE_ROW_283_2_Right_1220
*10167 PHY_EDGE_ROW_283_3_Left_1069
*10168 PHY_EDGE_ROW_283_3_Right_611
*10169 PHY_EDGE_ROW_284_2_Left_114
*10170 PHY_EDGE_ROW_284_2_Right_1221
*10171 PHY_EDGE_ROW_284_3_Left_1070
*10172 PHY_EDGE_ROW_284_3_Right_612
*10173 PHY_EDGE_ROW_285_2_Left_115
*10174 PHY_EDGE_ROW_285_2_Right_1222
*10175 PHY_EDGE_ROW_285_3_Left_1071
*10176 PHY_EDGE_ROW_285_3_Right_613
*10177 PHY_EDGE_ROW_286_2_Left_116
*10178 PHY_EDGE_ROW_286_2_Right_1223
*10179 PHY_EDGE_ROW_286_3_Left_1072
*10180 PHY_EDGE_ROW_286_3_Right_614
*10181 PHY_EDGE_ROW_287_2_Left_117
*10182 PHY_EDGE_ROW_287_2_Right_1224
*10183 PHY_EDGE_ROW_287_3_Left_1073
*10184 PHY_EDGE_ROW_287_3_Right_615
*10185 PHY_EDGE_ROW_288_2_Left_118
*10186 PHY_EDGE_ROW_288_2_Right_1225
*10187 PHY_EDGE_ROW_288_3_Left_1074
*10188 PHY_EDGE_ROW_288_3_Right_616
*10189 PHY_EDGE_ROW_289_2_Left_119
*10190 PHY_EDGE_ROW_289_2_Right_1226
*10191 PHY_EDGE_ROW_289_3_Left_1075
*10192 PHY_EDGE_ROW_289_3_Right_617
*10193 PHY_EDGE_ROW_28_2_Left_180
*10194 PHY_EDGE_ROW_28_2_Right_824
*10195 PHY_EDGE_ROW_28_3_Left_675
*10196 PHY_EDGE_ROW_28_3_Right_367
*10197 PHY_EDGE_ROW_290_2_Left_120
*10198 PHY_EDGE_ROW_290_2_Right_1227
*10199 PHY_EDGE_ROW_290_3_Left_1076
*10200 PHY_EDGE_ROW_290_3_Right_618
*10201 PHY_EDGE_ROW_291_2_Left_121
*10202 PHY_EDGE_ROW_291_2_Right_1228
*10203 PHY_EDGE_ROW_291_3_Left_1077
*10204 PHY_EDGE_ROW_291_3_Right_619
*10205 PHY_EDGE_ROW_292_2_Left_122
*10206 PHY_EDGE_ROW_292_2_Right_1229
*10207 PHY_EDGE_ROW_292_3_Left_1078
*10208 PHY_EDGE_ROW_292_3_Right_620
*10209 PHY_EDGE_ROW_293_2_Left_123
*10210 PHY_EDGE_ROW_293_2_Right_1230
*10211 PHY_EDGE_ROW_293_3_Left_1079
*10212 PHY_EDGE_ROW_293_3_Right_621
*10213 PHY_EDGE_ROW_294_2_Left_124
*10214 PHY_EDGE_ROW_294_2_Right_1231
*10215 PHY_EDGE_ROW_294_3_Left_1080
*10216 PHY_EDGE_ROW_294_3_Right_622
*10217 PHY_EDGE_ROW_295_2_Left_125
*10218 PHY_EDGE_ROW_295_2_Right_1232
*10219 PHY_EDGE_ROW_295_3_Left_1081
*10220 PHY_EDGE_ROW_295_3_Right_623
*10221 PHY_EDGE_ROW_296_2_Left_126
*10222 PHY_EDGE_ROW_296_2_Right_1233
*10223 PHY_EDGE_ROW_296_3_Left_1082
*10224 PHY_EDGE_ROW_296_3_Right_624
*10225 PHY_EDGE_ROW_297_2_Left_127
*10226 PHY_EDGE_ROW_297_2_Right_1234
*10227 PHY_EDGE_ROW_297_3_Left_1083
*10228 PHY_EDGE_ROW_297_3_Right_625
*10229 PHY_EDGE_ROW_298_2_Left_128
*10230 PHY_EDGE_ROW_298_2_Right_1235
*10231 PHY_EDGE_ROW_298_3_Left_1084
*10232 PHY_EDGE_ROW_298_3_Right_626
*10233 PHY_EDGE_ROW_299_2_Left_129
*10234 PHY_EDGE_ROW_299_2_Right_1236
*10235 PHY_EDGE_ROW_299_3_Left_1085
*10236 PHY_EDGE_ROW_299_3_Right_627
*10237 PHY_EDGE_ROW_29_2_Left_181
*10238 PHY_EDGE_ROW_29_2_Right_825
*10239 PHY_EDGE_ROW_29_3_Left_676
*10240 PHY_EDGE_ROW_29_3_Right_368
*10241 PHY_EDGE_ROW_2_Left_314
*10242 PHY_EDGE_ROW_2_Right_323
*10243 PHY_EDGE_ROW_300_2_Left_130
*10244 PHY_EDGE_ROW_300_2_Right_1237
*10245 PHY_EDGE_ROW_300_3_Left_1086
*10246 PHY_EDGE_ROW_300_3_Right_628
*10247 PHY_EDGE_ROW_301_2_Left_131
*10248 PHY_EDGE_ROW_301_2_Right_1238
*10249 PHY_EDGE_ROW_301_3_Left_1087
*10250 PHY_EDGE_ROW_301_3_Right_629
*10251 PHY_EDGE_ROW_302_2_Left_132
*10252 PHY_EDGE_ROW_302_2_Right_1239
*10253 PHY_EDGE_ROW_302_3_Left_1088
*10254 PHY_EDGE_ROW_302_3_Right_630
*10255 PHY_EDGE_ROW_303_2_Left_133
*10256 PHY_EDGE_ROW_303_2_Right_1240
*10257 PHY_EDGE_ROW_303_3_Left_1089
*10258 PHY_EDGE_ROW_303_3_Right_631
*10259 PHY_EDGE_ROW_304_2_Left_134
*10260 PHY_EDGE_ROW_304_2_Right_1241
*10261 PHY_EDGE_ROW_304_3_Left_1090
*10262 PHY_EDGE_ROW_304_3_Right_632
*10263 PHY_EDGE_ROW_305_2_Left_135
*10264 PHY_EDGE_ROW_305_2_Right_1242
*10265 PHY_EDGE_ROW_305_3_Left_1091
*10266 PHY_EDGE_ROW_305_3_Right_633
*10267 PHY_EDGE_ROW_306_2_Left_136
*10268 PHY_EDGE_ROW_306_2_Right_1243
*10269 PHY_EDGE_ROW_306_3_Left_1092
*10270 PHY_EDGE_ROW_306_3_Right_634
*10271 PHY_EDGE_ROW_307_2_Left_137
*10272 PHY_EDGE_ROW_307_2_Right_1244
*10273 PHY_EDGE_ROW_307_3_Left_1093
*10274 PHY_EDGE_ROW_307_3_Right_635
*10275 PHY_EDGE_ROW_308_2_Left_138
*10276 PHY_EDGE_ROW_308_2_Right_1245
*10277 PHY_EDGE_ROW_308_3_Left_1094
*10278 PHY_EDGE_ROW_308_3_Right_636
*10279 PHY_EDGE_ROW_309_2_Left_139
*10280 PHY_EDGE_ROW_309_2_Right_1246
*10281 PHY_EDGE_ROW_309_3_Left_1095
*10282 PHY_EDGE_ROW_309_3_Right_637
*10283 PHY_EDGE_ROW_30_2_Left_182
*10284 PHY_EDGE_ROW_30_2_Right_826
*10285 PHY_EDGE_ROW_30_3_Left_677
*10286 PHY_EDGE_ROW_30_3_Right_369
*10287 PHY_EDGE_ROW_310_2_Left_140
*10288 PHY_EDGE_ROW_310_2_Right_1247
*10289 PHY_EDGE_ROW_310_3_Left_1096
*10290 PHY_EDGE_ROW_310_3_Right_638
*10291 PHY_EDGE_ROW_311_2_Left_141
*10292 PHY_EDGE_ROW_311_2_Right_1248
*10293 PHY_EDGE_ROW_311_3_Left_1097
*10294 PHY_EDGE_ROW_311_3_Right_639
*10295 PHY_EDGE_ROW_312_2_Left_142
*10296 PHY_EDGE_ROW_312_2_Right_1249
*10297 PHY_EDGE_ROW_312_3_Left_1098
*10298 PHY_EDGE_ROW_312_3_Right_640
*10299 PHY_EDGE_ROW_313_2_Left_143
*10300 PHY_EDGE_ROW_313_2_Right_1250
*10301 PHY_EDGE_ROW_313_3_Left_1099
*10302 PHY_EDGE_ROW_313_3_Right_641
*10303 PHY_EDGE_ROW_314_2_Left_144
*10304 PHY_EDGE_ROW_314_2_Right_1251
*10305 PHY_EDGE_ROW_314_3_Left_1100
*10306 PHY_EDGE_ROW_314_3_Right_642
*10307 PHY_EDGE_ROW_315_2_Left_145
*10308 PHY_EDGE_ROW_315_2_Right_1252
*10309 PHY_EDGE_ROW_315_3_Left_1101
*10310 PHY_EDGE_ROW_315_3_Right_643
*10311 PHY_EDGE_ROW_316_2_Left_146
*10312 PHY_EDGE_ROW_316_2_Right_1253
*10313 PHY_EDGE_ROW_316_3_Left_1102
*10314 PHY_EDGE_ROW_316_3_Right_644
*10315 PHY_EDGE_ROW_317_2_Left_147
*10316 PHY_EDGE_ROW_317_2_Right_1254
*10317 PHY_EDGE_ROW_317_3_Left_1103
*10318 PHY_EDGE_ROW_317_3_Right_645
*10319 PHY_EDGE_ROW_318_2_Left_148
*10320 PHY_EDGE_ROW_318_2_Right_1255
*10321 PHY_EDGE_ROW_318_3_Left_1104
*10322 PHY_EDGE_ROW_318_3_Right_646
*10323 PHY_EDGE_ROW_319_2_Left_149
*10324 PHY_EDGE_ROW_319_2_Right_1256
*10325 PHY_EDGE_ROW_319_3_Left_1105
*10326 PHY_EDGE_ROW_319_3_Right_647
*10327 PHY_EDGE_ROW_31_2_Left_183
*10328 PHY_EDGE_ROW_31_2_Right_827
*10329 PHY_EDGE_ROW_31_3_Left_678
*10330 PHY_EDGE_ROW_31_3_Right_370
*10331 PHY_EDGE_ROW_320_2_Left_150
*10332 PHY_EDGE_ROW_320_2_Right_1257
*10333 PHY_EDGE_ROW_320_3_Left_1106
*10334 PHY_EDGE_ROW_320_3_Right_648
*10335 PHY_EDGE_ROW_321_Left_649
*10336 PHY_EDGE_ROW_321_Right_341
*10337 PHY_EDGE_ROW_322_Left_650
*10338 PHY_EDGE_ROW_322_Right_342
*10339 PHY_EDGE_ROW_323_Left_651
*10340 PHY_EDGE_ROW_323_Right_343
*10341 PHY_EDGE_ROW_324_Left_652
*10342 PHY_EDGE_ROW_324_Right_344
*10343 PHY_EDGE_ROW_325_Left_653
*10344 PHY_EDGE_ROW_325_Right_345
*10345 PHY_EDGE_ROW_326_Left_654
*10346 PHY_EDGE_ROW_326_Right_346
*10347 PHY_EDGE_ROW_327_Left_655
*10348 PHY_EDGE_ROW_327_Right_347
*10349 PHY_EDGE_ROW_32_2_Left_184
*10350 PHY_EDGE_ROW_32_2_Right_828
*10351 PHY_EDGE_ROW_32_3_Left_679
*10352 PHY_EDGE_ROW_32_3_Right_371
*10353 PHY_EDGE_ROW_33_2_Left_185
*10354 PHY_EDGE_ROW_33_2_Right_829
*10355 PHY_EDGE_ROW_33_3_Left_680
*10356 PHY_EDGE_ROW_33_3_Right_372
*10357 PHY_EDGE_ROW_34_2_Left_186
*10358 PHY_EDGE_ROW_34_2_Right_830
*10359 PHY_EDGE_ROW_34_3_Left_681
*10360 PHY_EDGE_ROW_34_3_Right_373
*10361 PHY_EDGE_ROW_35_2_Left_187
*10362 PHY_EDGE_ROW_35_2_Right_831
*10363 PHY_EDGE_ROW_35_3_Left_682
*10364 PHY_EDGE_ROW_35_3_Right_374
*10365 PHY_EDGE_ROW_36_2_Left_188
*10366 PHY_EDGE_ROW_36_2_Right_832
*10367 PHY_EDGE_ROW_36_3_Left_683
*10368 PHY_EDGE_ROW_36_3_Right_375
*10369 PHY_EDGE_ROW_37_2_Left_189
*10370 PHY_EDGE_ROW_37_2_Right_833
*10371 PHY_EDGE_ROW_37_3_Left_684
*10372 PHY_EDGE_ROW_37_3_Right_376
*10373 PHY_EDGE_ROW_38_2_Left_190
*10374 PHY_EDGE_ROW_38_2_Right_834
*10375 PHY_EDGE_ROW_38_3_Left_685
*10376 PHY_EDGE_ROW_38_3_Right_377
*10377 PHY_EDGE_ROW_39_2_Left_191
*10378 PHY_EDGE_ROW_39_2_Right_835
*10379 PHY_EDGE_ROW_39_3_Left_686
*10380 PHY_EDGE_ROW_39_3_Right_378
*10381 PHY_EDGE_ROW_3_Left_315
*10382 PHY_EDGE_ROW_3_Right_324
*10383 PHY_EDGE_ROW_40_2_Left_192
*10384 PHY_EDGE_ROW_40_2_Right_836
*10385 PHY_EDGE_ROW_40_3_Left_687
*10386 PHY_EDGE_ROW_40_3_Right_379
*10387 PHY_EDGE_ROW_41_2_Left_193
*10388 PHY_EDGE_ROW_41_2_Right_837
*10389 PHY_EDGE_ROW_41_3_Left_688
*10390 PHY_EDGE_ROW_41_3_Right_380
*10391 PHY_EDGE_ROW_42_2_Left_194
*10392 PHY_EDGE_ROW_42_2_Right_838
*10393 PHY_EDGE_ROW_42_3_Left_689
*10394 PHY_EDGE_ROW_42_3_Right_381
*10395 PHY_EDGE_ROW_43_2_Left_195
*10396 PHY_EDGE_ROW_43_2_Right_839
*10397 PHY_EDGE_ROW_43_3_Left_690
*10398 PHY_EDGE_ROW_43_3_Right_382
*10399 PHY_EDGE_ROW_44_2_Left_196
*10400 PHY_EDGE_ROW_44_2_Right_840
*10401 PHY_EDGE_ROW_44_3_Left_691
*10402 PHY_EDGE_ROW_44_3_Right_383
*10403 PHY_EDGE_ROW_45_2_Left_197
*10404 PHY_EDGE_ROW_45_2_Right_841
*10405 PHY_EDGE_ROW_45_3_Left_692
*10406 PHY_EDGE_ROW_45_3_Right_384
*10407 PHY_EDGE_ROW_46_2_Left_198
*10408 PHY_EDGE_ROW_46_2_Right_842
*10409 PHY_EDGE_ROW_46_3_Left_693
*10410 PHY_EDGE_ROW_46_3_Right_385
*10411 PHY_EDGE_ROW_47_2_Left_199
*10412 PHY_EDGE_ROW_47_2_Right_843
*10413 PHY_EDGE_ROW_47_3_Left_694
*10414 PHY_EDGE_ROW_47_3_Right_386
*10415 PHY_EDGE_ROW_48_2_Left_200
*10416 PHY_EDGE_ROW_48_2_Right_844
*10417 PHY_EDGE_ROW_48_3_Left_695
*10418 PHY_EDGE_ROW_48_3_Right_387
*10419 PHY_EDGE_ROW_49_2_Left_201
*10420 PHY_EDGE_ROW_49_2_Right_845
*10421 PHY_EDGE_ROW_49_3_Left_696
*10422 PHY_EDGE_ROW_49_3_Right_388
*10423 PHY_EDGE_ROW_4_Left_316
*10424 PHY_EDGE_ROW_4_Right_325
*10425 PHY_EDGE_ROW_50_2_Left_202
*10426 PHY_EDGE_ROW_50_2_Right_846
*10427 PHY_EDGE_ROW_50_3_Left_697
*10428 PHY_EDGE_ROW_50_3_Right_389
*10429 PHY_EDGE_ROW_51_2_Left_203
*10430 PHY_EDGE_ROW_51_2_Right_847
*10431 PHY_EDGE_ROW_51_3_Left_698
*10432 PHY_EDGE_ROW_51_3_Right_390
*10433 PHY_EDGE_ROW_52_2_Left_204
*10434 PHY_EDGE_ROW_52_2_Right_848
*10435 PHY_EDGE_ROW_52_3_Left_699
*10436 PHY_EDGE_ROW_52_3_Right_391
*10437 PHY_EDGE_ROW_53_2_Left_205
*10438 PHY_EDGE_ROW_53_2_Right_849
*10439 PHY_EDGE_ROW_53_3_Left_700
*10440 PHY_EDGE_ROW_53_3_Right_392
*10441 PHY_EDGE_ROW_54_2_Left_206
*10442 PHY_EDGE_ROW_54_2_Right_850
*10443 PHY_EDGE_ROW_54_3_Left_701
*10444 PHY_EDGE_ROW_54_3_Right_393
*10445 PHY_EDGE_ROW_55_2_Left_207
*10446 PHY_EDGE_ROW_55_2_Right_851
*10447 PHY_EDGE_ROW_55_3_Left_702
*10448 PHY_EDGE_ROW_55_3_Right_394
*10449 PHY_EDGE_ROW_56_2_Left_208
*10450 PHY_EDGE_ROW_56_2_Right_852
*10451 PHY_EDGE_ROW_56_3_Left_703
*10452 PHY_EDGE_ROW_56_3_Right_395
*10453 PHY_EDGE_ROW_57_2_Left_209
*10454 PHY_EDGE_ROW_57_2_Right_853
*10455 PHY_EDGE_ROW_57_3_Left_704
*10456 PHY_EDGE_ROW_57_3_Right_396
*10457 PHY_EDGE_ROW_58_2_Left_210
*10458 PHY_EDGE_ROW_58_2_Right_854
*10459 PHY_EDGE_ROW_58_3_Left_705
*10460 PHY_EDGE_ROW_58_3_Right_397
*10461 PHY_EDGE_ROW_59_2_Left_211
*10462 PHY_EDGE_ROW_59_2_Right_855
*10463 PHY_EDGE_ROW_59_3_Left_706
*10464 PHY_EDGE_ROW_59_3_Right_398
*10465 PHY_EDGE_ROW_5_Left_317
*10466 PHY_EDGE_ROW_5_Right_326
*10467 PHY_EDGE_ROW_60_2_Left_212
*10468 PHY_EDGE_ROW_60_2_Right_856
*10469 PHY_EDGE_ROW_60_3_Left_707
*10470 PHY_EDGE_ROW_60_3_Right_399
*10471 PHY_EDGE_ROW_61_2_Left_213
*10472 PHY_EDGE_ROW_61_2_Right_857
*10473 PHY_EDGE_ROW_61_3_Left_708
*10474 PHY_EDGE_ROW_61_3_Right_400
*10475 PHY_EDGE_ROW_62_2_Left_214
*10476 PHY_EDGE_ROW_62_2_Right_858
*10477 PHY_EDGE_ROW_62_3_Left_709
*10478 PHY_EDGE_ROW_62_3_Right_401
*10479 PHY_EDGE_ROW_63_2_Left_215
*10480 PHY_EDGE_ROW_63_2_Right_859
*10481 PHY_EDGE_ROW_63_3_Left_710
*10482 PHY_EDGE_ROW_63_3_Right_402
*10483 PHY_EDGE_ROW_64_2_Left_216
*10484 PHY_EDGE_ROW_64_2_Right_860
*10485 PHY_EDGE_ROW_64_3_Left_711
*10486 PHY_EDGE_ROW_64_3_Right_403
*10487 PHY_EDGE_ROW_65_2_Left_217
*10488 PHY_EDGE_ROW_65_2_Right_861
*10489 PHY_EDGE_ROW_65_3_Left_712
*10490 PHY_EDGE_ROW_65_3_Right_404
*10491 PHY_EDGE_ROW_66_2_Left_218
*10492 PHY_EDGE_ROW_66_2_Right_862
*10493 PHY_EDGE_ROW_66_3_Left_713
*10494 PHY_EDGE_ROW_66_3_Right_405
*10495 PHY_EDGE_ROW_67_2_Left_219
*10496 PHY_EDGE_ROW_67_2_Right_863
*10497 PHY_EDGE_ROW_67_3_Left_714
*10498 PHY_EDGE_ROW_67_3_Right_406
*10499 PHY_EDGE_ROW_68_2_Left_220
*10500 PHY_EDGE_ROW_68_2_Right_864
*10501 PHY_EDGE_ROW_68_3_Left_715
*10502 PHY_EDGE_ROW_68_3_Right_407
*10503 PHY_EDGE_ROW_69_2_Left_221
*10504 PHY_EDGE_ROW_69_2_Right_865
*10505 PHY_EDGE_ROW_69_3_Left_716
*10506 PHY_EDGE_ROW_69_3_Right_408
*10507 PHY_EDGE_ROW_6_Left_318
*10508 PHY_EDGE_ROW_6_Right_327
*10509 PHY_EDGE_ROW_70_2_Left_222
*10510 PHY_EDGE_ROW_70_2_Right_866
*10511 PHY_EDGE_ROW_70_3_Left_717
*10512 PHY_EDGE_ROW_70_3_Right_409
*10513 PHY_EDGE_ROW_71_2_Left_223
*10514 PHY_EDGE_ROW_71_2_Right_867
*10515 PHY_EDGE_ROW_71_3_Left_718
*10516 PHY_EDGE_ROW_71_3_Right_410
*10517 PHY_EDGE_ROW_72_2_Left_224
*10518 PHY_EDGE_ROW_72_2_Right_868
*10519 PHY_EDGE_ROW_72_3_Left_719
*10520 PHY_EDGE_ROW_72_3_Right_411
*10521 PHY_EDGE_ROW_73_2_Left_225
*10522 PHY_EDGE_ROW_73_2_Right_869
*10523 PHY_EDGE_ROW_73_3_Left_720
*10524 PHY_EDGE_ROW_73_3_Right_412
*10525 PHY_EDGE_ROW_74_2_Left_226
*10526 PHY_EDGE_ROW_74_2_Right_870
*10527 PHY_EDGE_ROW_74_3_Left_721
*10528 PHY_EDGE_ROW_74_3_Right_413
*10529 PHY_EDGE_ROW_75_2_Left_227
*10530 PHY_EDGE_ROW_75_2_Right_871
*10531 PHY_EDGE_ROW_75_3_Left_722
*10532 PHY_EDGE_ROW_75_3_Right_414
*10533 PHY_EDGE_ROW_76_2_Left_228
*10534 PHY_EDGE_ROW_76_2_Right_872
*10535 PHY_EDGE_ROW_76_3_Left_723
*10536 PHY_EDGE_ROW_76_3_Right_415
*10537 PHY_EDGE_ROW_77_2_Left_229
*10538 PHY_EDGE_ROW_77_2_Right_873
*10539 PHY_EDGE_ROW_77_3_Left_724
*10540 PHY_EDGE_ROW_77_3_Right_416
*10541 PHY_EDGE_ROW_78_2_Left_230
*10542 PHY_EDGE_ROW_78_2_Right_874
*10543 PHY_EDGE_ROW_78_3_Left_725
*10544 PHY_EDGE_ROW_78_3_Right_417
*10545 PHY_EDGE_ROW_79_2_Left_231
*10546 PHY_EDGE_ROW_79_2_Right_875
*10547 PHY_EDGE_ROW_79_3_Left_726
*10548 PHY_EDGE_ROW_79_3_Right_418
*10549 PHY_EDGE_ROW_7_Left_319
*10550 PHY_EDGE_ROW_7_Right_328
*10551 PHY_EDGE_ROW_80_2_Left_232
*10552 PHY_EDGE_ROW_80_2_Right_876
*10553 PHY_EDGE_ROW_80_3_Left_727
*10554 PHY_EDGE_ROW_80_3_Right_419
*10555 PHY_EDGE_ROW_81_2_Left_233
*10556 PHY_EDGE_ROW_81_2_Right_877
*10557 PHY_EDGE_ROW_81_3_Left_728
*10558 PHY_EDGE_ROW_81_3_Right_420
*10559 PHY_EDGE_ROW_82_2_Left_234
*10560 PHY_EDGE_ROW_82_2_Right_878
*10561 PHY_EDGE_ROW_82_3_Left_729
*10562 PHY_EDGE_ROW_82_3_Right_421
*10563 PHY_EDGE_ROW_83_2_Left_235
*10564 PHY_EDGE_ROW_83_2_Right_879
*10565 PHY_EDGE_ROW_83_3_Left_730
*10566 PHY_EDGE_ROW_83_3_Right_422
*10567 PHY_EDGE_ROW_84_2_Left_236
*10568 PHY_EDGE_ROW_84_2_Right_880
*10569 PHY_EDGE_ROW_84_3_Left_731
*10570 PHY_EDGE_ROW_84_3_Right_423
*10571 PHY_EDGE_ROW_85_2_Left_237
*10572 PHY_EDGE_ROW_85_2_Right_881
*10573 PHY_EDGE_ROW_85_3_Left_732
*10574 PHY_EDGE_ROW_85_3_Right_424
*10575 PHY_EDGE_ROW_86_2_Left_238
*10576 PHY_EDGE_ROW_86_2_Right_882
*10577 PHY_EDGE_ROW_86_3_Left_733
*10578 PHY_EDGE_ROW_86_3_Right_425
*10579 PHY_EDGE_ROW_87_2_Left_239
*10580 PHY_EDGE_ROW_87_2_Right_883
*10581 PHY_EDGE_ROW_87_3_Left_734
*10582 PHY_EDGE_ROW_87_3_Right_426
*10583 PHY_EDGE_ROW_88_2_Left_240
*10584 PHY_EDGE_ROW_88_2_Right_884
*10585 PHY_EDGE_ROW_88_3_Left_735
*10586 PHY_EDGE_ROW_88_3_Right_427
*10587 PHY_EDGE_ROW_89_2_Left_241
*10588 PHY_EDGE_ROW_89_2_Right_885
*10589 PHY_EDGE_ROW_89_3_Left_736
*10590 PHY_EDGE_ROW_89_3_Right_428
*10591 PHY_EDGE_ROW_8_Left_320
*10592 PHY_EDGE_ROW_8_Right_329
*10593 PHY_EDGE_ROW_90_2_Left_242
*10594 PHY_EDGE_ROW_90_2_Right_886
*10595 PHY_EDGE_ROW_90_3_Left_737
*10596 PHY_EDGE_ROW_90_3_Right_429
*10597 PHY_EDGE_ROW_91_2_Left_243
*10598 PHY_EDGE_ROW_91_2_Right_887
*10599 PHY_EDGE_ROW_91_3_Left_738
*10600 PHY_EDGE_ROW_91_3_Right_430
*10601 PHY_EDGE_ROW_92_2_Left_244
*10602 PHY_EDGE_ROW_92_2_Right_888
*10603 PHY_EDGE_ROW_92_3_Left_739
*10604 PHY_EDGE_ROW_92_3_Right_431
*10605 PHY_EDGE_ROW_93_2_Left_245
*10606 PHY_EDGE_ROW_93_2_Right_889
*10607 PHY_EDGE_ROW_93_3_Left_740
*10608 PHY_EDGE_ROW_93_3_Right_432
*10609 PHY_EDGE_ROW_94_2_Left_246
*10610 PHY_EDGE_ROW_94_2_Right_890
*10611 PHY_EDGE_ROW_94_3_Left_741
*10612 PHY_EDGE_ROW_94_3_Right_433
*10613 PHY_EDGE_ROW_95_2_Left_247
*10614 PHY_EDGE_ROW_95_2_Right_891
*10615 PHY_EDGE_ROW_95_3_Left_742
*10616 PHY_EDGE_ROW_95_3_Right_434
*10617 PHY_EDGE_ROW_96_2_Left_248
*10618 PHY_EDGE_ROW_96_2_Right_892
*10619 PHY_EDGE_ROW_96_3_Left_743
*10620 PHY_EDGE_ROW_96_3_Right_435
*10621 PHY_EDGE_ROW_97_2_Left_249
*10622 PHY_EDGE_ROW_97_2_Right_893
*10623 PHY_EDGE_ROW_97_3_Left_744
*10624 PHY_EDGE_ROW_97_3_Right_436
*10625 PHY_EDGE_ROW_98_2_Left_250
*10626 PHY_EDGE_ROW_98_2_Right_894
*10627 PHY_EDGE_ROW_98_3_Left_745
*10628 PHY_EDGE_ROW_98_3_Right_437
*10629 PHY_EDGE_ROW_99_2_Left_251
*10630 PHY_EDGE_ROW_99_2_Right_895
*10631 PHY_EDGE_ROW_99_3_Left_746
*10632 PHY_EDGE_ROW_99_3_Right_438
*10633 PHY_EDGE_ROW_9_2_Left_311
*10634 PHY_EDGE_ROW_9_2_Right_955
*10635 PHY_EDGE_ROW_9_3_Left_656
*10636 PHY_EDGE_ROW_9_3_Right_348
*10637 TAP_TAPCELL_ROW_0_1258
*10638 TAP_TAPCELL_ROW_0_1259
*10639 TAP_TAPCELL_ROW_0_1260
*10640 TAP_TAPCELL_ROW_0_1261
*10641 TAP_TAPCELL_ROW_0_1262
*10642 TAP_TAPCELL_ROW_0_1263
*10643 TAP_TAPCELL_ROW_0_1264
*10644 TAP_TAPCELL_ROW_0_1265
*10645 TAP_TAPCELL_ROW_0_1266
*10646 TAP_TAPCELL_ROW_0_1267
*10647 TAP_TAPCELL_ROW_0_1268
*10648 TAP_TAPCELL_ROW_0_1269
*10649 TAP_TAPCELL_ROW_0_1270
*10650 TAP_TAPCELL_ROW_0_1271
*10651 TAP_TAPCELL_ROW_0_1272
*10652 TAP_TAPCELL_ROW_0_1273
*10653 TAP_TAPCELL_ROW_0_1274
*10654 TAP_TAPCELL_ROW_0_1275
*10655 TAP_TAPCELL_ROW_0_1276
*10656 TAP_TAPCELL_ROW_0_1277
*10657 TAP_TAPCELL_ROW_0_1278
*10658 TAP_TAPCELL_ROW_0_1279
*10659 TAP_TAPCELL_ROW_0_1280
*10660 TAP_TAPCELL_ROW_0_1281
*10661 TAP_TAPCELL_ROW_0_1282
*10662 TAP_TAPCELL_ROW_0_1283
*10663 TAP_TAPCELL_ROW_0_1284
*10664 TAP_TAPCELL_ROW_0_1285
*10665 TAP_TAPCELL_ROW_0_1286
*10666 TAP_TAPCELL_ROW_0_1287
*10667 TAP_TAPCELL_ROW_0_1288
*10668 TAP_TAPCELL_ROW_0_1289
*10669 TAP_TAPCELL_ROW_0_1290
*10670 TAP_TAPCELL_ROW_0_1291
*10671 TAP_TAPCELL_ROW_0_1292
*10672 TAP_TAPCELL_ROW_0_1293
*10673 TAP_TAPCELL_ROW_0_1294
*10674 TAP_TAPCELL_ROW_0_1295
*10675 TAP_TAPCELL_ROW_0_1296
*10676 TAP_TAPCELL_ROW_0_1297
*10677 TAP_TAPCELL_ROW_0_1298
*10678 TAP_TAPCELL_ROW_0_1299
*10679 TAP_TAPCELL_ROW_0_1300
*10680 TAP_TAPCELL_ROW_0_1301
*10681 TAP_TAPCELL_ROW_0_1302
*10682 TAP_TAPCELL_ROW_0_1303
*10683 TAP_TAPCELL_ROW_0_1304
*10684 TAP_TAPCELL_ROW_0_1305
*10685 TAP_TAPCELL_ROW_0_1306
*10686 TAP_TAPCELL_ROW_0_1307
*10687 TAP_TAPCELL_ROW_0_1308
*10688 TAP_TAPCELL_ROW_0_1309
*10689 TAP_TAPCELL_ROW_0_1310
*10690 TAP_TAPCELL_ROW_100_2_1594
*10691 TAP_TAPCELL_ROW_100_3_2329
*10692 TAP_TAPCELL_ROW_102_2_1595
*10693 TAP_TAPCELL_ROW_102_3_2330
*10694 TAP_TAPCELL_ROW_104_2_1596
*10695 TAP_TAPCELL_ROW_104_3_2331
*10696 TAP_TAPCELL_ROW_106_2_1597
*10697 TAP_TAPCELL_ROW_106_3_2332
*10698 TAP_TAPCELL_ROW_108_2_1598
*10699 TAP_TAPCELL_ROW_108_3_2333
*10700 TAP_TAPCELL_ROW_10_2_1549
*10701 TAP_TAPCELL_ROW_10_3_2284
*10702 TAP_TAPCELL_ROW_110_2_1599
*10703 TAP_TAPCELL_ROW_110_3_2334
*10704 TAP_TAPCELL_ROW_112_2_1600
*10705 TAP_TAPCELL_ROW_112_3_2335
*10706 TAP_TAPCELL_ROW_114_2_1601
*10707 TAP_TAPCELL_ROW_114_3_2336
*10708 TAP_TAPCELL_ROW_116_2_1602
*10709 TAP_TAPCELL_ROW_116_3_2337
*10710 TAP_TAPCELL_ROW_118_2_1603
*10711 TAP_TAPCELL_ROW_118_3_2338
*10712 TAP_TAPCELL_ROW_120_2_1604
*10713 TAP_TAPCELL_ROW_120_3_2339
*10714 TAP_TAPCELL_ROW_122_2_1605
*10715 TAP_TAPCELL_ROW_122_3_2340
*10716 TAP_TAPCELL_ROW_124_2_1606
*10717 TAP_TAPCELL_ROW_124_3_2341
*10718 TAP_TAPCELL_ROW_126_2_1607
*10719 TAP_TAPCELL_ROW_126_3_2342
*10720 TAP_TAPCELL_ROW_128_2_1608
*10721 TAP_TAPCELL_ROW_128_3_2343
*10722 TAP_TAPCELL_ROW_12_2_1550
*10723 TAP_TAPCELL_ROW_12_3_2285
*10724 TAP_TAPCELL_ROW_130_2_1609
*10725 TAP_TAPCELL_ROW_130_3_2344
*10726 TAP_TAPCELL_ROW_132_2_1610
*10727 TAP_TAPCELL_ROW_132_3_2345
*10728 TAP_TAPCELL_ROW_134_2_1611
*10729 TAP_TAPCELL_ROW_134_3_2346
*10730 TAP_TAPCELL_ROW_136_2_1612
*10731 TAP_TAPCELL_ROW_136_3_2347
*10732 TAP_TAPCELL_ROW_138_2_1613
*10733 TAP_TAPCELL_ROW_138_3_2348
*10734 TAP_TAPCELL_ROW_140_2_1614
*10735 TAP_TAPCELL_ROW_140_3_2349
*10736 TAP_TAPCELL_ROW_142_2_1615
*10737 TAP_TAPCELL_ROW_142_3_2350
*10738 TAP_TAPCELL_ROW_144_2_1616
*10739 TAP_TAPCELL_ROW_144_3_2351
*10740 TAP_TAPCELL_ROW_146_2_1617
*10741 TAP_TAPCELL_ROW_146_3_2352
*10742 TAP_TAPCELL_ROW_148_2_1618
*10743 TAP_TAPCELL_ROW_148_3_2353
*10744 TAP_TAPCELL_ROW_14_2_1551
*10745 TAP_TAPCELL_ROW_14_3_2286
*10746 TAP_TAPCELL_ROW_150_2_1619
*10747 TAP_TAPCELL_ROW_150_3_2354
*10748 TAP_TAPCELL_ROW_152_2_1620
*10749 TAP_TAPCELL_ROW_152_3_2355
*10750 TAP_TAPCELL_ROW_154_2_1621
*10751 TAP_TAPCELL_ROW_154_3_2356
*10752 TAP_TAPCELL_ROW_156_2_1622
*10753 TAP_TAPCELL_ROW_156_3_2357
*10754 TAP_TAPCELL_ROW_158_2_1623
*10755 TAP_TAPCELL_ROW_158_3_2358
*10756 TAP_TAPCELL_ROW_159_1625
*10757 TAP_TAPCELL_ROW_159_1626
*10758 TAP_TAPCELL_ROW_159_1627
*10759 TAP_TAPCELL_ROW_159_1628
*10760 TAP_TAPCELL_ROW_159_1629
*10761 TAP_TAPCELL_ROW_159_1630
*10762 TAP_TAPCELL_ROW_159_1631
*10763 TAP_TAPCELL_ROW_159_1632
*10764 TAP_TAPCELL_ROW_159_1633
*10765 TAP_TAPCELL_ROW_159_1634
*10766 TAP_TAPCELL_ROW_159_1635
*10767 TAP_TAPCELL_ROW_159_1636
*10768 TAP_TAPCELL_ROW_159_1637
*10769 TAP_TAPCELL_ROW_159_1638
*10770 TAP_TAPCELL_ROW_159_1639
*10771 TAP_TAPCELL_ROW_159_1640
*10772 TAP_TAPCELL_ROW_159_1641
*10773 TAP_TAPCELL_ROW_159_1642
*10774 TAP_TAPCELL_ROW_159_1643
*10775 TAP_TAPCELL_ROW_159_1644
*10776 TAP_TAPCELL_ROW_159_1645
*10777 TAP_TAPCELL_ROW_159_1646
*10778 TAP_TAPCELL_ROW_159_1647
*10779 TAP_TAPCELL_ROW_159_1648
*10780 TAP_TAPCELL_ROW_159_1649
*10781 TAP_TAPCELL_ROW_159_1650
*10782 TAP_TAPCELL_ROW_159_1651
*10783 TAP_TAPCELL_ROW_159_1652
*10784 TAP_TAPCELL_ROW_159_1653
*10785 TAP_TAPCELL_ROW_159_1654
*10786 TAP_TAPCELL_ROW_159_1655
*10787 TAP_TAPCELL_ROW_159_1656
*10788 TAP_TAPCELL_ROW_159_1657
*10789 TAP_TAPCELL_ROW_159_1658
*10790 TAP_TAPCELL_ROW_159_1659
*10791 TAP_TAPCELL_ROW_159_1660
*10792 TAP_TAPCELL_ROW_159_1661
*10793 TAP_TAPCELL_ROW_159_1662
*10794 TAP_TAPCELL_ROW_159_1663
*10795 TAP_TAPCELL_ROW_159_1664
*10796 TAP_TAPCELL_ROW_159_1665
*10797 TAP_TAPCELL_ROW_159_1666
*10798 TAP_TAPCELL_ROW_159_1667
*10799 TAP_TAPCELL_ROW_159_1668
*10800 TAP_TAPCELL_ROW_159_1669
*10801 TAP_TAPCELL_ROW_159_1670
*10802 TAP_TAPCELL_ROW_159_1671
*10803 TAP_TAPCELL_ROW_159_1672
*10804 TAP_TAPCELL_ROW_159_1673
*10805 TAP_TAPCELL_ROW_159_1674
*10806 TAP_TAPCELL_ROW_159_1675
*10807 TAP_TAPCELL_ROW_159_1676
*10808 TAP_TAPCELL_ROW_159_1677
*10809 TAP_TAPCELL_ROW_160_1678
*10810 TAP_TAPCELL_ROW_160_1679
*10811 TAP_TAPCELL_ROW_160_1680
*10812 TAP_TAPCELL_ROW_160_1681
*10813 TAP_TAPCELL_ROW_160_1682
*10814 TAP_TAPCELL_ROW_160_1683
*10815 TAP_TAPCELL_ROW_160_1684
*10816 TAP_TAPCELL_ROW_160_1685
*10817 TAP_TAPCELL_ROW_160_1686
*10818 TAP_TAPCELL_ROW_160_1687
*10819 TAP_TAPCELL_ROW_160_1688
*10820 TAP_TAPCELL_ROW_160_1689
*10821 TAP_TAPCELL_ROW_160_1690
*10822 TAP_TAPCELL_ROW_160_1691
*10823 TAP_TAPCELL_ROW_160_1692
*10824 TAP_TAPCELL_ROW_160_1693
*10825 TAP_TAPCELL_ROW_160_1694
*10826 TAP_TAPCELL_ROW_160_1695
*10827 TAP_TAPCELL_ROW_160_1696
*10828 TAP_TAPCELL_ROW_160_1697
*10829 TAP_TAPCELL_ROW_160_1698
*10830 TAP_TAPCELL_ROW_160_1699
*10831 TAP_TAPCELL_ROW_160_1700
*10832 TAP_TAPCELL_ROW_160_1701
*10833 TAP_TAPCELL_ROW_160_1702
*10834 TAP_TAPCELL_ROW_160_1703
*10835 TAP_TAPCELL_ROW_160_1704
*10836 TAP_TAPCELL_ROW_161_1705
*10837 TAP_TAPCELL_ROW_161_1706
*10838 TAP_TAPCELL_ROW_161_1707
*10839 TAP_TAPCELL_ROW_161_1708
*10840 TAP_TAPCELL_ROW_161_1709
*10841 TAP_TAPCELL_ROW_161_1710
*10842 TAP_TAPCELL_ROW_161_1711
*10843 TAP_TAPCELL_ROW_161_1712
*10844 TAP_TAPCELL_ROW_161_1713
*10845 TAP_TAPCELL_ROW_161_1714
*10846 TAP_TAPCELL_ROW_161_1715
*10847 TAP_TAPCELL_ROW_161_1716
*10848 TAP_TAPCELL_ROW_161_1717
*10849 TAP_TAPCELL_ROW_161_1718
*10850 TAP_TAPCELL_ROW_161_1719
*10851 TAP_TAPCELL_ROW_161_1720
*10852 TAP_TAPCELL_ROW_161_1721
*10853 TAP_TAPCELL_ROW_161_1722
*10854 TAP_TAPCELL_ROW_161_1723
*10855 TAP_TAPCELL_ROW_161_1724
*10856 TAP_TAPCELL_ROW_161_1725
*10857 TAP_TAPCELL_ROW_161_1726
*10858 TAP_TAPCELL_ROW_161_1727
*10859 TAP_TAPCELL_ROW_161_1728
*10860 TAP_TAPCELL_ROW_161_1729
*10861 TAP_TAPCELL_ROW_161_1730
*10862 TAP_TAPCELL_ROW_162_1731
*10863 TAP_TAPCELL_ROW_162_1732
*10864 TAP_TAPCELL_ROW_162_1733
*10865 TAP_TAPCELL_ROW_162_1734
*10866 TAP_TAPCELL_ROW_162_1735
*10867 TAP_TAPCELL_ROW_162_1736
*10868 TAP_TAPCELL_ROW_162_1737
*10869 TAP_TAPCELL_ROW_162_1738
*10870 TAP_TAPCELL_ROW_162_1739
*10871 TAP_TAPCELL_ROW_162_1740
*10872 TAP_TAPCELL_ROW_162_1741
*10873 TAP_TAPCELL_ROW_162_1742
*10874 TAP_TAPCELL_ROW_162_1743
*10875 TAP_TAPCELL_ROW_162_1744
*10876 TAP_TAPCELL_ROW_162_1745
*10877 TAP_TAPCELL_ROW_162_1746
*10878 TAP_TAPCELL_ROW_162_1747
*10879 TAP_TAPCELL_ROW_162_1748
*10880 TAP_TAPCELL_ROW_162_1749
*10881 TAP_TAPCELL_ROW_162_1750
*10882 TAP_TAPCELL_ROW_162_1751
*10883 TAP_TAPCELL_ROW_162_1752
*10884 TAP_TAPCELL_ROW_162_1753
*10885 TAP_TAPCELL_ROW_162_1754
*10886 TAP_TAPCELL_ROW_162_1755
*10887 TAP_TAPCELL_ROW_162_1756
*10888 TAP_TAPCELL_ROW_162_1757
*10889 TAP_TAPCELL_ROW_163_1758
*10890 TAP_TAPCELL_ROW_163_1759
*10891 TAP_TAPCELL_ROW_163_1760
*10892 TAP_TAPCELL_ROW_163_1761
*10893 TAP_TAPCELL_ROW_163_1762
*10894 TAP_TAPCELL_ROW_163_1763
*10895 TAP_TAPCELL_ROW_163_1764
*10896 TAP_TAPCELL_ROW_163_1765
*10897 TAP_TAPCELL_ROW_163_1766
*10898 TAP_TAPCELL_ROW_163_1767
*10899 TAP_TAPCELL_ROW_163_1768
*10900 TAP_TAPCELL_ROW_163_1769
*10901 TAP_TAPCELL_ROW_163_1770
*10902 TAP_TAPCELL_ROW_163_1771
*10903 TAP_TAPCELL_ROW_163_1772
*10904 TAP_TAPCELL_ROW_163_1773
*10905 TAP_TAPCELL_ROW_163_1774
*10906 TAP_TAPCELL_ROW_163_1775
*10907 TAP_TAPCELL_ROW_163_1776
*10908 TAP_TAPCELL_ROW_163_1777
*10909 TAP_TAPCELL_ROW_163_1778
*10910 TAP_TAPCELL_ROW_163_1779
*10911 TAP_TAPCELL_ROW_163_1780
*10912 TAP_TAPCELL_ROW_163_1781
*10913 TAP_TAPCELL_ROW_163_1782
*10914 TAP_TAPCELL_ROW_163_1783
*10915 TAP_TAPCELL_ROW_164_1784
*10916 TAP_TAPCELL_ROW_164_1785
*10917 TAP_TAPCELL_ROW_164_1786
*10918 TAP_TAPCELL_ROW_164_1787
*10919 TAP_TAPCELL_ROW_164_1788
*10920 TAP_TAPCELL_ROW_164_1789
*10921 TAP_TAPCELL_ROW_164_1790
*10922 TAP_TAPCELL_ROW_164_1791
*10923 TAP_TAPCELL_ROW_164_1792
*10924 TAP_TAPCELL_ROW_164_1793
*10925 TAP_TAPCELL_ROW_164_1794
*10926 TAP_TAPCELL_ROW_164_1795
*10927 TAP_TAPCELL_ROW_164_1796
*10928 TAP_TAPCELL_ROW_164_1797
*10929 TAP_TAPCELL_ROW_164_1798
*10930 TAP_TAPCELL_ROW_164_1799
*10931 TAP_TAPCELL_ROW_164_1800
*10932 TAP_TAPCELL_ROW_164_1801
*10933 TAP_TAPCELL_ROW_164_1802
*10934 TAP_TAPCELL_ROW_164_1803
*10935 TAP_TAPCELL_ROW_164_1804
*10936 TAP_TAPCELL_ROW_164_1805
*10937 TAP_TAPCELL_ROW_164_1806
*10938 TAP_TAPCELL_ROW_164_1807
*10939 TAP_TAPCELL_ROW_164_1808
*10940 TAP_TAPCELL_ROW_164_1809
*10941 TAP_TAPCELL_ROW_164_1810
*10942 TAP_TAPCELL_ROW_165_1811
*10943 TAP_TAPCELL_ROW_165_1812
*10944 TAP_TAPCELL_ROW_165_1813
*10945 TAP_TAPCELL_ROW_165_1814
*10946 TAP_TAPCELL_ROW_165_1815
*10947 TAP_TAPCELL_ROW_165_1816
*10948 TAP_TAPCELL_ROW_165_1817
*10949 TAP_TAPCELL_ROW_165_1818
*10950 TAP_TAPCELL_ROW_165_1819
*10951 TAP_TAPCELL_ROW_165_1820
*10952 TAP_TAPCELL_ROW_165_1821
*10953 TAP_TAPCELL_ROW_165_1822
*10954 TAP_TAPCELL_ROW_165_1823
*10955 TAP_TAPCELL_ROW_165_1824
*10956 TAP_TAPCELL_ROW_165_1825
*10957 TAP_TAPCELL_ROW_165_1826
*10958 TAP_TAPCELL_ROW_165_1827
*10959 TAP_TAPCELL_ROW_165_1828
*10960 TAP_TAPCELL_ROW_165_1829
*10961 TAP_TAPCELL_ROW_165_1830
*10962 TAP_TAPCELL_ROW_165_1831
*10963 TAP_TAPCELL_ROW_165_1832
*10964 TAP_TAPCELL_ROW_165_1833
*10965 TAP_TAPCELL_ROW_165_1834
*10966 TAP_TAPCELL_ROW_165_1835
*10967 TAP_TAPCELL_ROW_165_1836
*10968 TAP_TAPCELL_ROW_166_1837
*10969 TAP_TAPCELL_ROW_166_1838
*10970 TAP_TAPCELL_ROW_166_1839
*10971 TAP_TAPCELL_ROW_166_1840
*10972 TAP_TAPCELL_ROW_166_1841
*10973 TAP_TAPCELL_ROW_166_1842
*10974 TAP_TAPCELL_ROW_166_1843
*10975 TAP_TAPCELL_ROW_166_1844
*10976 TAP_TAPCELL_ROW_166_1845
*10977 TAP_TAPCELL_ROW_166_1846
*10978 TAP_TAPCELL_ROW_166_1847
*10979 TAP_TAPCELL_ROW_166_1848
*10980 TAP_TAPCELL_ROW_166_1849
*10981 TAP_TAPCELL_ROW_166_1850
*10982 TAP_TAPCELL_ROW_166_1851
*10983 TAP_TAPCELL_ROW_166_1852
*10984 TAP_TAPCELL_ROW_166_1853
*10985 TAP_TAPCELL_ROW_166_1854
*10986 TAP_TAPCELL_ROW_166_1855
*10987 TAP_TAPCELL_ROW_166_1856
*10988 TAP_TAPCELL_ROW_166_1857
*10989 TAP_TAPCELL_ROW_166_1858
*10990 TAP_TAPCELL_ROW_166_1859
*10991 TAP_TAPCELL_ROW_166_1860
*10992 TAP_TAPCELL_ROW_166_1861
*10993 TAP_TAPCELL_ROW_166_1862
*10994 TAP_TAPCELL_ROW_166_1863
*10995 TAP_TAPCELL_ROW_167_1864
*10996 TAP_TAPCELL_ROW_167_1865
*10997 TAP_TAPCELL_ROW_167_1866
*10998 TAP_TAPCELL_ROW_167_1867
*10999 TAP_TAPCELL_ROW_167_1868
*11000 TAP_TAPCELL_ROW_167_1869
*11001 TAP_TAPCELL_ROW_167_1870
*11002 TAP_TAPCELL_ROW_167_1871
*11003 TAP_TAPCELL_ROW_167_1872
*11004 TAP_TAPCELL_ROW_167_1873
*11005 TAP_TAPCELL_ROW_167_1874
*11006 TAP_TAPCELL_ROW_167_1875
*11007 TAP_TAPCELL_ROW_167_1876
*11008 TAP_TAPCELL_ROW_167_1877
*11009 TAP_TAPCELL_ROW_167_1878
*11010 TAP_TAPCELL_ROW_167_1879
*11011 TAP_TAPCELL_ROW_167_1880
*11012 TAP_TAPCELL_ROW_167_1881
*11013 TAP_TAPCELL_ROW_167_1882
*11014 TAP_TAPCELL_ROW_167_1883
*11015 TAP_TAPCELL_ROW_167_1884
*11016 TAP_TAPCELL_ROW_167_1885
*11017 TAP_TAPCELL_ROW_167_1886
*11018 TAP_TAPCELL_ROW_167_1887
*11019 TAP_TAPCELL_ROW_167_1888
*11020 TAP_TAPCELL_ROW_167_1889
*11021 TAP_TAPCELL_ROW_168_1890
*11022 TAP_TAPCELL_ROW_168_1891
*11023 TAP_TAPCELL_ROW_168_1892
*11024 TAP_TAPCELL_ROW_168_1893
*11025 TAP_TAPCELL_ROW_168_1894
*11026 TAP_TAPCELL_ROW_168_1895
*11027 TAP_TAPCELL_ROW_168_1896
*11028 TAP_TAPCELL_ROW_168_1897
*11029 TAP_TAPCELL_ROW_168_1898
*11030 TAP_TAPCELL_ROW_168_1899
*11031 TAP_TAPCELL_ROW_168_1900
*11032 TAP_TAPCELL_ROW_168_1901
*11033 TAP_TAPCELL_ROW_168_1902
*11034 TAP_TAPCELL_ROW_168_1903
*11035 TAP_TAPCELL_ROW_168_1904
*11036 TAP_TAPCELL_ROW_168_1905
*11037 TAP_TAPCELL_ROW_168_1906
*11038 TAP_TAPCELL_ROW_168_1907
*11039 TAP_TAPCELL_ROW_168_1908
*11040 TAP_TAPCELL_ROW_168_1909
*11041 TAP_TAPCELL_ROW_168_1910
*11042 TAP_TAPCELL_ROW_168_1911
*11043 TAP_TAPCELL_ROW_168_1912
*11044 TAP_TAPCELL_ROW_168_1913
*11045 TAP_TAPCELL_ROW_168_1914
*11046 TAP_TAPCELL_ROW_168_1915
*11047 TAP_TAPCELL_ROW_168_1916
*11048 TAP_TAPCELL_ROW_169_1917
*11049 TAP_TAPCELL_ROW_169_1918
*11050 TAP_TAPCELL_ROW_169_1919
*11051 TAP_TAPCELL_ROW_169_1920
*11052 TAP_TAPCELL_ROW_169_1921
*11053 TAP_TAPCELL_ROW_169_1922
*11054 TAP_TAPCELL_ROW_169_1923
*11055 TAP_TAPCELL_ROW_169_1924
*11056 TAP_TAPCELL_ROW_169_1925
*11057 TAP_TAPCELL_ROW_169_1926
*11058 TAP_TAPCELL_ROW_169_1927
*11059 TAP_TAPCELL_ROW_169_1928
*11060 TAP_TAPCELL_ROW_169_1929
*11061 TAP_TAPCELL_ROW_169_1930
*11062 TAP_TAPCELL_ROW_169_1931
*11063 TAP_TAPCELL_ROW_169_1932
*11064 TAP_TAPCELL_ROW_169_1933
*11065 TAP_TAPCELL_ROW_169_1934
*11066 TAP_TAPCELL_ROW_169_1935
*11067 TAP_TAPCELL_ROW_169_1936
*11068 TAP_TAPCELL_ROW_169_1937
*11069 TAP_TAPCELL_ROW_169_1938
*11070 TAP_TAPCELL_ROW_169_1939
*11071 TAP_TAPCELL_ROW_169_1940
*11072 TAP_TAPCELL_ROW_169_1941
*11073 TAP_TAPCELL_ROW_169_1942
*11074 TAP_TAPCELL_ROW_169_1943
*11075 TAP_TAPCELL_ROW_169_1944
*11076 TAP_TAPCELL_ROW_169_1945
*11077 TAP_TAPCELL_ROW_169_1946
*11078 TAP_TAPCELL_ROW_169_1947
*11079 TAP_TAPCELL_ROW_169_1948
*11080 TAP_TAPCELL_ROW_169_1949
*11081 TAP_TAPCELL_ROW_169_1950
*11082 TAP_TAPCELL_ROW_169_1951
*11083 TAP_TAPCELL_ROW_169_1952
*11084 TAP_TAPCELL_ROW_169_1953
*11085 TAP_TAPCELL_ROW_169_1954
*11086 TAP_TAPCELL_ROW_169_1955
*11087 TAP_TAPCELL_ROW_169_1956
*11088 TAP_TAPCELL_ROW_169_1957
*11089 TAP_TAPCELL_ROW_169_1958
*11090 TAP_TAPCELL_ROW_169_1959
*11091 TAP_TAPCELL_ROW_169_1960
*11092 TAP_TAPCELL_ROW_169_1961
*11093 TAP_TAPCELL_ROW_169_1962
*11094 TAP_TAPCELL_ROW_169_1963
*11095 TAP_TAPCELL_ROW_169_1964
*11096 TAP_TAPCELL_ROW_169_1965
*11097 TAP_TAPCELL_ROW_169_1966
*11098 TAP_TAPCELL_ROW_169_1967
*11099 TAP_TAPCELL_ROW_169_1968
*11100 TAP_TAPCELL_ROW_169_1969
*11101 TAP_TAPCELL_ROW_16_2_1552
*11102 TAP_TAPCELL_ROW_16_3_2287
*11103 TAP_TAPCELL_ROW_170_2_1624
*11104 TAP_TAPCELL_ROW_170_3_2359
*11105 TAP_TAPCELL_ROW_172_2_1970
*11106 TAP_TAPCELL_ROW_172_3_2360
*11107 TAP_TAPCELL_ROW_174_2_1971
*11108 TAP_TAPCELL_ROW_174_3_2361
*11109 TAP_TAPCELL_ROW_176_2_1972
*11110 TAP_TAPCELL_ROW_176_3_2362
*11111 TAP_TAPCELL_ROW_178_2_1973
*11112 TAP_TAPCELL_ROW_178_3_2363
*11113 TAP_TAPCELL_ROW_180_2_1974
*11114 TAP_TAPCELL_ROW_180_3_2364
*11115 TAP_TAPCELL_ROW_182_2_1975
*11116 TAP_TAPCELL_ROW_182_3_2365
*11117 TAP_TAPCELL_ROW_184_2_1976
*11118 TAP_TAPCELL_ROW_184_3_2366
*11119 TAP_TAPCELL_ROW_186_2_1977
*11120 TAP_TAPCELL_ROW_186_3_2367
*11121 TAP_TAPCELL_ROW_188_2_1978
*11122 TAP_TAPCELL_ROW_188_3_2368
*11123 TAP_TAPCELL_ROW_18_2_1553
*11124 TAP_TAPCELL_ROW_18_3_2288
*11125 TAP_TAPCELL_ROW_190_2_1979
*11126 TAP_TAPCELL_ROW_190_3_2369
*11127 TAP_TAPCELL_ROW_192_2_1980
*11128 TAP_TAPCELL_ROW_192_3_2370
*11129 TAP_TAPCELL_ROW_194_2_1981
*11130 TAP_TAPCELL_ROW_194_3_2371
*11131 TAP_TAPCELL_ROW_196_2_1982
*11132 TAP_TAPCELL_ROW_196_3_2372
*11133 TAP_TAPCELL_ROW_198_2_1983
*11134 TAP_TAPCELL_ROW_198_3_2373
*11135 TAP_TAPCELL_ROW_1_1311
*11136 TAP_TAPCELL_ROW_1_1312
*11137 TAP_TAPCELL_ROW_1_1313
*11138 TAP_TAPCELL_ROW_1_1314
*11139 TAP_TAPCELL_ROW_1_1315
*11140 TAP_TAPCELL_ROW_1_1316
*11141 TAP_TAPCELL_ROW_1_1317
*11142 TAP_TAPCELL_ROW_1_1318
*11143 TAP_TAPCELL_ROW_1_1319
*11144 TAP_TAPCELL_ROW_1_1320
*11145 TAP_TAPCELL_ROW_1_1321
*11146 TAP_TAPCELL_ROW_1_1322
*11147 TAP_TAPCELL_ROW_1_1323
*11148 TAP_TAPCELL_ROW_1_1324
*11149 TAP_TAPCELL_ROW_1_1325
*11150 TAP_TAPCELL_ROW_1_1326
*11151 TAP_TAPCELL_ROW_1_1327
*11152 TAP_TAPCELL_ROW_1_1328
*11153 TAP_TAPCELL_ROW_1_1329
*11154 TAP_TAPCELL_ROW_1_1330
*11155 TAP_TAPCELL_ROW_1_1331
*11156 TAP_TAPCELL_ROW_1_1332
*11157 TAP_TAPCELL_ROW_1_1333
*11158 TAP_TAPCELL_ROW_1_1334
*11159 TAP_TAPCELL_ROW_1_1335
*11160 TAP_TAPCELL_ROW_1_1336
*11161 TAP_TAPCELL_ROW_200_2_1984
*11162 TAP_TAPCELL_ROW_200_3_2374
*11163 TAP_TAPCELL_ROW_202_2_1985
*11164 TAP_TAPCELL_ROW_202_3_2375
*11165 TAP_TAPCELL_ROW_204_2_1986
*11166 TAP_TAPCELL_ROW_204_3_2376
*11167 TAP_TAPCELL_ROW_206_2_1987
*11168 TAP_TAPCELL_ROW_206_3_2377
*11169 TAP_TAPCELL_ROW_208_2_1988
*11170 TAP_TAPCELL_ROW_208_3_2378
*11171 TAP_TAPCELL_ROW_20_2_1554
*11172 TAP_TAPCELL_ROW_20_3_2289
*11173 TAP_TAPCELL_ROW_210_2_1989
*11174 TAP_TAPCELL_ROW_210_3_2379
*11175 TAP_TAPCELL_ROW_212_2_1990
*11176 TAP_TAPCELL_ROW_212_3_2380
*11177 TAP_TAPCELL_ROW_214_2_1991
*11178 TAP_TAPCELL_ROW_214_3_2381
*11179 TAP_TAPCELL_ROW_216_2_1992
*11180 TAP_TAPCELL_ROW_216_3_2382
*11181 TAP_TAPCELL_ROW_218_2_1993
*11182 TAP_TAPCELL_ROW_218_3_2383
*11183 TAP_TAPCELL_ROW_220_2_1994
*11184 TAP_TAPCELL_ROW_220_3_2384
*11185 TAP_TAPCELL_ROW_222_2_1995
*11186 TAP_TAPCELL_ROW_222_3_2385
*11187 TAP_TAPCELL_ROW_224_2_1996
*11188 TAP_TAPCELL_ROW_224_3_2386
*11189 TAP_TAPCELL_ROW_226_2_1997
*11190 TAP_TAPCELL_ROW_226_3_2387
*11191 TAP_TAPCELL_ROW_228_2_1998
*11192 TAP_TAPCELL_ROW_228_3_2388
*11193 TAP_TAPCELL_ROW_22_2_1555
*11194 TAP_TAPCELL_ROW_22_3_2290
*11195 TAP_TAPCELL_ROW_230_2_1999
*11196 TAP_TAPCELL_ROW_230_3_2389
*11197 TAP_TAPCELL_ROW_232_2_2000
*11198 TAP_TAPCELL_ROW_232_3_2390
*11199 TAP_TAPCELL_ROW_234_2_2001
*11200 TAP_TAPCELL_ROW_234_3_2391
*11201 TAP_TAPCELL_ROW_236_2_2002
*11202 TAP_TAPCELL_ROW_236_3_2392
*11203 TAP_TAPCELL_ROW_238_2_2003
*11204 TAP_TAPCELL_ROW_238_3_2393
*11205 TAP_TAPCELL_ROW_240_2_2004
*11206 TAP_TAPCELL_ROW_240_3_2394
*11207 TAP_TAPCELL_ROW_242_2_2005
*11208 TAP_TAPCELL_ROW_242_3_2395
*11209 TAP_TAPCELL_ROW_244_2_2006
*11210 TAP_TAPCELL_ROW_244_3_2396
*11211 TAP_TAPCELL_ROW_246_2_2007
*11212 TAP_TAPCELL_ROW_246_3_2397
*11213 TAP_TAPCELL_ROW_248_2_2008
*11214 TAP_TAPCELL_ROW_248_3_2398
*11215 TAP_TAPCELL_ROW_24_2_1556
*11216 TAP_TAPCELL_ROW_24_3_2291
*11217 TAP_TAPCELL_ROW_250_2_2009
*11218 TAP_TAPCELL_ROW_250_3_2399
*11219 TAP_TAPCELL_ROW_252_2_2010
*11220 TAP_TAPCELL_ROW_252_3_2400
*11221 TAP_TAPCELL_ROW_254_2_2011
*11222 TAP_TAPCELL_ROW_254_3_2401
*11223 TAP_TAPCELL_ROW_256_2_2012
*11224 TAP_TAPCELL_ROW_256_3_2402
*11225 TAP_TAPCELL_ROW_258_2_2013
*11226 TAP_TAPCELL_ROW_258_3_2403
*11227 TAP_TAPCELL_ROW_260_2_2014
*11228 TAP_TAPCELL_ROW_260_3_2404
*11229 TAP_TAPCELL_ROW_262_2_2015
*11230 TAP_TAPCELL_ROW_262_3_2405
*11231 TAP_TAPCELL_ROW_264_2_2016
*11232 TAP_TAPCELL_ROW_264_3_2406
*11233 TAP_TAPCELL_ROW_266_2_2017
*11234 TAP_TAPCELL_ROW_266_3_2407
*11235 TAP_TAPCELL_ROW_268_2_2018
*11236 TAP_TAPCELL_ROW_268_3_2408
*11237 TAP_TAPCELL_ROW_26_2_1557
*11238 TAP_TAPCELL_ROW_26_3_2292
*11239 TAP_TAPCELL_ROW_270_2_2019
*11240 TAP_TAPCELL_ROW_270_3_2409
*11241 TAP_TAPCELL_ROW_272_2_2020
*11242 TAP_TAPCELL_ROW_272_3_2410
*11243 TAP_TAPCELL_ROW_274_2_2021
*11244 TAP_TAPCELL_ROW_274_3_2411
*11245 TAP_TAPCELL_ROW_276_2_2022
*11246 TAP_TAPCELL_ROW_276_3_2412
*11247 TAP_TAPCELL_ROW_278_2_2023
*11248 TAP_TAPCELL_ROW_278_3_2413
*11249 TAP_TAPCELL_ROW_280_2_2024
*11250 TAP_TAPCELL_ROW_280_3_2414
*11251 TAP_TAPCELL_ROW_282_2_2025
*11252 TAP_TAPCELL_ROW_282_3_2415
*11253 TAP_TAPCELL_ROW_284_2_2026
*11254 TAP_TAPCELL_ROW_284_3_2416
*11255 TAP_TAPCELL_ROW_286_2_2027
*11256 TAP_TAPCELL_ROW_286_3_2417
*11257 TAP_TAPCELL_ROW_288_2_2028
*11258 TAP_TAPCELL_ROW_288_3_2418
*11259 TAP_TAPCELL_ROW_28_2_1558
*11260 TAP_TAPCELL_ROW_28_3_2293
*11261 TAP_TAPCELL_ROW_290_2_2029
*11262 TAP_TAPCELL_ROW_290_3_2419
*11263 TAP_TAPCELL_ROW_292_2_2030
*11264 TAP_TAPCELL_ROW_292_3_2420
*11265 TAP_TAPCELL_ROW_294_2_2031
*11266 TAP_TAPCELL_ROW_294_3_2421
*11267 TAP_TAPCELL_ROW_296_2_2032
*11268 TAP_TAPCELL_ROW_296_3_2422
*11269 TAP_TAPCELL_ROW_298_2_2033
*11270 TAP_TAPCELL_ROW_298_3_2423
*11271 TAP_TAPCELL_ROW_2_1337
*11272 TAP_TAPCELL_ROW_2_1338
*11273 TAP_TAPCELL_ROW_2_1339
*11274 TAP_TAPCELL_ROW_2_1340
*11275 TAP_TAPCELL_ROW_2_1341
*11276 TAP_TAPCELL_ROW_2_1342
*11277 TAP_TAPCELL_ROW_2_1343
*11278 TAP_TAPCELL_ROW_2_1344
*11279 TAP_TAPCELL_ROW_2_1345
*11280 TAP_TAPCELL_ROW_2_1346
*11281 TAP_TAPCELL_ROW_2_1347
*11282 TAP_TAPCELL_ROW_2_1348
*11283 TAP_TAPCELL_ROW_2_1349
*11284 TAP_TAPCELL_ROW_2_1350
*11285 TAP_TAPCELL_ROW_2_1351
*11286 TAP_TAPCELL_ROW_2_1352
*11287 TAP_TAPCELL_ROW_2_1353
*11288 TAP_TAPCELL_ROW_2_1354
*11289 TAP_TAPCELL_ROW_2_1355
*11290 TAP_TAPCELL_ROW_2_1356
*11291 TAP_TAPCELL_ROW_2_1357
*11292 TAP_TAPCELL_ROW_2_1358
*11293 TAP_TAPCELL_ROW_2_1359
*11294 TAP_TAPCELL_ROW_2_1360
*11295 TAP_TAPCELL_ROW_2_1361
*11296 TAP_TAPCELL_ROW_2_1362
*11297 TAP_TAPCELL_ROW_2_1363
*11298 TAP_TAPCELL_ROW_300_2_2034
*11299 TAP_TAPCELL_ROW_300_3_2424
*11300 TAP_TAPCELL_ROW_302_2_2035
*11301 TAP_TAPCELL_ROW_302_3_2425
*11302 TAP_TAPCELL_ROW_304_2_2036
*11303 TAP_TAPCELL_ROW_304_3_2426
*11304 TAP_TAPCELL_ROW_306_2_2037
*11305 TAP_TAPCELL_ROW_306_3_2427
*11306 TAP_TAPCELL_ROW_308_2_2038
*11307 TAP_TAPCELL_ROW_308_3_2428
*11308 TAP_TAPCELL_ROW_30_2_1559
*11309 TAP_TAPCELL_ROW_30_3_2294
*11310 TAP_TAPCELL_ROW_310_2_2039
*11311 TAP_TAPCELL_ROW_310_3_2429
*11312 TAP_TAPCELL_ROW_312_2_2040
*11313 TAP_TAPCELL_ROW_312_3_2430
*11314 TAP_TAPCELL_ROW_314_2_2041
*11315 TAP_TAPCELL_ROW_314_3_2431
*11316 TAP_TAPCELL_ROW_316_2_2042
*11317 TAP_TAPCELL_ROW_316_3_2432
*11318 TAP_TAPCELL_ROW_318_2_2043
*11319 TAP_TAPCELL_ROW_318_3_2433
*11320 TAP_TAPCELL_ROW_320_2_2044
*11321 TAP_TAPCELL_ROW_320_3_2434
*11322 TAP_TAPCELL_ROW_321_2045
*11323 TAP_TAPCELL_ROW_321_2046
*11324 TAP_TAPCELL_ROW_321_2047
*11325 TAP_TAPCELL_ROW_321_2048
*11326 TAP_TAPCELL_ROW_321_2049
*11327 TAP_TAPCELL_ROW_321_2050
*11328 TAP_TAPCELL_ROW_321_2051
*11329 TAP_TAPCELL_ROW_321_2052
*11330 TAP_TAPCELL_ROW_321_2053
*11331 TAP_TAPCELL_ROW_321_2054
*11332 TAP_TAPCELL_ROW_321_2055
*11333 TAP_TAPCELL_ROW_321_2056
*11334 TAP_TAPCELL_ROW_321_2057
*11335 TAP_TAPCELL_ROW_321_2058
*11336 TAP_TAPCELL_ROW_321_2059
*11337 TAP_TAPCELL_ROW_321_2060
*11338 TAP_TAPCELL_ROW_321_2061
*11339 TAP_TAPCELL_ROW_321_2062
*11340 TAP_TAPCELL_ROW_321_2063
*11341 TAP_TAPCELL_ROW_321_2064
*11342 TAP_TAPCELL_ROW_321_2065
*11343 TAP_TAPCELL_ROW_321_2066
*11344 TAP_TAPCELL_ROW_321_2067
*11345 TAP_TAPCELL_ROW_321_2068
*11346 TAP_TAPCELL_ROW_321_2069
*11347 TAP_TAPCELL_ROW_321_2070
*11348 TAP_TAPCELL_ROW_321_2071
*11349 TAP_TAPCELL_ROW_321_2072
*11350 TAP_TAPCELL_ROW_321_2073
*11351 TAP_TAPCELL_ROW_321_2074
*11352 TAP_TAPCELL_ROW_321_2075
*11353 TAP_TAPCELL_ROW_321_2076
*11354 TAP_TAPCELL_ROW_321_2077
*11355 TAP_TAPCELL_ROW_321_2078
*11356 TAP_TAPCELL_ROW_321_2079
*11357 TAP_TAPCELL_ROW_321_2080
*11358 TAP_TAPCELL_ROW_321_2081
*11359 TAP_TAPCELL_ROW_321_2082
*11360 TAP_TAPCELL_ROW_321_2083
*11361 TAP_TAPCELL_ROW_321_2084
*11362 TAP_TAPCELL_ROW_321_2085
*11363 TAP_TAPCELL_ROW_321_2086
*11364 TAP_TAPCELL_ROW_321_2087
*11365 TAP_TAPCELL_ROW_321_2088
*11366 TAP_TAPCELL_ROW_321_2089
*11367 TAP_TAPCELL_ROW_321_2090
*11368 TAP_TAPCELL_ROW_321_2091
*11369 TAP_TAPCELL_ROW_321_2092
*11370 TAP_TAPCELL_ROW_321_2093
*11371 TAP_TAPCELL_ROW_321_2094
*11372 TAP_TAPCELL_ROW_321_2095
*11373 TAP_TAPCELL_ROW_321_2096
*11374 TAP_TAPCELL_ROW_321_2097
*11375 TAP_TAPCELL_ROW_322_2098
*11376 TAP_TAPCELL_ROW_322_2099
*11377 TAP_TAPCELL_ROW_322_2100
*11378 TAP_TAPCELL_ROW_322_2101
*11379 TAP_TAPCELL_ROW_322_2102
*11380 TAP_TAPCELL_ROW_322_2103
*11381 TAP_TAPCELL_ROW_322_2104
*11382 TAP_TAPCELL_ROW_322_2105
*11383 TAP_TAPCELL_ROW_322_2106
*11384 TAP_TAPCELL_ROW_322_2107
*11385 TAP_TAPCELL_ROW_322_2108
*11386 TAP_TAPCELL_ROW_322_2109
*11387 TAP_TAPCELL_ROW_322_2110
*11388 TAP_TAPCELL_ROW_322_2111
*11389 TAP_TAPCELL_ROW_322_2112
*11390 TAP_TAPCELL_ROW_322_2113
*11391 TAP_TAPCELL_ROW_322_2114
*11392 TAP_TAPCELL_ROW_322_2115
*11393 TAP_TAPCELL_ROW_322_2116
*11394 TAP_TAPCELL_ROW_322_2117
*11395 TAP_TAPCELL_ROW_322_2118
*11396 TAP_TAPCELL_ROW_322_2119
*11397 TAP_TAPCELL_ROW_322_2120
*11398 TAP_TAPCELL_ROW_322_2121
*11399 TAP_TAPCELL_ROW_322_2122
*11400 TAP_TAPCELL_ROW_322_2123
*11401 TAP_TAPCELL_ROW_322_2124
*11402 TAP_TAPCELL_ROW_323_2125
*11403 TAP_TAPCELL_ROW_323_2126
*11404 TAP_TAPCELL_ROW_323_2127
*11405 TAP_TAPCELL_ROW_323_2128
*11406 TAP_TAPCELL_ROW_323_2129
*11407 TAP_TAPCELL_ROW_323_2130
*11408 TAP_TAPCELL_ROW_323_2131
*11409 TAP_TAPCELL_ROW_323_2132
*11410 TAP_TAPCELL_ROW_323_2133
*11411 TAP_TAPCELL_ROW_323_2134
*11412 TAP_TAPCELL_ROW_323_2135
*11413 TAP_TAPCELL_ROW_323_2136
*11414 TAP_TAPCELL_ROW_323_2137
*11415 TAP_TAPCELL_ROW_323_2138
*11416 TAP_TAPCELL_ROW_323_2139
*11417 TAP_TAPCELL_ROW_323_2140
*11418 TAP_TAPCELL_ROW_323_2141
*11419 TAP_TAPCELL_ROW_323_2142
*11420 TAP_TAPCELL_ROW_323_2143
*11421 TAP_TAPCELL_ROW_323_2144
*11422 TAP_TAPCELL_ROW_323_2145
*11423 TAP_TAPCELL_ROW_323_2146
*11424 TAP_TAPCELL_ROW_323_2147
*11425 TAP_TAPCELL_ROW_323_2148
*11426 TAP_TAPCELL_ROW_323_2149
*11427 TAP_TAPCELL_ROW_323_2150
*11428 TAP_TAPCELL_ROW_324_2151
*11429 TAP_TAPCELL_ROW_324_2152
*11430 TAP_TAPCELL_ROW_324_2153
*11431 TAP_TAPCELL_ROW_324_2154
*11432 TAP_TAPCELL_ROW_324_2155
*11433 TAP_TAPCELL_ROW_324_2156
*11434 TAP_TAPCELL_ROW_324_2157
*11435 TAP_TAPCELL_ROW_324_2158
*11436 TAP_TAPCELL_ROW_324_2159
*11437 TAP_TAPCELL_ROW_324_2160
*11438 TAP_TAPCELL_ROW_324_2161
*11439 TAP_TAPCELL_ROW_324_2162
*11440 TAP_TAPCELL_ROW_324_2163
*11441 TAP_TAPCELL_ROW_324_2164
*11442 TAP_TAPCELL_ROW_324_2165
*11443 TAP_TAPCELL_ROW_324_2166
*11444 TAP_TAPCELL_ROW_324_2167
*11445 TAP_TAPCELL_ROW_324_2168
*11446 TAP_TAPCELL_ROW_324_2169
*11447 TAP_TAPCELL_ROW_324_2170
*11448 TAP_TAPCELL_ROW_324_2171
*11449 TAP_TAPCELL_ROW_324_2172
*11450 TAP_TAPCELL_ROW_324_2173
*11451 TAP_TAPCELL_ROW_324_2174
*11452 TAP_TAPCELL_ROW_324_2175
*11453 TAP_TAPCELL_ROW_324_2176
*11454 TAP_TAPCELL_ROW_324_2177
*11455 TAP_TAPCELL_ROW_325_2178
*11456 TAP_TAPCELL_ROW_325_2179
*11457 TAP_TAPCELL_ROW_325_2180
*11458 TAP_TAPCELL_ROW_325_2181
*11459 TAP_TAPCELL_ROW_325_2182
*11460 TAP_TAPCELL_ROW_325_2183
*11461 TAP_TAPCELL_ROW_325_2184
*11462 TAP_TAPCELL_ROW_325_2185
*11463 TAP_TAPCELL_ROW_325_2186
*11464 TAP_TAPCELL_ROW_325_2187
*11465 TAP_TAPCELL_ROW_325_2188
*11466 TAP_TAPCELL_ROW_325_2189
*11467 TAP_TAPCELL_ROW_325_2190
*11468 TAP_TAPCELL_ROW_325_2191
*11469 TAP_TAPCELL_ROW_325_2192
*11470 TAP_TAPCELL_ROW_325_2193
*11471 TAP_TAPCELL_ROW_325_2194
*11472 TAP_TAPCELL_ROW_325_2195
*11473 TAP_TAPCELL_ROW_325_2196
*11474 TAP_TAPCELL_ROW_325_2197
*11475 TAP_TAPCELL_ROW_325_2198
*11476 TAP_TAPCELL_ROW_325_2199
*11477 TAP_TAPCELL_ROW_325_2200
*11478 TAP_TAPCELL_ROW_325_2201
*11479 TAP_TAPCELL_ROW_325_2202
*11480 TAP_TAPCELL_ROW_325_2203
*11481 TAP_TAPCELL_ROW_326_2204
*11482 TAP_TAPCELL_ROW_326_2205
*11483 TAP_TAPCELL_ROW_326_2206
*11484 TAP_TAPCELL_ROW_326_2207
*11485 TAP_TAPCELL_ROW_326_2208
*11486 TAP_TAPCELL_ROW_326_2209
*11487 TAP_TAPCELL_ROW_326_2210
*11488 TAP_TAPCELL_ROW_326_2211
*11489 TAP_TAPCELL_ROW_326_2212
*11490 TAP_TAPCELL_ROW_326_2213
*11491 TAP_TAPCELL_ROW_326_2214
*11492 TAP_TAPCELL_ROW_326_2215
*11493 TAP_TAPCELL_ROW_326_2216
*11494 TAP_TAPCELL_ROW_326_2217
*11495 TAP_TAPCELL_ROW_326_2218
*11496 TAP_TAPCELL_ROW_326_2219
*11497 TAP_TAPCELL_ROW_326_2220
*11498 TAP_TAPCELL_ROW_326_2221
*11499 TAP_TAPCELL_ROW_326_2222
*11500 TAP_TAPCELL_ROW_326_2223
*11501 TAP_TAPCELL_ROW_326_2224
*11502 TAP_TAPCELL_ROW_326_2225
*11503 TAP_TAPCELL_ROW_326_2226
*11504 TAP_TAPCELL_ROW_326_2227
*11505 TAP_TAPCELL_ROW_326_2228
*11506 TAP_TAPCELL_ROW_326_2229
*11507 TAP_TAPCELL_ROW_326_2230
*11508 TAP_TAPCELL_ROW_327_2231
*11509 TAP_TAPCELL_ROW_327_2232
*11510 TAP_TAPCELL_ROW_327_2233
*11511 TAP_TAPCELL_ROW_327_2234
*11512 TAP_TAPCELL_ROW_327_2235
*11513 TAP_TAPCELL_ROW_327_2236
*11514 TAP_TAPCELL_ROW_327_2237
*11515 TAP_TAPCELL_ROW_327_2238
*11516 TAP_TAPCELL_ROW_327_2239
*11517 TAP_TAPCELL_ROW_327_2240
*11518 TAP_TAPCELL_ROW_327_2241
*11519 TAP_TAPCELL_ROW_327_2242
*11520 TAP_TAPCELL_ROW_327_2243
*11521 TAP_TAPCELL_ROW_327_2244
*11522 TAP_TAPCELL_ROW_327_2245
*11523 TAP_TAPCELL_ROW_327_2246
*11524 TAP_TAPCELL_ROW_327_2247
*11525 TAP_TAPCELL_ROW_327_2248
*11526 TAP_TAPCELL_ROW_327_2249
*11527 TAP_TAPCELL_ROW_327_2250
*11528 TAP_TAPCELL_ROW_327_2251
*11529 TAP_TAPCELL_ROW_327_2252
*11530 TAP_TAPCELL_ROW_327_2253
*11531 TAP_TAPCELL_ROW_327_2254
*11532 TAP_TAPCELL_ROW_327_2255
*11533 TAP_TAPCELL_ROW_327_2256
*11534 TAP_TAPCELL_ROW_327_2257
*11535 TAP_TAPCELL_ROW_327_2258
*11536 TAP_TAPCELL_ROW_327_2259
*11537 TAP_TAPCELL_ROW_327_2260
*11538 TAP_TAPCELL_ROW_327_2261
*11539 TAP_TAPCELL_ROW_327_2262
*11540 TAP_TAPCELL_ROW_327_2263
*11541 TAP_TAPCELL_ROW_327_2264
*11542 TAP_TAPCELL_ROW_327_2265
*11543 TAP_TAPCELL_ROW_327_2266
*11544 TAP_TAPCELL_ROW_327_2267
*11545 TAP_TAPCELL_ROW_327_2268
*11546 TAP_TAPCELL_ROW_327_2269
*11547 TAP_TAPCELL_ROW_327_2270
*11548 TAP_TAPCELL_ROW_327_2271
*11549 TAP_TAPCELL_ROW_327_2272
*11550 TAP_TAPCELL_ROW_327_2273
*11551 TAP_TAPCELL_ROW_327_2274
*11552 TAP_TAPCELL_ROW_327_2275
*11553 TAP_TAPCELL_ROW_327_2276
*11554 TAP_TAPCELL_ROW_327_2277
*11555 TAP_TAPCELL_ROW_327_2278
*11556 TAP_TAPCELL_ROW_327_2279
*11557 TAP_TAPCELL_ROW_327_2280
*11558 TAP_TAPCELL_ROW_327_2281
*11559 TAP_TAPCELL_ROW_327_2282
*11560 TAP_TAPCELL_ROW_327_2283
*11561 TAP_TAPCELL_ROW_32_2_1560
*11562 TAP_TAPCELL_ROW_32_3_2295
*11563 TAP_TAPCELL_ROW_34_2_1561
*11564 TAP_TAPCELL_ROW_34_3_2296
*11565 TAP_TAPCELL_ROW_36_2_1562
*11566 TAP_TAPCELL_ROW_36_3_2297
*11567 TAP_TAPCELL_ROW_38_2_1563
*11568 TAP_TAPCELL_ROW_38_3_2298
*11569 TAP_TAPCELL_ROW_3_1364
*11570 TAP_TAPCELL_ROW_3_1365
*11571 TAP_TAPCELL_ROW_3_1366
*11572 TAP_TAPCELL_ROW_3_1367
*11573 TAP_TAPCELL_ROW_3_1368
*11574 TAP_TAPCELL_ROW_3_1369
*11575 TAP_TAPCELL_ROW_3_1370
*11576 TAP_TAPCELL_ROW_3_1371
*11577 TAP_TAPCELL_ROW_3_1372
*11578 TAP_TAPCELL_ROW_3_1373
*11579 TAP_TAPCELL_ROW_3_1374
*11580 TAP_TAPCELL_ROW_3_1375
*11581 TAP_TAPCELL_ROW_3_1376
*11582 TAP_TAPCELL_ROW_3_1377
*11583 TAP_TAPCELL_ROW_3_1378
*11584 TAP_TAPCELL_ROW_3_1379
*11585 TAP_TAPCELL_ROW_3_1380
*11586 TAP_TAPCELL_ROW_3_1381
*11587 TAP_TAPCELL_ROW_3_1382
*11588 TAP_TAPCELL_ROW_3_1383
*11589 TAP_TAPCELL_ROW_3_1384
*11590 TAP_TAPCELL_ROW_3_1385
*11591 TAP_TAPCELL_ROW_3_1386
*11592 TAP_TAPCELL_ROW_3_1387
*11593 TAP_TAPCELL_ROW_3_1388
*11594 TAP_TAPCELL_ROW_3_1389
*11595 TAP_TAPCELL_ROW_40_2_1564
*11596 TAP_TAPCELL_ROW_40_3_2299
*11597 TAP_TAPCELL_ROW_42_2_1565
*11598 TAP_TAPCELL_ROW_42_3_2300
*11599 TAP_TAPCELL_ROW_44_2_1566
*11600 TAP_TAPCELL_ROW_44_3_2301
*11601 TAP_TAPCELL_ROW_46_2_1567
*11602 TAP_TAPCELL_ROW_46_3_2302
*11603 TAP_TAPCELL_ROW_48_2_1568
*11604 TAP_TAPCELL_ROW_48_3_2303
*11605 TAP_TAPCELL_ROW_4_1390
*11606 TAP_TAPCELL_ROW_4_1391
*11607 TAP_TAPCELL_ROW_4_1392
*11608 TAP_TAPCELL_ROW_4_1393
*11609 TAP_TAPCELL_ROW_4_1394
*11610 TAP_TAPCELL_ROW_4_1395
*11611 TAP_TAPCELL_ROW_4_1396
*11612 TAP_TAPCELL_ROW_4_1397
*11613 TAP_TAPCELL_ROW_4_1398
*11614 TAP_TAPCELL_ROW_4_1399
*11615 TAP_TAPCELL_ROW_4_1400
*11616 TAP_TAPCELL_ROW_4_1401
*11617 TAP_TAPCELL_ROW_4_1402
*11618 TAP_TAPCELL_ROW_4_1403
*11619 TAP_TAPCELL_ROW_4_1404
*11620 TAP_TAPCELL_ROW_4_1405
*11621 TAP_TAPCELL_ROW_4_1406
*11622 TAP_TAPCELL_ROW_4_1407
*11623 TAP_TAPCELL_ROW_4_1408
*11624 TAP_TAPCELL_ROW_4_1409
*11625 TAP_TAPCELL_ROW_4_1410
*11626 TAP_TAPCELL_ROW_4_1411
*11627 TAP_TAPCELL_ROW_4_1412
*11628 TAP_TAPCELL_ROW_4_1413
*11629 TAP_TAPCELL_ROW_4_1414
*11630 TAP_TAPCELL_ROW_4_1415
*11631 TAP_TAPCELL_ROW_4_1416
*11632 TAP_TAPCELL_ROW_50_2_1569
*11633 TAP_TAPCELL_ROW_50_3_2304
*11634 TAP_TAPCELL_ROW_52_2_1570
*11635 TAP_TAPCELL_ROW_52_3_2305
*11636 TAP_TAPCELL_ROW_54_2_1571
*11637 TAP_TAPCELL_ROW_54_3_2306
*11638 TAP_TAPCELL_ROW_56_2_1572
*11639 TAP_TAPCELL_ROW_56_3_2307
*11640 TAP_TAPCELL_ROW_58_2_1573
*11641 TAP_TAPCELL_ROW_58_3_2308
*11642 TAP_TAPCELL_ROW_5_1417
*11643 TAP_TAPCELL_ROW_5_1418
*11644 TAP_TAPCELL_ROW_5_1419
*11645 TAP_TAPCELL_ROW_5_1420
*11646 TAP_TAPCELL_ROW_5_1421
*11647 TAP_TAPCELL_ROW_5_1422
*11648 TAP_TAPCELL_ROW_5_1423
*11649 TAP_TAPCELL_ROW_5_1424
*11650 TAP_TAPCELL_ROW_5_1425
*11651 TAP_TAPCELL_ROW_5_1426
*11652 TAP_TAPCELL_ROW_5_1427
*11653 TAP_TAPCELL_ROW_5_1428
*11654 TAP_TAPCELL_ROW_5_1429
*11655 TAP_TAPCELL_ROW_5_1430
*11656 TAP_TAPCELL_ROW_5_1431
*11657 TAP_TAPCELL_ROW_5_1432
*11658 TAP_TAPCELL_ROW_5_1433
*11659 TAP_TAPCELL_ROW_5_1434
*11660 TAP_TAPCELL_ROW_5_1435
*11661 TAP_TAPCELL_ROW_5_1436
*11662 TAP_TAPCELL_ROW_5_1437
*11663 TAP_TAPCELL_ROW_5_1438
*11664 TAP_TAPCELL_ROW_5_1439
*11665 TAP_TAPCELL_ROW_5_1440
*11666 TAP_TAPCELL_ROW_5_1441
*11667 TAP_TAPCELL_ROW_5_1442
*11668 TAP_TAPCELL_ROW_60_2_1574
*11669 TAP_TAPCELL_ROW_60_3_2309
*11670 TAP_TAPCELL_ROW_62_2_1575
*11671 TAP_TAPCELL_ROW_62_3_2310
*11672 TAP_TAPCELL_ROW_64_2_1576
*11673 TAP_TAPCELL_ROW_64_3_2311
*11674 TAP_TAPCELL_ROW_66_2_1577
*11675 TAP_TAPCELL_ROW_66_3_2312
*11676 TAP_TAPCELL_ROW_68_2_1578
*11677 TAP_TAPCELL_ROW_68_3_2313
*11678 TAP_TAPCELL_ROW_6_1443
*11679 TAP_TAPCELL_ROW_6_1444
*11680 TAP_TAPCELL_ROW_6_1445
*11681 TAP_TAPCELL_ROW_6_1446
*11682 TAP_TAPCELL_ROW_6_1447
*11683 TAP_TAPCELL_ROW_6_1448
*11684 TAP_TAPCELL_ROW_6_1449
*11685 TAP_TAPCELL_ROW_6_1450
*11686 TAP_TAPCELL_ROW_6_1451
*11687 TAP_TAPCELL_ROW_6_1452
*11688 TAP_TAPCELL_ROW_6_1453
*11689 TAP_TAPCELL_ROW_6_1454
*11690 TAP_TAPCELL_ROW_6_1455
*11691 TAP_TAPCELL_ROW_6_1456
*11692 TAP_TAPCELL_ROW_6_1457
*11693 TAP_TAPCELL_ROW_6_1458
*11694 TAP_TAPCELL_ROW_6_1459
*11695 TAP_TAPCELL_ROW_6_1460
*11696 TAP_TAPCELL_ROW_6_1461
*11697 TAP_TAPCELL_ROW_6_1462
*11698 TAP_TAPCELL_ROW_6_1463
*11699 TAP_TAPCELL_ROW_6_1464
*11700 TAP_TAPCELL_ROW_6_1465
*11701 TAP_TAPCELL_ROW_6_1466
*11702 TAP_TAPCELL_ROW_6_1467
*11703 TAP_TAPCELL_ROW_6_1468
*11704 TAP_TAPCELL_ROW_6_1469
*11705 TAP_TAPCELL_ROW_70_2_1579
*11706 TAP_TAPCELL_ROW_70_3_2314
*11707 TAP_TAPCELL_ROW_72_2_1580
*11708 TAP_TAPCELL_ROW_72_3_2315
*11709 TAP_TAPCELL_ROW_74_2_1581
*11710 TAP_TAPCELL_ROW_74_3_2316
*11711 TAP_TAPCELL_ROW_76_2_1582
*11712 TAP_TAPCELL_ROW_76_3_2317
*11713 TAP_TAPCELL_ROW_78_2_1583
*11714 TAP_TAPCELL_ROW_78_3_2318
*11715 TAP_TAPCELL_ROW_7_1470
*11716 TAP_TAPCELL_ROW_7_1471
*11717 TAP_TAPCELL_ROW_7_1472
*11718 TAP_TAPCELL_ROW_7_1473
*11719 TAP_TAPCELL_ROW_7_1474
*11720 TAP_TAPCELL_ROW_7_1475
*11721 TAP_TAPCELL_ROW_7_1476
*11722 TAP_TAPCELL_ROW_7_1477
*11723 TAP_TAPCELL_ROW_7_1478
*11724 TAP_TAPCELL_ROW_7_1479
*11725 TAP_TAPCELL_ROW_7_1480
*11726 TAP_TAPCELL_ROW_7_1481
*11727 TAP_TAPCELL_ROW_7_1482
*11728 TAP_TAPCELL_ROW_7_1483
*11729 TAP_TAPCELL_ROW_7_1484
*11730 TAP_TAPCELL_ROW_7_1485
*11731 TAP_TAPCELL_ROW_7_1486
*11732 TAP_TAPCELL_ROW_7_1487
*11733 TAP_TAPCELL_ROW_7_1488
*11734 TAP_TAPCELL_ROW_7_1489
*11735 TAP_TAPCELL_ROW_7_1490
*11736 TAP_TAPCELL_ROW_7_1491
*11737 TAP_TAPCELL_ROW_7_1492
*11738 TAP_TAPCELL_ROW_7_1493
*11739 TAP_TAPCELL_ROW_7_1494
*11740 TAP_TAPCELL_ROW_7_1495
*11741 TAP_TAPCELL_ROW_80_2_1584
*11742 TAP_TAPCELL_ROW_80_3_2319
*11743 TAP_TAPCELL_ROW_82_2_1585
*11744 TAP_TAPCELL_ROW_82_3_2320
*11745 TAP_TAPCELL_ROW_84_2_1586
*11746 TAP_TAPCELL_ROW_84_3_2321
*11747 TAP_TAPCELL_ROW_86_2_1587
*11748 TAP_TAPCELL_ROW_86_3_2322
*11749 TAP_TAPCELL_ROW_88_2_1588
*11750 TAP_TAPCELL_ROW_88_3_2323
*11751 TAP_TAPCELL_ROW_8_1496
*11752 TAP_TAPCELL_ROW_8_1497
*11753 TAP_TAPCELL_ROW_8_1498
*11754 TAP_TAPCELL_ROW_8_1499
*11755 TAP_TAPCELL_ROW_8_1500
*11756 TAP_TAPCELL_ROW_8_1501
*11757 TAP_TAPCELL_ROW_8_1502
*11758 TAP_TAPCELL_ROW_8_1503
*11759 TAP_TAPCELL_ROW_8_1504
*11760 TAP_TAPCELL_ROW_8_1505
*11761 TAP_TAPCELL_ROW_8_1506
*11762 TAP_TAPCELL_ROW_8_1507
*11763 TAP_TAPCELL_ROW_8_1508
*11764 TAP_TAPCELL_ROW_8_1509
*11765 TAP_TAPCELL_ROW_8_1510
*11766 TAP_TAPCELL_ROW_8_1511
*11767 TAP_TAPCELL_ROW_8_1512
*11768 TAP_TAPCELL_ROW_8_1513
*11769 TAP_TAPCELL_ROW_8_1514
*11770 TAP_TAPCELL_ROW_8_1515
*11771 TAP_TAPCELL_ROW_8_1516
*11772 TAP_TAPCELL_ROW_8_1517
*11773 TAP_TAPCELL_ROW_8_1518
*11774 TAP_TAPCELL_ROW_8_1519
*11775 TAP_TAPCELL_ROW_8_1520
*11776 TAP_TAPCELL_ROW_8_1521
*11777 TAP_TAPCELL_ROW_8_1522
*11778 TAP_TAPCELL_ROW_8_1523
*11779 TAP_TAPCELL_ROW_8_1524
*11780 TAP_TAPCELL_ROW_8_1525
*11781 TAP_TAPCELL_ROW_8_1526
*11782 TAP_TAPCELL_ROW_8_1527
*11783 TAP_TAPCELL_ROW_8_1528
*11784 TAP_TAPCELL_ROW_8_1529
*11785 TAP_TAPCELL_ROW_8_1530
*11786 TAP_TAPCELL_ROW_8_1531
*11787 TAP_TAPCELL_ROW_8_1532
*11788 TAP_TAPCELL_ROW_8_1533
*11789 TAP_TAPCELL_ROW_8_1534
*11790 TAP_TAPCELL_ROW_8_1535
*11791 TAP_TAPCELL_ROW_8_1536
*11792 TAP_TAPCELL_ROW_8_1537
*11793 TAP_TAPCELL_ROW_8_1538
*11794 TAP_TAPCELL_ROW_8_1539
*11795 TAP_TAPCELL_ROW_8_1540
*11796 TAP_TAPCELL_ROW_8_1541
*11797 TAP_TAPCELL_ROW_8_1542
*11798 TAP_TAPCELL_ROW_8_1543
*11799 TAP_TAPCELL_ROW_8_1544
*11800 TAP_TAPCELL_ROW_8_1545
*11801 TAP_TAPCELL_ROW_8_1546
*11802 TAP_TAPCELL_ROW_8_1547
*11803 TAP_TAPCELL_ROW_8_1548
*11804 TAP_TAPCELL_ROW_90_2_1589
*11805 TAP_TAPCELL_ROW_90_3_2324
*11806 TAP_TAPCELL_ROW_92_2_1590
*11807 TAP_TAPCELL_ROW_92_3_2325
*11808 TAP_TAPCELL_ROW_94_2_1591
*11809 TAP_TAPCELL_ROW_94_3_2326
*11810 TAP_TAPCELL_ROW_96_2_1592
*11811 TAP_TAPCELL_ROW_96_3_2327
*11812 TAP_TAPCELL_ROW_98_2_1593
*11813 TAP_TAPCELL_ROW_98_3_2328
*11814 _104_
*11815 _105_
*11816 _106_
*11817 _107_
*11818 _108_
*11819 _109_
*11820 _110_
*11821 _111_
*11822 _112_
*11823 _113_
*11824 _114_
*11825 _115_
*11826 _116_
*11827 _117_
*11828 _118_
*11829 _119_
*11830 _120_
*11831 _121_
*11832 _122_
*11833 _123_
*11834 _124_
*11835 _125_
*11836 _126_
*11837 _127_
*11838 _128_
*11839 _129_
*11840 _130_
*11841 _131_
*11842 _132_
*11843 _133_
*11844 _134_
*11845 _135_
*11846 _136_
*11847 _137_
*11848 _138_
*11849 _139_
*11850 _140_
*11851 _141_
*11852 _142_
*11853 _143_
*11854 _144_
*11855 _145_
*11856 _146_
*11857 _147_
*11858 _148_
*11859 _149_
*11860 _150_
*11861 _151_
*11862 _152_
*11863 _153_
*11864 _154_
*11865 _155_
*11866 _156_
*11867 _157_
*11868 _158_
*11869 _159_
*11870 _160_
*11871 _161_
*11872 _162_
*11873 _163_
*11874 _164_
*11875 _165_
*11876 _166_
*11877 _167_
*11878 _168_
*11879 _169_
*11880 _170_
*11881 _171_
*11882 _172_
*11883 _173_
*11884 _174_
*11885 _175_
*11886 _176_
*11887 _177_
*11888 _178_
*11889 _179_
*11890 _180_
*11891 _181_
*11892 _182_
*11893 _183_
*11894 _184_
*11895 _185_
*11896 _186_
*11897 _187_
*11898 _188_
*11899 _189_
*11900 _190_
*11901 _191_
*11902 _192_
*11903 _193_
*11904 _194_
*11905 _195_
*11906 _196_
*11907 _197_
*11908 _198_
*11909 _199_
*11910 _200_
*11911 _201_
*11912 _202_
*11913 _203_
*11914 _204_
*11915 _205_
*11916 _206_
*11917 _207_
*11918 _208_
*11919 _209_
*11920 _210_
*11921 clkbuf_0_wb_clk_i
*11922 clkbuf_1_0__f_wb_clk_i
*11923 clkbuf_1_1__f_wb_clk_i
*11924 clkload0
*11925 fanout86
*11926 fanout87
*11927 fanout88
*11928 fanout89
*11929 fanout90
*11930 fanout91
*11931 fanout92
*11932 fanout93
*11933 fanout94
*11934 fanout95
*11935 fanout96
*11936 fanout97
*11937 hold1
*11938 hold10
*11939 hold100
*11940 hold101
*11941 hold102
*11942 hold103
*11943 hold104
*11944 hold105
*11945 hold106
*11946 hold107
*11947 hold108
*11948 hold109
*11949 hold11
*11950 hold110
*11951 hold111
*11952 hold112
*11953 hold113
*11954 hold114
*11955 hold115
*11956 hold116
*11957 hold117
*11958 hold118
*11959 hold119
*11960 hold12
*11961 hold120
*11962 hold121
*11963 hold122
*11964 hold123
*11965 hold124
*11966 hold125
*11967 hold126
*11968 hold127
*11969 hold128
*11970 hold129
*11971 hold13
*11972 hold130
*11973 hold131
*11974 hold132
*11975 hold133
*11976 hold134
*11977 hold135
*11978 hold136
*11979 hold137
*11980 hold138
*11981 hold139
*11982 hold14
*11983 hold140
*11984 hold141
*11985 hold142
*11986 hold143
*11987 hold144
*11988 hold145
*11989 hold146
*11990 hold147
*11991 hold148
*11992 hold149
*11993 hold15
*11994 hold150
*11995 hold151
*11996 hold152
*11997 hold153
*11998 hold154
*11999 hold155
*12000 hold156
*12001 hold157
*12002 hold158
*12003 hold159
*12004 hold16
*12005 hold160
*12006 hold161
*12007 hold162
*12008 hold163
*12009 hold164
*12010 hold165
*12011 hold166
*12012 hold167
*12013 hold168
*12014 hold169
*12015 hold17
*12016 hold170
*12017 hold171
*12018 hold172
*12019 hold173
*12020 hold174
*12021 hold175
*12022 hold176
*12023 hold177
*12024 hold178
*12025 hold179
*12026 hold18
*12027 hold180
*12028 hold181
*12029 hold182
*12030 hold183
*12031 hold184
*12032 hold185
*12033 hold186
*12034 hold187
*12035 hold19
*12036 hold2
*12037 hold20
*12038 hold21
*12039 hold22
*12040 hold23
*12041 hold24
*12042 hold25
*12043 hold26
*12044 hold27
*12045 hold28
*12046 hold29
*12047 hold3
*12048 hold30
*12049 hold31
*12050 hold32
*12051 hold33
*12052 hold34
*12053 hold35
*12054 hold36
*12055 hold37
*12056 hold38
*12057 hold39
*12058 hold4
*12059 hold40
*12060 hold41
*12061 hold42
*12062 hold43
*12063 hold44
*12064 hold45
*12065 hold46
*12066 hold47
*12067 hold48
*12068 hold49
*12069 hold5
*12070 hold50
*12071 hold51
*12072 hold52
*12073 hold53
*12074 hold54
*12075 hold55
*12076 hold56
*12077 hold57
*12078 hold58
*12079 hold59
*12080 hold6
*12081 hold60
*12082 hold61
*12083 hold62
*12084 hold63
*12085 hold64
*12086 hold65
*12087 hold66
*12088 hold67
*12089 hold68
*12090 hold69
*12091 hold7
*12092 hold70
*12093 hold71
*12094 hold72
*12095 hold73
*12096 hold74
*12097 hold75
*12098 hold76
*12099 hold77
*12100 hold78
*12101 hold79
*12102 hold8
*12103 hold80
*12104 hold81
*12105 hold82
*12106 hold83
*12107 hold84
*12108 hold85
*12109 hold86
*12110 hold87
*12111 hold88
*12112 hold89
*12113 hold9
*12114 hold90
*12115 hold91
*12116 hold92
*12117 hold93
*12118 hold94
*12119 hold95
*12120 hold96
*12121 hold97
*12122 hold98
*12123 hold99
*12124 i_sram\.sram0
*12125 i_sram\.sram0_100
*12126 i_sram\.sram0_101
*12127 i_sram\.sram0_102
*12128 i_sram\.sram0_103
*12129 i_sram\.sram0_104
*12130 i_sram\.sram0_105
*12131 i_sram\.sram0_106
*12132 i_sram\.sram0_128
*12133 i_sram\.sram0_129
*12134 i_sram\.sram1
*12135 i_sram\.sram1_107
*12136 i_sram\.sram1_108
*12137 i_sram\.sram1_109
*12138 i_sram\.sram1_110
*12139 i_sram\.sram1_111
*12140 i_sram\.sram1_112
*12141 i_sram\.sram1_113
*12142 i_sram\.sram1_130
*12143 i_sram\.sram1_131
*12144 i_sram\.sram2
*12145 i_sram\.sram2_114
*12146 i_sram\.sram2_115
*12147 i_sram\.sram2_116
*12148 i_sram\.sram2_117
*12149 i_sram\.sram2_118
*12150 i_sram\.sram2_119
*12151 i_sram\.sram2_120
*12152 i_sram\.sram2_132
*12153 i_sram\.sram2_133
*12154 i_sram\.sram3
*12155 i_sram\.sram3_121
*12156 i_sram\.sram3_122
*12157 i_sram\.sram3_123
*12158 i_sram\.sram3_124
*12159 i_sram\.sram3_125
*12160 i_sram\.sram3_126
*12161 i_sram\.sram3_127
*12162 i_sram\.sram3_134
*12163 i_sram\.sram3_135
*12164 input1
*12165 input10
*12166 input11
*12167 input12
*12168 input13
*12169 input14
*12170 input15
*12171 input16
*12172 input17
*12173 input18
*12174 input19
*12175 input2
*12176 input20
*12177 input21
*12178 input22
*12179 input23
*12180 input24
*12181 input25
*12182 input26
*12183 input27
*12184 input28
*12185 input29
*12186 input3
*12187 input30
*12188 input31
*12189 input32
*12190 input33
*12191 input34
*12192 input35
*12193 input36
*12194 input37
*12195 input38
*12196 input39
*12197 input4
*12198 input40
*12199 input41
*12200 input42
*12201 input43
*12202 input44
*12203 input45
*12204 input46
*12205 input47
*12206 input48
*12207 input49
*12208 input5
*12209 input50
*12210 input51
*12211 input52
*12212 input6
*12213 input7
*12214 input8
*12215 input9
*12216 load_slew98
*12217 load_slew99
*12218 output53
*12219 output54
*12220 output55
*12221 output56
*12222 output57
*12223 output58
*12224 output59
*12225 output60
*12226 output61
*12227 output62
*12228 output63
*12229 output64
*12230 output65
*12231 output66
*12232 output67
*12233 output68
*12234 output69
*12235 output70
*12236 output71
*12237 output72
*12238 output73
*12239 output74
*12240 output75
*12241 output76
*12242 output77
*12243 output78
*12244 output79
*12245 output80
*12246 output81
*12247 output82
*12248 output83
*12249 output84
*12250 output85

*PORTS
wb_clk_i I
wb_rst_i I
wbs_ack_o O
wbs_adr_i[0] I
wbs_adr_i[10] I
wbs_adr_i[11] I
wbs_adr_i[12] I
wbs_adr_i[13] I
wbs_adr_i[14] I
wbs_adr_i[15] I
wbs_adr_i[16] I
wbs_adr_i[17] I
wbs_adr_i[18] I
wbs_adr_i[19] I
wbs_adr_i[1] I
wbs_adr_i[20] I
wbs_adr_i[21] I
wbs_adr_i[22] I
wbs_adr_i[23] I
wbs_adr_i[24] I
wbs_adr_i[25] I
wbs_adr_i[26] I
wbs_adr_i[27] I
wbs_adr_i[28] I
wbs_adr_i[29] I
wbs_adr_i[2] I
wbs_adr_i[30] I
wbs_adr_i[31] I
wbs_adr_i[3] I
wbs_adr_i[4] I
wbs_adr_i[5] I
wbs_adr_i[6] I
wbs_adr_i[7] I
wbs_adr_i[8] I
wbs_adr_i[9] I
wbs_cyc_i I
wbs_dat_i[0] I
wbs_dat_i[10] I
wbs_dat_i[11] I
wbs_dat_i[12] I
wbs_dat_i[13] I
wbs_dat_i[14] I
wbs_dat_i[15] I
wbs_dat_i[16] I
wbs_dat_i[17] I
wbs_dat_i[18] I
wbs_dat_i[19] I
wbs_dat_i[1] I
wbs_dat_i[20] I
wbs_dat_i[21] I
wbs_dat_i[22] I
wbs_dat_i[23] I
wbs_dat_i[24] I
wbs_dat_i[25] I
wbs_dat_i[26] I
wbs_dat_i[27] I
wbs_dat_i[28] I
wbs_dat_i[29] I
wbs_dat_i[2] I
wbs_dat_i[30] I
wbs_dat_i[31] I
wbs_dat_i[3] I
wbs_dat_i[4] I
wbs_dat_i[5] I
wbs_dat_i[6] I
wbs_dat_i[7] I
wbs_dat_i[8] I
wbs_dat_i[9] I
wbs_dat_o[0] O
wbs_dat_o[10] O
wbs_dat_o[11] O
wbs_dat_o[12] O
wbs_dat_o[13] O
wbs_dat_o[14] O
wbs_dat_o[15] O
wbs_dat_o[16] O
wbs_dat_o[17] O
wbs_dat_o[18] O
wbs_dat_o[19] O
wbs_dat_o[1] O
wbs_dat_o[20] O
wbs_dat_o[21] O
wbs_dat_o[22] O
wbs_dat_o[23] O
wbs_dat_o[24] O
wbs_dat_o[25] O
wbs_dat_o[26] O
wbs_dat_o[27] O
wbs_dat_o[28] O
wbs_dat_o[29] O
wbs_dat_o[2] O
wbs_dat_o[30] O
wbs_dat_o[31] O
wbs_dat_o[3] O
wbs_dat_o[4] O
wbs_dat_o[5] O
wbs_dat_o[6] O
wbs_dat_o[7] O
wbs_dat_o[8] O
wbs_dat_o[9] O
wbs_sel_i[0] I
wbs_sel_i[1] I
wbs_sel_i[2] I
wbs_sel_i[3] I
wbs_stb_i I
wbs_we_i I

*D_NET *3 0.0858907
*CONN
*P wb_clk_i I
*I *11921:A I *D sky130_fd_sc_hd__clkbuf_16
*I *1061:DIODE I *D sky130_fd_sc_hd__diode_2
*CAP
1 wb_clk_i 9.9207e-05
2 *11921:A 0
3 *1061:DIODE 7.83614e-05
4 *3:41 0.00226463
5 *3:25 0.00316505
6 *3:23 0.00941322
7 *3:13 0.0272274
8 *3:11 0.0188922
9 *3:11 *12164:A 0
10 *3:23 *12124:BEN[31] 0
11 *3:23 *137:14 0.000600727
12 *3:23 *139:14 0.000904292
13 *3:23 *141:14 0.00130124
14 *3:23 *143:14 0.00172395
15 *3:23 *284:28 7.38936e-05
16 *3:23 *312:25 0.00238045
17 *3:23 *637:27 0
18 *3:25 *982:DIODE 8.46717e-05
19 *3:25 *177:16 1.53053e-05
20 *3:25 *177:18 0.00679239
21 *3:25 *287:30 0.000768476
22 *3:25 *637:31 0.00682874
23 *3:41 *984:DIODE 6.53761e-05
24 *3:41 *11884:A0 1.43191e-05
25 *3:41 *11884:A1 8.87899e-05
26 *3:41 *11884:S 4.82919e-05
27 *3:41 *11887:A1 8.65961e-05
28 *3:41 *157:14 0.000159068
29 *3:41 *177:16 0.00182711
30 *3:41 *637:64 4.82919e-05
31 *3:41 *637:85 0.000938708
*RES
1 wb_clk_i *3:11 1.6879
2 *3:11 *3:13 54.0436
3 *3:13 *3:23 30.1996
4 *3:23 *3:25 62.895
5 *3:25 *3:41 35.67
6 *3:41 *1061:DIODE 6.725
7 *3:41 *11921:A 1.6
*END

*D_NET *4 0.000341303
*CONN
*P wb_rst_i I
*I *12164:A I *D sky130_fd_sc_hd__buf_1
*CAP
1 wb_rst_i 0.000156258
2 *12164:A 0.000156258
3 *12164:A wbs_ack_o 0
4 *12164:A *318:12 2.87867e-05
5 *3:11 *12164:A 0
*RES
1 wb_rst_i *12164:A 6.27
*END

*D_NET *5 0.000719472
*CONN
*P wbs_ack_o O
*I *12218:X O *D sky130_fd_sc_hd__buf_12
*CAP
1 wbs_ack_o 0.000359736
2 *12218:X 0.000359736
3 wbs_ack_o *318:12 0
4 *12164:A wbs_ack_o 0
*RES
1 *12218:X wbs_ack_o 9
*END

*D_NET *7 0.00387423
*CONN
*P wbs_adr_i[10] I
*I *11995:A I *D sky130_fd_sc_hd__dlygate4sd3_1
*CAP
1 wbs_adr_i[10] 0.001318
2 *11995:A 0.001318
3 *11995:A wbs_dat_o[10] 0.00049857
4 *11995:A wbs_dat_o[9] 0
5 *11995:A *11981:A 8.65961e-05
6 *11995:A *12040:A 0
7 *11995:A *12046:A 0.000653057
*RES
1 wbs_adr_i[10] *11995:A 21.66
*END

*D_NET *8 0.00265299
*CONN
*P wbs_adr_i[11] I
*I *11990:A I *D sky130_fd_sc_hd__dlygate4sd3_1
*CAP
1 wbs_adr_i[11] 0.000790107
2 *11990:A 0.000790107
3 *11990:A *655:DIODE 3.00381e-05
4 *11990:A *11986:A 0.00034314
5 *11990:A *12035:A 0
6 *11990:A *12038:A 0.000185849
7 *11990:A *12220:A 0
8 *11990:A *385:14 0
9 *11990:A *540:14 0.000180054
10 *11990:A *630:80 0.000197826
11 *11990:A *632:136 0.000135873
*RES
1 wbs_adr_i[11] *11990:A 18.51
*END

*D_NET *9 0.00156476
*CONN
*P wbs_adr_i[12] I
*I *12021:A I *D sky130_fd_sc_hd__dlygate4sd3_1
*CAP
1 wbs_adr_i[12] 0.000588431
2 *12021:A 0.000588431
3 *12021:A wbs_dat_o[11] 0
4 *12021:A *12015:A 0
5 *12021:A *12222:A 0.000387896
*RES
1 wbs_adr_i[12] *12021:A 12.315
*END

*D_NET *10 0.000926186
*CONN
*P wbs_adr_i[13] I
*I *12031:A I *D sky130_fd_sc_hd__dlygate4sd3_1
*CAP
1 wbs_adr_i[13] 0.00036658
2 *12031:A 0.00036658
3 *12031:A *11993:A 0
4 *12031:A *12037:A 0
5 *12031:A *12173:A 7.75412e-05
6 *12031:A *407:10 0
7 *12031:A *600:14 0.000115484
*RES
1 wbs_adr_i[13] *12031:A 10.38
*END

*D_NET *28 0.00206725
*CONN
*P wbs_adr_i[2] I
*I *12012:A I *D sky130_fd_sc_hd__dlygate4sd3_1
*CAP
1 wbs_adr_i[2] 0.000639214
2 *12012:A 0.000639214
3 *12012:A *675:DIODE 0
4 *12012:A *11815:A 0.000285415
5 *12012:A *11835:B2 1.1561e-05
6 *12012:A *12013:A 0
7 *12012:A *12027:A 0
8 *12012:A *12071:A 0.000123225
9 *12012:A *12090:A 7.10578e-05
10 *12012:A *12212:A 0.000164164
11 *12012:A *12241:A 0
12 *12012:A *631:30 0.000133403
*RES
1 wbs_adr_i[2] *12012:A 16.02
*END

*D_NET *31 0.00277475
*CONN
*P wbs_adr_i[3] I
*I *12010:A I *D sky130_fd_sc_hd__dlygate4sd3_1
*CAP
1 wbs_adr_i[3] 0.000763954
2 *12010:A 0.000763954
3 *12010:A *676:DIODE 8.65905e-05
4 *12010:A *681:DIODE 0.000111918
5 *12010:A *11988:A 0.000345359
6 *12010:A *12011:A 4.35432e-05
7 *12010:A *12017:A 0
8 *12010:A *12025:A 0
9 *12010:A *12064:A 0.000143187
10 *12010:A *12075:A 0
11 *12010:A *12076:A 0
12 *12010:A *12207:A 0
13 *12010:A *588:20 0.000164087
14 *12010:A *588:36 0.000352156
15 *12010:A *607:14 0
16 *12010:A *624:12 0
*RES
1 wbs_adr_i[3] *12010:A 19.23
*END

*D_NET *32 0.00182995
*CONN
*P wbs_adr_i[4] I
*I *12008:A I *D sky130_fd_sc_hd__dlygate4sd3_1
*CAP
1 wbs_adr_i[4] 0.00058707
2 *12008:A 0.00058707
3 *12008:A *12009:A 0.000336361
4 *12008:A *12020:A 0
5 *12008:A *363:39 0.000158072
6 *12008:A *620:22 0.000161377
*RES
1 wbs_adr_i[4] *12008:A 13.425
*END

*D_NET *33 0.00202225
*CONN
*P wbs_adr_i[5] I
*I *11999:A I *D sky130_fd_sc_hd__dlygate4sd3_1
*CAP
1 wbs_adr_i[5] 0.00028307
2 *11999:A 0.00028307
3 *11999:A wbs_dat_o[4] 0
4 *11999:A *11970:A 4.10113e-05
5 *11999:A *12245:A 0.000347632
6 *11999:A *12246:A 0.000194891
7 *11999:A *596:22 0.000156758
8 *11999:A *618:12 0.000715818
*RES
1 wbs_adr_i[5] *11999:A 12.69
*END

*D_NET *34 0.00160702
*CONN
*P wbs_adr_i[6] I
*I *12003:A I *D sky130_fd_sc_hd__dlygate4sd3_1
*CAP
1 wbs_adr_i[6] 0.000525852
2 *12003:A 0.000525852
3 *12003:A wbs_dat_o[5] 4.82919e-05
4 *12003:A *11973:A 0.0001276
5 *12003:A *12246:A 0.000281017
6 *12003:A *12247:A 9.84114e-05
*RES
1 wbs_adr_i[6] *12003:A 14.1
*END

*D_NET *35 0.00135455
*CONN
*P wbs_adr_i[7] I
*I *12006:A I *D sky130_fd_sc_hd__dlygate4sd3_1
*CAP
1 wbs_adr_i[7] 0.00047726
2 *12006:A 0.00047726
3 *12006:A *12060:A 0
4 *12006:A *330:8 0
5 *12006:A *396:16 0.000245933
6 *12006:A *574:16 0
7 *12006:A *592:12 0.000154098
*RES
1 wbs_adr_i[7] *12006:A 12.42
*END

*D_NET *36 0.00103738
*CONN
*P wbs_adr_i[8] I
*I *12001:A I *D sky130_fd_sc_hd__dlygate4sd3_1
*CAP
1 wbs_adr_i[8] 0.000428894
2 *12001:A 0.000428894
3 *12001:A *11977:A 0
4 *12001:A *12002:A 0
5 *12001:A *12053:A 0
6 *12001:A *12202:A 0
7 *12001:A *12248:A 0.000152075
8 *12001:A *592:12 2.75145e-05
*RES
1 wbs_adr_i[8] *12001:A 10.35
*END

*D_NET *37 0.00259814
*CONN
*P wbs_adr_i[9] I
*I *11997:A I *D sky130_fd_sc_hd__dlygate4sd3_1
*CAP
1 wbs_adr_i[9] 0.000598028
2 *11997:A 0.000598028
3 *11997:A wbs_dat_o[8] 0
4 *11997:A *12044:A 0.000621834
5 *11997:A *12046:A 0
6 *11997:A *12054:A 0.000128262
7 *11997:A *12203:A 0.000109545
8 *11997:A *12249:A 0
9 *11997:A *352:14 0
10 *11997:A *452:22 0
11 *11997:A *592:12 0.00054244
*RES
1 wbs_adr_i[9] *11997:A 18.525
*END

*D_NET *38 0.000669212
*CONN
*P wbs_cyc_i I
*I *12033:A I *D sky130_fd_sc_hd__dlygate4sd3_1
*CAP
1 wbs_cyc_i 0.00028574
2 *12033:A 0.00028574
3 *12033:A *12169:A 4.82919e-05
4 *12033:A *12210:A 0
5 *12033:A *363:10 4.94404e-05
*RES
1 wbs_cyc_i *12033:A 8.34
*END

*D_NET *39 0.000641019
*CONN
*P wbs_dat_i[0] I
*I *12101:A I *D sky130_fd_sc_hd__dlygate4sd3_1
*CAP
1 wbs_dat_i[0] 0.000311322
2 *12101:A 0.000311322
3 *12101:A wbs_dat_o[0] 0
4 *12101:A *12093:A 1.83756e-05
5 *12101:A *374:14 0
*RES
1 wbs_dat_i[0] *12101:A 8.34
*END

*D_NET *40 0.00297012
*CONN
*P wbs_dat_i[10] I
*I *12040:A I *D sky130_fd_sc_hd__dlygate4sd3_1
*CAP
1 wbs_dat_i[10] 0.00098346
2 *12040:A 0.00098346
3 *12040:A wbs_dat_o[10] 0
4 *12040:A *12041:A 9.52646e-05
5 *12040:A *12042:A 0.00032358
6 *12040:A *12171:A 0.000156845
7 *12040:A *12221:A 0.000309484
8 *12040:A *385:14 0
9 *12040:A *592:12 0.000118026
10 *11995:A *12040:A 0
*RES
1 wbs_dat_i[10] *12040:A 19.635
*END

*D_NET *41 0.0013878
*CONN
*P wbs_dat_i[11] I
*I *12035:A I *D sky130_fd_sc_hd__dlygate4sd3_1
*CAP
1 wbs_dat_i[11] 0.000434792
2 *12035:A 0.000434792
3 *12035:A wbs_dat_o[11] 0
4 *12035:A *11981:A 0.000136183
5 *12035:A *12221:A 0.000272851
6 *12035:A *595:14 0.000109178
7 *11990:A *12035:A 0
*RES
1 wbs_dat_i[11] *12035:A 12.42
*END

*D_NET *42 0.00163161
*CONN
*P wbs_dat_i[12] I
*I *12015:A I *D sky130_fd_sc_hd__dlygate4sd3_1
*CAP
1 wbs_dat_i[12] 0.000501432
2 *12015:A 0.000501432
3 *12015:A wbs_dat_o[12] 0
4 *12015:A *652:DIODE 7.4027e-05
5 *12015:A *12037:A 0.00034689
6 *12015:A *12197:A 0
7 *12015:A *149:59 4.39353e-05
8 *12015:A *149:61 0.00016389
9 *12015:A *574:10 0
10 *12021:A *12015:A 0
*RES
1 wbs_dat_i[12] *12015:A 13.11
*END

*D_NET *43 0.00134899
*CONN
*P wbs_dat_i[13] I
*I *11993:A I *D sky130_fd_sc_hd__dlygate4sd3_1
*CAP
1 wbs_dat_i[13] 0.000304398
2 *11993:A 0.000304398
3 *11993:A *12037:A 0.000374392
4 *11993:A *12113:A 2.75229e-05
5 *11993:A *418:10 0
6 *11993:A *595:14 6.71882e-05
7 *11993:A *604:12 0.000271088
8 *12031:A *11993:A 0
*RES
1 wbs_dat_i[13] *11993:A 11.295
*END

*D_NET *44 0.000840367
*CONN
*P wbs_dat_i[14] I
*I *11971:A I *D sky130_fd_sc_hd__dlygate4sd3_1
*CAP
1 wbs_dat_i[14] 0.000295283
2 *11971:A 0.000295283
3 *11971:A wbs_dat_o[14] 0
4 *11971:A *12174:A 0
5 *11971:A *12224:A 0.0001249
6 *11971:A *430:14 0
7 *11971:A *605:22 0.0001249
*RES
1 wbs_dat_i[14] *11971:A 9
*END

*D_NET *45 0.000789352
*CONN
*P wbs_dat_i[15] I
*I *12091:A I *D sky130_fd_sc_hd__dlygate4sd3_1
*CAP
1 wbs_dat_i[15] 0.000306851
2 *12091:A 0.000306851
3 *12091:A wbs_dat_o[15] 0
4 *12091:A *600:14 5.0751e-05
5 *12091:A *605:22 0.0001249
*RES
1 wbs_dat_i[15] *12091:A 9
*END

*D_NET *46 0.00198487
*CONN
*P wbs_dat_i[16] I
*I *12077:A I *D sky130_fd_sc_hd__dlygate4sd3_1
*CAP
1 wbs_dat_i[16] 0.000737323
2 *12077:A 0.000737323
3 *12077:A wbs_dat_o[16] 0
4 *12077:A *907:DIODE 2.68526e-05
5 *12077:A *12078:A 0
6 *12077:A *12177:A 6.73665e-05
7 *12077:A *452:10 5.12942e-05
8 *12077:A *605:24 0.000364711
*RES
1 wbs_dat_i[16] *12077:A 16.695
*END

*D_NET *47 0.000659785
*CONN
*P wbs_dat_i[17] I
*I *12084:A I *D sky130_fd_sc_hd__dlygate4sd3_1
*CAP
1 wbs_dat_i[17] 0.000304617
2 *12084:A 0.000304617
3 *12084:A wbs_dat_o[17] 0
4 *12084:A *12082:A 0
5 *12084:A *605:24 5.05521e-05
*RES
1 wbs_dat_i[17] *12084:A 8.655
*END

*D_NET *48 0.0010763
*CONN
*P wbs_dat_i[18] I
*I *12088:A I *D sky130_fd_sc_hd__dlygate4sd3_1
*CAP
1 wbs_dat_i[18] 0.000418918
2 *12088:A 0.000418918
3 *12088:A wbs_dat_o[18] 0
4 *12088:A *606:28 0.000238467
*RES
1 wbs_dat_i[18] *12088:A 10.62
*END

*D_NET *49 0.00234345
*CONN
*P wbs_dat_i[19] I
*I *12099:A I *D sky130_fd_sc_hd__dlygate4sd3_1
*CAP
1 wbs_dat_i[19] 0.000462652
2 *12099:A 0.000462652
3 *12099:A wbs_dat_o[19] 0
4 *12099:A *12086:A 4.82919e-05
5 *12099:A *12097:A 0.000201079
6 *12099:A *12100:A 5.73739e-05
7 *12099:A *606:28 0.0011114
*RES
1 wbs_dat_i[19] *12099:A 16.035
*END

*D_NET *50 0.00190766
*CONN
*P wbs_dat_i[1] I
*I *12095:A I *D sky130_fd_sc_hd__dlygate4sd3_1
*CAP
1 wbs_dat_i[1] 0.000499063
2 *12095:A 0.000499063
3 *12095:A wbs_dat_o[1] 0
4 *12095:A *12024:A 0.000117832
5 *12095:A *12027:A 0.00010163
6 *12095:A *12205:A 0.00020253
7 *12095:A *12230:A 2.0851e-06
8 *12095:A *588:20 0.000485456
*RES
1 wbs_dat_i[1] *12095:A 13.605
*END

*D_NET *51 0.000666342
*CONN
*P wbs_dat_i[20] I
*I *12106:A I *D sky130_fd_sc_hd__dlygate4sd3_1
*CAP
1 wbs_dat_i[20] 0.000309285
2 *12106:A 0.000309285
3 *12106:A *12231:A 4.77719e-05
*RES
1 wbs_dat_i[20] *12106:A 8.31
*END

*D_NET *52 0.00126196
*CONN
*P wbs_dat_i[21] I
*I *12110:A I *D sky130_fd_sc_hd__dlygate4sd3_1
*CAP
1 wbs_dat_i[21] 0.000462752
2 *12110:A 0.000462752
3 *12110:A *12108:A 1.25877e-05
4 *12110:A *507:14 0.000323867
*RES
1 wbs_dat_i[21] *12110:A 11.73
*END

*D_NET *53 0.000625622
*CONN
*P wbs_dat_i[22] I
*I *12115:A I *D sky130_fd_sc_hd__dlygate4sd3_1
*CAP
1 wbs_dat_i[22] 0.000243531
2 *12115:A 0.000243531
3 *12115:A *606:28 0.00013856
4 *12115:A *609:34 0
*RES
1 wbs_dat_i[22] *12115:A 7.995
*END

*D_NET *54 0.00318098
*CONN
*P wbs_dat_i[23] I
*I *12119:A I *D sky130_fd_sc_hd__dlygate4sd3_1
*CAP
1 wbs_dat_i[23] 0.00107271
2 *12119:A 0.00107271
3 *12119:A wbs_dat_o[23] 0.00058455
4 *12119:A *12117:A 0.000134314
5 *12119:A *12234:A 0.00031669
*RES
1 wbs_dat_i[23] *12119:A 18.9
*END

*D_NET *55 0.000813619
*CONN
*P wbs_dat_i[24] I
*I *12123:A I *D sky130_fd_sc_hd__dlygate4sd3_1
*CAP
1 wbs_dat_i[24] 0.000359353
2 *12123:A 0.000359353
3 *12123:A wbs_dat_o[24] 0
4 *12123:A *12235:A 9.49124e-05
*RES
1 wbs_dat_i[24] *12123:A 9.345
*END

*D_NET *56 0.00180039
*CONN
*P wbs_dat_i[25] I
*I *11942:A I *D sky130_fd_sc_hd__dlygate4sd3_1
*CAP
1 wbs_dat_i[25] 0.000803052
2 *11942:A 0.000803052
3 *11942:A wbs_dat_o[25] 0
4 *11942:A *11939:A 0
5 *11942:A *11940:A 0.000146507
6 *11942:A *12236:A 0
7 *11942:A *552:10 0
8 *11942:A *563:12 4.77757e-05
*RES
1 wbs_dat_i[25] *11942:A 16.11
*END

*D_NET *57 0.000281182
*CONN
*P wbs_dat_i[26] I
*I *11946:A I *D sky130_fd_sc_hd__dlygate4sd3_1
*CAP
1 wbs_dat_i[26] 0.000140591
2 *11946:A 0.000140591
3 *11946:A wbs_dat_o[26] 0
*RES
1 wbs_dat_i[26] *11946:A 5.82
*END

*D_NET *58 0.00123291
*CONN
*P wbs_dat_i[27] I
*I *11951:A I *D sky130_fd_sc_hd__dlygate4sd3_1
*CAP
1 wbs_dat_i[27] 0.000560267
2 *11951:A 0.000560267
3 *11951:A wbs_dat_o[27] 0
4 *11951:A *11944:A 0
5 *11951:A *11947:A 0.00011238
6 *11951:A *567:14 0
*RES
1 wbs_dat_i[27] *11951:A 12.42
*END

*D_NET *59 0.00201341
*CONN
*P wbs_dat_i[28] I
*I *11955:A I *D sky130_fd_sc_hd__dlygate4sd3_1
*CAP
1 wbs_dat_i[28] 0.000638922
2 *11955:A 0.000638922
3 *11955:A wbs_dat_o[28] 0
4 *11955:A *11953:A 0.000111285
5 *11955:A *569:16 0.000624281
*RES
1 wbs_dat_i[28] *11955:A 16.17
*END

*D_NET *60 0.00090313
*CONN
*P wbs_dat_i[29] I
*I *11959:A I *D sky130_fd_sc_hd__dlygate4sd3_1
*CAP
1 wbs_dat_i[29] 0.000349549
2 *11959:A 0.000349549
3 *11959:A wbs_dat_o[29] 0
4 *11959:A *12240:A 8.65961e-05
5 *11959:A *568:22 0.000117436
*RES
1 wbs_dat_i[29] *11959:A 8.655
*END

*D_NET *61 0.00347531
*CONN
*P wbs_dat_i[2] I
*I *12090:A I *D sky130_fd_sc_hd__dlygate4sd3_1
*CAP
1 wbs_dat_i[2] 0.00128995
2 *12090:A 0.00128995
3 *12090:A *670:DIODE 0.000131874
4 *12090:A *11832:A2 1.88602e-05
5 *12090:A *11832:B2 4.44345e-05
6 *12090:A *12071:A 3.23284e-05
7 *12090:A *12212:A 0
8 *12090:A *12241:A 0.000111898
9 *12090:A *132:18 0
10 *12090:A *208:29 0.000109007
11 *12090:A *363:30 0
12 *12090:A *596:14 0
13 *12090:A *631:22 0.000152895
14 *12090:A *631:30 0.000223055
15 *12012:A *12090:A 7.10578e-05
*RES
1 wbs_dat_i[2] *12090:A 22.335
*END

*D_NET *62 0.000691845
*CONN
*P wbs_dat_i[30] I
*I *11964:A I *D sky130_fd_sc_hd__dlygate4sd3_1
*CAP
1 wbs_dat_i[30] 0.000231221
2 *11964:A 0.000231221
3 *11964:A wbs_dat_o[30] 0
4 *11964:A *12242:A 8.65961e-05
5 *11964:A *529:20 0.000142806
6 *11964:A *572:8 0
*RES
1 wbs_dat_i[30] *11964:A 8.655
*END

*D_NET *63 0.000636499
*CONN
*P wbs_dat_i[31] I
*I *11968:A I *D sky130_fd_sc_hd__dlygate4sd3_1
*CAP
1 wbs_dat_i[31] 0.000279483
2 *11968:A 0.000279483
3 *11968:A wbs_dat_o[31] 0
4 *11968:A *573:10 7.75325e-05
*RES
1 wbs_dat_i[31] *11968:A 8.655
*END

*D_NET *64 0.00110864
*CONN
*P wbs_dat_i[3] I
*I *12075:A I *D sky130_fd_sc_hd__dlygate4sd3_1
*CAP
1 wbs_dat_i[3] 0.000324103
2 *12075:A 0.000324103
3 *12075:A wbs_dat_o[3] 0
4 *12075:A *12076:A 0.000339507
5 *12075:A *12213:A 0
6 *12075:A *12245:A 0.000117936
7 *12075:A *587:16 0
8 *12075:A *607:14 2.99518e-06
9 *12010:A *12075:A 0
*RES
1 wbs_dat_i[3] *12075:A 10.455
*END

*D_NET *65 0.00171635
*CONN
*P wbs_dat_i[4] I
*I *12068:A I *D sky130_fd_sc_hd__dlygate4sd3_1
*CAP
1 wbs_dat_i[4] 0.00064378
2 *12068:A 0.00064378
3 *12068:A *12057:A 0.000113797
4 *12068:A *12214:A 0
5 *12068:A *363:39 0.000278117
6 *12068:A *575:24 0
7 *12068:A *576:14 0
8 *12068:A *582:16 3.68769e-05
9 *12068:A *620:22 0
*RES
1 wbs_dat_i[4] *12068:A 14.46
*END

*D_NET *66 0.00175252
*CONN
*P wbs_dat_i[5] I
*I *12066:A I *D sky130_fd_sc_hd__dlygate4sd3_1
*CAP
1 wbs_dat_i[5] 0.000601813
2 *12066:A 0.000601813
3 *12066:A wbs_dat_o[5] 0
4 *12066:A *12055:A 6.02202e-05
5 *12066:A *12215:A 0.000281233
6 *12066:A *12247:A 0.000159151
7 *12066:A *363:39 4.82919e-05
8 *12066:A *577:28 0
9 *12066:A *607:16 0
*RES
1 wbs_dat_i[5] *12066:A 14.805
*END

*D_NET *67 0.000566904
*CONN
*P wbs_dat_i[6] I
*I *12062:A I *D sky130_fd_sc_hd__dlygate4sd3_1
*CAP
1 wbs_dat_i[6] 0.000245116
2 *12062:A 0.000245116
3 *12062:A *12063:A 7.66727e-05
4 *12062:A *407:16 0
*RES
1 wbs_dat_i[6] *12062:A 7.86
*END

*D_NET *68 0.000621086
*CONN
*P wbs_dat_i[7] I
*I *12060:A I *D sky130_fd_sc_hd__dlygate4sd3_1
*CAP
1 wbs_dat_i[7] 0.000307627
2 *12060:A 0.000307627
3 *12060:A wbs_dat_o[7] 0
4 *12060:A *12049:A 5.83121e-06
5 *12006:A *12060:A 0
*RES
1 wbs_dat_i[7] *12060:A 7.995
*END

*D_NET *69 0.00182845
*CONN
*P wbs_dat_i[8] I
*I *12053:A I *D sky130_fd_sc_hd__dlygate4sd3_1
*CAP
1 wbs_dat_i[8] 0.000669279
2 *12053:A 0.000669279
3 *12053:A *12002:A 0.00034158
4 *12053:A *12167:A 2.49909e-05
5 *12053:A *592:12 0.000123321
6 *12001:A *12053:A 0
*RES
1 wbs_dat_i[8] *12053:A 12.975
*END

*D_NET *70 0.00274671
*CONN
*P wbs_dat_i[9] I
*I *12046:A I *D sky130_fd_sc_hd__dlygate4sd3_1
*CAP
1 wbs_dat_i[9] 0.0010114
2 *12046:A 0.0010114
3 *12046:A wbs_dat_o[9] 0
4 *12046:A *12054:A 7.08554e-05
5 *11995:A *12046:A 0.000653057
6 *11997:A *12046:A 0
*RES
1 wbs_dat_i[9] *12046:A 19.005
*END

*D_NET *71 0.000840813
*CONN
*P wbs_dat_o[0] O
*I *12219:X O *D sky130_fd_sc_hd__buf_12
*CAP
1 wbs_dat_o[0] 0.000325146
2 *12219:X 0.000325146
3 wbs_dat_o[0] *12030:A 0
4 wbs_dat_o[0] *12093:A 0
5 wbs_dat_o[0] *12170:A 0.000140639
6 wbs_dat_o[0] *588:20 4.98818e-05
7 *12101:A wbs_dat_o[0] 0
*RES
1 *12219:X wbs_dat_o[0] 9.21
*END

*D_NET *72 0.00119489
*CONN
*P wbs_dat_o[10] O
*I *12220:X O *D sky130_fd_sc_hd__buf_12
*CAP
1 wbs_dat_o[10] 0.000330778
2 *12220:X 0.000330778
3 wbs_dat_o[10] *12220:A 3.47603e-05
4 *11995:A wbs_dat_o[10] 0.00049857
5 *12040:A wbs_dat_o[10] 0
*RES
1 *12220:X wbs_dat_o[10] 10.155
*END

*D_NET *73 0.000991958
*CONN
*P wbs_dat_o[11] O
*I *12221:X O *D sky130_fd_sc_hd__buf_12
*CAP
1 wbs_dat_o[11] 0.000309814
2 *12221:X 0.000309814
3 wbs_dat_o[11] *12222:A 0.000239813
4 wbs_dat_o[11] *396:10 3.32171e-05
5 wbs_dat_o[11] *600:14 9.93004e-05
6 *12021:A wbs_dat_o[11] 0
7 *12035:A wbs_dat_o[11] 0
*RES
1 *12221:X wbs_dat_o[11] 10.035
*END

*D_NET *74 0.000983097
*CONN
*P wbs_dat_o[12] O
*I *12222:X O *D sky130_fd_sc_hd__buf_12
*CAP
1 wbs_dat_o[12] 0.000323845
2 *12222:X 0.000323845
3 wbs_dat_o[12] *12197:A 4.92488e-05
4 wbs_dat_o[12] *12222:A 4.77757e-05
5 wbs_dat_o[12] *149:61 0
6 wbs_dat_o[12] *407:10 0.000158743
7 wbs_dat_o[12] *574:10 0
8 wbs_dat_o[12] *600:14 7.96401e-05
9 *12015:A wbs_dat_o[12] 0
*RES
1 *12222:X wbs_dat_o[12] 10.035
*END

*D_NET *75 0.00108006
*CONN
*P wbs_dat_o[13] O
*I *12223:X O *D sky130_fd_sc_hd__buf_12
*CAP
1 wbs_dat_o[13] 0.000305333
2 *12223:X 0.000305333
3 wbs_dat_o[13] *12004:A 0.000111679
4 wbs_dat_o[13] *12223:A 4.77757e-05
5 wbs_dat_o[13] *12224:A 0.000123589
6 wbs_dat_o[13] *418:10 0.000152873
7 wbs_dat_o[13] *600:14 2.26024e-05
8 wbs_dat_o[13] *604:12 0
9 wbs_dat_o[13] *605:22 1.08758e-05
*RES
1 *12223:X wbs_dat_o[13] 10.035
*END

*D_NET *76 0.00132068
*CONN
*P wbs_dat_o[14] O
*I *12224:X O *D sky130_fd_sc_hd__buf_12
*CAP
1 wbs_dat_o[14] 0.000354637
2 *12224:X 0.000354637
3 wbs_dat_o[14] *12047:A 0.000159803
4 wbs_dat_o[14] *12224:A 8.41307e-05
5 wbs_dat_o[14] *430:14 4.46999e-05
6 wbs_dat_o[14] *600:14 5.9964e-05
7 wbs_dat_o[14] *605:22 0.000262805
8 *11971:A wbs_dat_o[14] 0
*RES
1 *12224:X wbs_dat_o[14] 10.935
*END

*D_NET *77 0.00144577
*CONN
*P wbs_dat_o[15] O
*I *12225:X O *D sky130_fd_sc_hd__buf_12
*CAP
1 wbs_dat_o[15] 0.000425745
2 *12225:X 0.000425745
3 wbs_dat_o[15] *785:DIODE 0.000112279
4 wbs_dat_o[15] *11937:A 0.00017519
5 wbs_dat_o[15] *605:22 0.000306816
6 *12091:A wbs_dat_o[15] 0
*RES
1 *12225:X wbs_dat_o[15] 11.28
*END

*D_NET *78 0.000557376
*CONN
*P wbs_dat_o[16] O
*I *12226:X O *D sky130_fd_sc_hd__buf_12
*CAP
1 wbs_dat_o[16] 0.000236307
2 *12226:X 0.000236307
3 wbs_dat_o[16] *12078:A 8.47629e-05
4 wbs_dat_o[16] *12178:A 0
5 wbs_dat_o[16] *452:10 0
6 *12077:A wbs_dat_o[16] 0
*RES
1 *12226:X wbs_dat_o[16] 7.86
*END

*D_NET *79 0.00205244
*CONN
*P wbs_dat_o[17] O
*I *12227:X O *D sky130_fd_sc_hd__buf_12
*CAP
1 wbs_dat_o[17] 0.000494403
2 *12227:X 0.000494403
3 wbs_dat_o[17] *1062:DIODE 6.18754e-05
4 wbs_dat_o[17] *12082:A 0.000164686
5 wbs_dat_o[17] *12085:A 0
6 wbs_dat_o[17] *12227:A 0.000160641
7 wbs_dat_o[17] *12228:A 7.03893e-05
8 wbs_dat_o[17] *155:64 5.38499e-05
9 wbs_dat_o[17] *155:66 9.43117e-05
10 wbs_dat_o[17] *632:221 0.000109589
11 wbs_dat_o[17] *634:148 0.000348292
12 *12084:A wbs_dat_o[17] 0
*RES
1 *12227:X wbs_dat_o[17] 15.15
*END

*D_NET *80 0.00275147
*CONN
*P wbs_dat_o[18] O
*I *12228:X O *D sky130_fd_sc_hd__buf_12
*CAP
1 wbs_dat_o[18] 0.000918629
2 *12228:X 0.000918629
3 wbs_dat_o[18] *1074:DIODE 5.39718e-05
4 wbs_dat_o[18] *12089:A 0.000349972
5 wbs_dat_o[18] *12228:A 0.000433531
6 wbs_dat_o[18] *605:24 7.67345e-05
7 *12088:A wbs_dat_o[18] 0
*RES
1 *12228:X wbs_dat_o[18] 19.8
*END

*D_NET *81 0.0027237
*CONN
*P wbs_dat_o[19] O
*I *12229:X O *D sky130_fd_sc_hd__buf_12
*CAP
1 wbs_dat_o[19] 0.00108423
2 *12229:X 0.00108423
3 wbs_dat_o[19] *1086:DIODE 6.44118e-05
4 wbs_dat_o[19] *1094:DIODE 2.36616e-05
5 wbs_dat_o[19] *12086:A 0
6 wbs_dat_o[19] *12100:A 0
7 wbs_dat_o[19] *12229:A 0.00043749
8 wbs_dat_o[19] *159:61 2.96845e-05
9 *12099:A wbs_dat_o[19] 0
*RES
1 *12229:X wbs_dat_o[19] 21.75
*END

*D_NET *82 0.000575377
*CONN
*P wbs_dat_o[1] O
*I *12230:X O *D sky130_fd_sc_hd__buf_12
*CAP
1 wbs_dat_o[1] 0.000287688
2 *12230:X 0.000287688
3 wbs_dat_o[1] *12024:A 0
4 wbs_dat_o[1] *12027:A 0
5 wbs_dat_o[1] *12206:A 0
6 *12095:A wbs_dat_o[1] 0
*RES
1 *12230:X wbs_dat_o[1] 7.86
*END

*D_NET *83 0.00166208
*CONN
*P wbs_dat_o[20] O
*I *12231:X O *D sky130_fd_sc_hd__buf_12
*CAP
1 wbs_dat_o[20] 0.000508184
2 *12231:X 0.000508184
3 wbs_dat_o[20] *1099:DIODE 0.000139238
4 wbs_dat_o[20] *12104:A 0
5 wbs_dat_o[20] *12183:A 0
6 wbs_dat_o[20] *12231:A 0.000393029
7 wbs_dat_o[20] *605:24 0.000113448
*RES
1 *12231:X wbs_dat_o[20] 13.695
*END

*D_NET *84 0.00174136
*CONN
*P wbs_dat_o[21] O
*I *12232:X O *D sky130_fd_sc_hd__buf_12
*CAP
1 wbs_dat_o[21] 0.000350752
2 *12232:X 0.000350752
3 wbs_dat_o[21] *12108:A 0.0001249
4 wbs_dat_o[21] *12232:A 0.000197264
5 wbs_dat_o[21] *606:28 0.000717694
*RES
1 *12232:X wbs_dat_o[21] 12.225
*END

*D_NET *85 0.00171858
*CONN
*P wbs_dat_o[22] O
*I *12233:X O *D sky130_fd_sc_hd__buf_12
*CAP
1 wbs_dat_o[22] 0.000400799
2 *12233:X 0.000400799
3 wbs_dat_o[22] *12112:A 0.00011852
4 wbs_dat_o[22] *12116:A 0.000344448
5 wbs_dat_o[22] *12233:A 0.000340203
6 wbs_dat_o[22] *12235:A 0.000113809
*RES
1 *12233:X wbs_dat_o[22] 12.795
*END

*D_NET *86 0.00152529
*CONN
*P wbs_dat_o[23] O
*I *12234:X O *D sky130_fd_sc_hd__buf_12
*CAP
1 wbs_dat_o[23] 0.000223746
2 *12234:X 0.000223746
3 wbs_dat_o[23] *12117:A 0.000318091
4 wbs_dat_o[23] *12234:A 0.000175158
5 *12119:A wbs_dat_o[23] 0.00058455
*RES
1 *12234:X wbs_dat_o[23] 10.845
*END

*D_NET *87 0.000959629
*CONN
*P wbs_dat_o[24] O
*I *12235:X O *D sky130_fd_sc_hd__buf_12
*CAP
1 wbs_dat_o[24] 0.000443024
2 *12235:X 0.000443024
3 wbs_dat_o[24] *12235:A 7.35813e-05
4 *12123:A wbs_dat_o[24] 0
*RES
1 *12235:X wbs_dat_o[24] 10.725
*END

*D_NET *88 0.000860633
*CONN
*P wbs_dat_o[25] O
*I *12236:X O *D sky130_fd_sc_hd__buf_12
*CAP
1 wbs_dat_o[25] 0.000430316
2 *12236:X 0.000430316
3 *11942:A wbs_dat_o[25] 0
*RES
1 *12236:X wbs_dat_o[25] 9.675
*END

*D_NET *89 0.00102102
*CONN
*P wbs_dat_o[26] O
*I *12237:X O *D sky130_fd_sc_hd__buf_12
*CAP
1 wbs_dat_o[26] 0.000416342
2 *12237:X 0.000416342
3 wbs_dat_o[26] *12190:A 6.66916e-05
4 wbs_dat_o[26] *12237:A 0.000121643
5 *11946:A wbs_dat_o[26] 0
*RES
1 *12237:X wbs_dat_o[26] 10.725
*END

*D_NET *90 0.000894601
*CONN
*P wbs_dat_o[27] O
*I *12238:X O *D sky130_fd_sc_hd__buf_12
*CAP
1 wbs_dat_o[27] 0.000396427
2 *12238:X 0.000396427
3 wbs_dat_o[27] *11944:A 0
4 wbs_dat_o[27] *11948:A 0
5 wbs_dat_o[27] *12238:A 4.77757e-05
6 wbs_dat_o[27] *568:14 5.39718e-05
7 *11951:A wbs_dat_o[27] 0
*RES
1 *12238:X wbs_dat_o[27] 10.035
*END

*D_NET *91 0.000881705
*CONN
*P wbs_dat_o[28] O
*I *12239:X O *D sky130_fd_sc_hd__buf_12
*CAP
1 wbs_dat_o[28] 0.000416706
2 *12239:X 0.000416706
3 wbs_dat_o[28] *11953:A 0
4 wbs_dat_o[28] *12192:A 0
5 wbs_dat_o[28] *12239:A 4.82919e-05
6 *11955:A wbs_dat_o[28] 0
*RES
1 *12239:X wbs_dat_o[28] 10.035
*END

*D_NET *92 0.00106743
*CONN
*P wbs_dat_o[29] O
*I *12240:X O *D sky130_fd_sc_hd__buf_12
*CAP
1 wbs_dat_o[29] 0.000310034
2 *12240:X 0.000310034
3 wbs_dat_o[29] *11957:A 0.000128537
4 wbs_dat_o[29] *11961:A 0.000206123
5 wbs_dat_o[29] *12240:A 4.82919e-05
6 wbs_dat_o[29] *567:22 0
7 wbs_dat_o[29] *568:22 0
8 wbs_dat_o[29] *570:14 6.44134e-05
9 *11959:A wbs_dat_o[29] 0
*RES
1 *12240:X wbs_dat_o[29] 10.035
*END

*D_NET *93 0.00220756
*CONN
*P wbs_dat_o[2] O
*I *12241:X O *D sky130_fd_sc_hd__buf_12
*CAP
1 wbs_dat_o[2] 0.000860612
2 *12241:X 0.000860612
3 wbs_dat_o[2] *12017:A 0
4 wbs_dat_o[2] *12212:A 0.000118933
5 wbs_dat_o[2] *12241:A 7.15786e-05
6 wbs_dat_o[2] *363:30 3.47837e-05
7 wbs_dat_o[2] *582:6 0.000261044
*RES
1 *12241:X wbs_dat_o[2] 15.885
*END

*D_NET *94 0.000894372
*CONN
*P wbs_dat_o[30] O
*I *12242:X O *D sky130_fd_sc_hd__buf_12
*CAP
1 wbs_dat_o[30] 0.000330119
2 *12242:X 0.000330119
3 wbs_dat_o[30] *11962:A 0.000138808
4 wbs_dat_o[30] *11965:A 4.70343e-05
5 wbs_dat_o[30] *12195:A 0
6 wbs_dat_o[30] *12242:A 4.82919e-05
7 wbs_dat_o[30] *572:8 0
8 *11964:A wbs_dat_o[30] 0
*RES
1 *12242:X wbs_dat_o[30] 10.035
*END

*D_NET *95 0.000505822
*CONN
*P wbs_dat_o[31] O
*I *12243:X O *D sky130_fd_sc_hd__buf_12
*CAP
1 wbs_dat_o[31] 0.000252911
2 *12243:X 0.000252911
3 wbs_dat_o[31] *12196:A 0
4 wbs_dat_o[31] *573:10 0
5 *11968:A wbs_dat_o[31] 0
*RES
1 *12243:X wbs_dat_o[31] 7.86
*END

*D_NET *96 0.00138725
*CONN
*P wbs_dat_o[3] O
*I *12244:X O *D sky130_fd_sc_hd__buf_12
*CAP
1 wbs_dat_o[3] 0.000472725
2 *12244:X 0.000472725
3 wbs_dat_o[3] *12020:A 0
4 wbs_dat_o[3] *12244:A 2.75229e-05
5 wbs_dat_o[3] *587:16 0
6 wbs_dat_o[3] *588:36 0.00023468
7 wbs_dat_o[3] *591:16 0.0001796
8 wbs_dat_o[3] *622:20 0
9 *12075:A wbs_dat_o[3] 0
*RES
1 *12244:X wbs_dat_o[3] 12.33
*END

*D_NET *97 0.00110296
*CONN
*P wbs_dat_o[4] O
*I *12245:X O *D sky130_fd_sc_hd__buf_12
*CAP
1 wbs_dat_o[4] 0.000477411
2 *12245:X 0.000477411
3 wbs_dat_o[4] *12246:A 0.000148136
4 wbs_dat_o[4] *596:22 0
5 *11999:A wbs_dat_o[4] 0
*RES
1 *12245:X wbs_dat_o[4] 9.585
*END

*D_NET *98 0.00043267
*CONN
*P wbs_dat_o[5] O
*I *12246:X O *D sky130_fd_sc_hd__buf_12
*CAP
1 wbs_dat_o[5] 0.000178428
2 *12246:X 0.000178428
3 wbs_dat_o[5] *11973:A 2.75229e-05
4 wbs_dat_o[5] *12247:A 0
5 *12003:A wbs_dat_o[5] 4.82919e-05
6 *12066:A wbs_dat_o[5] 0
*RES
1 *12246:X wbs_dat_o[5] 6.525
*END

*D_NET *99 0.000660516
*CONN
*P wbs_dat_o[6] O
*I *12247:X O *D sky130_fd_sc_hd__buf_12
*CAP
1 wbs_dat_o[6] 0.000166105
2 *12247:X 0.000166105
3 wbs_dat_o[6] *407:16 3.95178e-06
4 wbs_dat_o[6] *418:16 0.000159964
5 wbs_dat_o[6] *574:16 0.00016439
*RES
1 *12247:X wbs_dat_o[6] 7.05
*END

*D_NET *100 0.0014319
*CONN
*P wbs_dat_o[7] O
*I *12248:X O *D sky130_fd_sc_hd__buf_12
*CAP
1 wbs_dat_o[7] 0.000584446
2 *12248:X 0.000584446
3 wbs_dat_o[7] *11977:A 4.40028e-05
4 wbs_dat_o[7] *12002:A 8.35068e-05
5 wbs_dat_o[7] *12049:A 0.000131899
6 wbs_dat_o[7] *12248:A 0
7 wbs_dat_o[7] *579:24 3.59531e-06
8 *12060:A wbs_dat_o[7] 0
*RES
1 *12248:X wbs_dat_o[7] 12.225
*END

*D_NET *101 0.00128445
*CONN
*P wbs_dat_o[8] O
*I *12249:X O *D sky130_fd_sc_hd__buf_12
*CAP
1 wbs_dat_o[8] 0.000533093
2 *12249:X 0.000533093
3 wbs_dat_o[8] *11977:A 4.82919e-05
4 wbs_dat_o[8] *12054:A 0.000124471
5 wbs_dat_o[8] *452:22 4.55025e-05
6 *11997:A wbs_dat_o[8] 0
*RES
1 *12249:X wbs_dat_o[8] 11.535
*END

*D_NET *102 0.00130729
*CONN
*P wbs_dat_o[9] O
*I *12250:X O *D sky130_fd_sc_hd__buf_12
*CAP
1 wbs_dat_o[9] 0.000402456
2 *12250:X 0.000402456
3 wbs_dat_o[9] *12044:A 0.000185719
4 wbs_dat_o[9] *12250:A 0.000201508
5 wbs_dat_o[9] *593:22 0.000115146
6 *11995:A wbs_dat_o[9] 0
7 *12046:A wbs_dat_o[9] 0
*RES
1 *12250:X wbs_dat_o[9] 11.415
*END

*D_NET *103 0.000927195
*CONN
*P wbs_sel_i[0] I
*I *12030:A I *D sky130_fd_sc_hd__dlygate4sd3_1
*CAP
1 wbs_sel_i[0] 0.000463597
2 *12030:A 0.000463597
3 *12030:A *12219:A 0
4 wbs_dat_o[0] *12030:A 0
*RES
1 wbs_sel_i[0] *12030:A 10.35
*END

*D_NET *104 0.00204634
*CONN
*P wbs_sel_i[1] I
*I *12027:A I *D sky130_fd_sc_hd__dlygate4sd3_1
*CAP
1 wbs_sel_i[1] 0.000784974
2 *12027:A 0.000784974
3 *12027:A *12206:A 0.000134478
4 *12027:A *588:20 0.000240286
5 wbs_dat_o[1] *12027:A 0
6 *12012:A *12027:A 0
7 *12095:A *12027:A 0.00010163
*RES
1 wbs_sel_i[1] *12027:A 16.005
*END

*D_NET *105 0.00236955
*CONN
*P wbs_sel_i[2] I
*I *12017:A I *D sky130_fd_sc_hd__dlygate4sd3_1
*CAP
1 wbs_sel_i[2] 0.000670504
2 *12017:A 0.000670504
3 *12017:A *11838:A2 0
4 *12017:A *11838:C1 0
5 *12017:A *12014:A 0
6 *12017:A *12207:A 0.000140248
7 *12017:A *571:12 0.000396461
8 *12017:A *622:20 0.000198333
9 *12017:A *624:12 0
10 *12017:A *631:18 0.000275553
11 *12017:A *633:77 1.79483e-05
12 wbs_dat_o[2] *12017:A 0
13 *12010:A *12017:A 0
*RES
1 wbs_sel_i[2] *12017:A 17.055
*END

*D_NET *106 0.00233914
*CONN
*P wbs_sel_i[3] I
*I *12020:A I *D sky130_fd_sc_hd__dlygate4sd3_1
*CAP
1 wbs_sel_i[3] 0.000579732
2 *12020:A 0.000579732
3 *12020:A *11979:A 8.45948e-05
4 *12020:A *12018:A 0.000136182
5 *12020:A *12209:A 0.000149019
6 *12020:A *587:30 0.000467475
7 *12020:A *588:44 2.23407e-05
8 *12020:A *592:10 5.46798e-05
9 *12020:A *622:20 0
10 *12020:A *631:218 0.00026538
11 wbs_dat_o[3] *12020:A 0
12 *12008:A *12020:A 0
*RES
1 wbs_sel_i[3] *12020:A 16.5
*END

*D_NET *107 0.000387134
*CONN
*P wbs_stb_i I
*I *12210:A I *D sky130_fd_sc_hd__clkbuf_2
*CAP
1 wbs_stb_i 0.000171961
2 *12210:A 0.000171961
3 *12210:A *12034:A 0
4 *12210:A *587:10 4.32126e-05
5 *12033:A *12210:A 0
*RES
1 wbs_stb_i *12210:A 6.36
*END

*D_NET *108 0.000297321
*CONN
*P wbs_we_i I
*I *12034:A I *D sky130_fd_sc_hd__dlygate4sd3_1
*CAP
1 wbs_we_i 0.00014866
2 *12034:A 0.00014866
3 *12034:A *587:10 0
4 *12210:A *12034:A 0
*RES
1 wbs_we_i *12034:A 5.82
*END

*D_NET *109 0.0187248
*CONN
*I *11920:RESET_B I *D sky130_fd_sc_hd__dfrtp_4
*I *11815:Y O *D sky130_fd_sc_hd__inv_2
*CAP
1 *11920:RESET_B 0.00113553
2 *11815:Y 0.000324827
3 *109:16 0.0039399
4 *109:12 0.0031292
5 *11920:RESET_B *11817:A 0.000122273
6 *11920:RESET_B *11829:B2 0.000316979
7 *11920:RESET_B *110:33 0.000315154
8 *11920:RESET_B *118:14 0.00234837
9 *11920:RESET_B *577:28 0.000121276
10 *11920:RESET_B *588:46 0.00253518
11 *109:12 *681:DIODE 5.26518e-05
12 *109:12 *11853:A2 4.65515e-05
13 *109:12 *11853:B2 0.000232111
14 *109:12 *11853:C1 4.53904e-05
15 *109:12 *12194:A 0
16 *109:12 *217:27 0.000313119
17 *109:12 *363:30 0.00041594
18 *109:12 *571:12 0.000491113
19 *109:12 *621:8 7.68414e-06
20 *109:16 *623:14 0.000365082
21 *109:16 *630:6 0.000157296
22 *109:16 *630:19 3.72418e-05
23 *109:16 *630:26 0.00227193
*RES
1 *11815:Y *109:12 15.815
2 *109:12 *109:16 37.64
3 *109:16 *11920:RESET_B 42.705
*END

*D_NET *110 0.0133961
*CONN
*I *11817:A I *D sky130_fd_sc_hd__inv_2
*I *11822:A I *D sky130_fd_sc_hd__nor2_4
*I *11825:B I *D sky130_fd_sc_hd__nor2_4
*I *11816:Y O *D sky130_fd_sc_hd__nand2_4
*CAP
1 *11817:A 0.00150915
2 *11822:A 4.50562e-05
3 *11825:B 0
4 *11816:Y 0.000678496
5 *110:33 0.00261817
6 *110:22 0.00174247
7 *11817:A *118:14 0.0017637
8 *11817:A *577:28 0.000306936
9 *11822:A *182:19 0.000153816
10 *11822:A *205:31 0.000153816
11 *110:22 *11816:B 5.53249e-06
12 *110:22 *11825:A 0.000141599
13 *110:22 *12018:A 3.31282e-05
14 *110:22 *12213:A 0
15 *110:22 *12247:A 0.000611777
16 *110:22 *363:30 3.00381e-05
17 *110:22 *588:44 0.000112123
18 *110:22 *595:12 4.9968e-05
19 *110:22 *597:12 0.00013629
20 *110:22 *633:26 0.000118081
21 *110:33 *11819:C 0
22 *110:33 *577:28 0.000112534
23 *110:33 *586:14 0.000994561
24 *110:33 *588:46 3.41359e-05
25 *110:33 *633:26 0.0016073
26 *11920:RESET_B *11817:A 0.000122273
27 *11920:RESET_B *110:33 0.000315154
*RES
1 *11816:Y *110:22 20.76
2 *110:22 *11825:B 1.6
3 *110:22 *110:33 28.655
4 *110:33 *11822:A 5.085
5 *110:33 *11817:A 28.41
*END

*D_NET *111 0.0526125
*CONN
*I *11933:A I *D sky130_fd_sc_hd__clkbuf_8
*I *11919:A2 I *D sky130_fd_sc_hd__o221a_2
*I *11916:A2 I *D sky130_fd_sc_hd__o221a_2
*I *11913:A2 I *D sky130_fd_sc_hd__o221a_2
*I *11910:A2 I *D sky130_fd_sc_hd__o221a_2
*I *11821:X O *D sky130_fd_sc_hd__or2_4
*CAP
1 *11933:A 0
2 *11919:A2 0.000221682
3 *11916:A2 0.000103428
4 *11913:A2 0
5 *11910:A2 5.73269e-05
6 *11821:X 0.000167967
7 *111:46 0.000517315
8 *111:37 0.000963848
9 *111:20 0.00161177
10 *111:16 0.0032669
11 *111:14 0.00299947
12 *111:10 0.000683344
13 *11910:A2 *11910:B1 6.02202e-05
14 *11910:A2 *161:44 4.11194e-05
15 *11916:A2 *11916:A1 2.42158e-05
16 *11916:A2 *11916:B2 3.2038e-05
17 *11916:A2 *164:24 0
18 *11916:A2 *182:63 9.72742e-06
19 *11916:A2 *210:21 0.000201407
20 *11916:A2 *613:12 0.000136884
21 *11919:A2 *11916:A1 4.72487e-05
22 *11919:A2 *11919:B1 3.11226e-05
23 *11919:A2 *11919:B2 4.77757e-05
24 *11919:A2 *12235:A 8.38069e-05
25 *11919:A2 *166:14 2.24368e-05
26 *11919:A2 *210:21 0
27 *11919:A2 *518:18 0.000109878
28 *11919:A2 *611:28 3.93101e-05
29 *11919:A2 *612:24 0.000122184
30 *11919:A2 *613:12 4.77757e-05
31 *111:10 *11821:B 2.49909e-05
32 *111:10 *418:16 0.000548171
33 *111:10 *574:16 0.000556886
34 *111:14 *12074:A 0.000246727
35 *111:14 *418:16 0.00214883
36 *111:14 *574:16 0.00214717
37 *111:16 *155:26 0.00048237
38 *111:16 *196:39 3.04766e-05
39 *111:16 *199:27 0.00144113
40 *111:16 *200:15 9.77048e-06
41 *111:16 *201:15 4.91081e-05
42 *111:16 *203:27 0.0109295
43 *111:16 *207:19 0.0151687
44 *111:16 *210:17 3.93162e-05
45 *111:16 *227:27 0.00032736
46 *111:16 *228:25 0.0030422
47 *111:16 *598:14 0.000482387
48 *111:20 *11897:A1 3.69904e-05
49 *111:20 *11910:B1 2.98594e-05
50 *111:20 *161:24 3.79555e-05
51 *111:20 *161:28 0.000164679
52 *111:20 *161:38 4.27883e-06
53 *111:20 *161:40 2.40107e-05
54 *111:20 *161:42 7.46123e-05
55 *111:20 *161:44 2.604e-05
56 *111:20 *182:23 0.000346804
57 *111:20 *234:27 0
58 *111:20 *234:37 9.76522e-05
59 *111:20 *234:39 9.87538e-05
60 *111:37 *164:24 5.83121e-06
61 *111:37 *164:30 0.000953472
62 *111:37 *182:42 5.62402e-05
63 *111:37 *182:63 1.02573e-05
64 *111:37 *485:14 0.000119831
65 *111:37 *611:26 1.97045e-05
66 *111:46 *11913:A1 4.82919e-05
67 *111:46 *164:24 0.000100516
68 *111:46 *182:42 7.79767e-06
69 *111:46 *209:25 1.91597e-05
70 *111:46 *518:18 0.000372481
71 *111:46 *611:26 7.05373e-05
72 *111:46 *613:12 0.000561433
*RES
1 *11821:X *111:10 10.53
2 *111:10 *111:14 26.84
3 *111:14 *111:16 143.97
4 *111:16 *111:20 18.425
5 *111:20 *11910:A2 4.98
6 *111:20 *111:37 13.175
7 *111:37 *11913:A2 1.6
8 *111:37 *111:46 7.02
9 *111:46 *11916:A2 8.615
10 *111:46 *11919:A2 10.28
11 *111:10 *11933:A 3.6
*END

*D_NET *112 0.0377533
*CONN
*I *11824:A0 I *D sky130_fd_sc_hd__mux2_2
*I *11823:X O *D sky130_fd_sc_hd__mux2_2
*CAP
1 *11824:A0 0.000760628
2 *11823:X 0.000219473
3 *112:10 0.0036528
4 *112:8 0.00311164
5 *11824:A0 *11818:B 7.21296e-06
6 *11824:A0 *11824:A1 4.0092e-05
7 *11824:A0 *11824:S 0.00033249
8 *11824:A0 *11873:A0 0.000822487
9 *11824:A0 *12036:A 0.000258183
10 *11824:A0 *115:10 0
11 *11824:A0 *180:36 0.00234642
12 *11824:A0 *218:37 9.08128e-05
13 *11824:A0 *218:39 4.41506e-05
14 *11824:A0 *218:43 9.09914e-05
15 *11824:A0 *564:51 0.00156718
16 *11824:A0 *578:10 1.97849e-05
17 *11824:A0 *625:209 4.71518e-05
18 *112:8 *282:31 3.67233e-05
19 *112:8 *282:33 7.29847e-05
20 *112:8 *282:39 0.000118081
21 *112:10 *11873:A0 0
22 *112:10 *12058:A 0.000492382
23 *112:10 *12074:A 0.000681592
24 *112:10 *115:10 0.0113477
25 *112:10 *145:10 0.0115046
26 *112:10 *290:27 8.77142e-05
*RES
1 *11823:X *112:8 7.155
2 *112:8 *112:10 134.363
3 *112:10 *11824:A0 36.2625
*END

*D_NET *113 0.0321283
*CONN
*I *11826:B2 I *D sky130_fd_sc_hd__o221a_1
*I *11824:X O *D sky130_fd_sc_hd__mux2_2
*CAP
1 *11826:B2 0.000368663
2 *11824:X 0.000308687
3 *113:18 0.0020322
4 *113:16 0.00231261
5 *113:10 0.00240504
6 *113:8 0.00206466
7 *11826:B2 *646:DIODE 4.18603e-06
8 *11826:B2 *186:29 0.000333052
9 *113:8 *688:DIODE 0.000118081
10 *113:8 *11926:A 2.10152e-05
11 *113:8 *218:45 0.000108886
12 *113:8 *218:47 3.57349e-05
13 *113:8 *218:49 7.14699e-05
14 *113:8 *626:8 1.1392e-05
15 *113:10 *12019:A 0.000696033
16 *113:10 *120:18 0.00463312
17 *113:10 *122:26 0.00625795
18 *113:10 *131:26 0.00190792
19 *113:10 *360:12 0.000233079
20 *113:10 *586:16 1.38481e-05
21 *113:16 *124:28 0.000149422
22 *113:16 *196:39 0.000950385
23 *113:16 *576:14 0.000196472
24 *113:16 *596:22 0.000228235
25 *113:18 *11829:B2 0.000731231
26 *113:18 *120:22 0
27 *113:18 *124:28 0.00238549
28 *113:18 *132:18 0.00305741
29 *113:18 *186:29 0.000281782
30 *113:18 *496:18 0
31 *113:18 *496:34 0.000201899
32 *113:18 *576:14 8.34281e-06
*RES
1 *11824:X *113:8 8.19
2 *113:8 *113:10 80.94
3 *113:10 *113:16 14.885
4 *113:16 *113:18 49.095
5 *113:18 *11826:B2 14.375
*END

*D_NET *114 0.0389497
*CONN
*I *11916:C1 I *D sky130_fd_sc_hd__o221a_2
*I *11919:C1 I *D sky130_fd_sc_hd__o221a_2
*I *11913:C1 I *D sky130_fd_sc_hd__o221a_2
*I *11929:A I *D sky130_fd_sc_hd__buf_4
*I *11825:Y O *D sky130_fd_sc_hd__nor2_4
*CAP
1 *11916:C1 0.000206807
2 *11919:C1 0.000416337
3 *11913:C1 0.000151006
4 *11929:A 6.26306e-05
5 *11825:Y 7.1722e-05
6 *114:52 0.00102239
7 *114:39 0.00159164
8 *114:19 0.00831115
9 *114:10 0.00740411
10 *11913:C1 *11913:B2 2.68966e-05
11 *11913:C1 *182:63 9.36208e-05
12 *11916:C1 *11916:B2 1.25822e-05
13 *11916:C1 *182:63 6.93983e-05
14 *11919:C1 *166:14 0.000412047
15 *11919:C1 *209:25 0.000125208
16 *11919:C1 *518:18 0.000129413
17 *11919:C1 *612:24 0.000403049
18 *11929:A *623:14 0.000129001
19 *11929:A *630:6 4.75959e-05
20 *11929:A *630:19 4.75991e-05
21 *11929:A *630:26 0.000157822
22 *114:10 *11859:B2 2.89429e-05
23 *114:10 *597:12 0.000105897
24 *114:19 *801:DIODE 0.00012306
25 *114:19 *807:DIODE 4.75959e-05
26 *114:19 *11885:A0 0.000156837
27 *114:19 *11885:A1 8.43191e-05
28 *114:19 *11888:A0 0.000157818
29 *114:19 *11888:A1 0.000159321
30 *114:19 *11888:S 0.000937875
31 *114:19 *11891:A1 0.000110226
32 *114:19 *154:16 0.000600588
33 *114:19 *156:20 5.62354e-05
34 *114:19 *158:20 0.000238538
35 *114:19 *160:12 5.39946e-05
36 *114:19 *162:14 0.000228307
37 *114:19 *599:12 0.00296742
38 *114:19 *623:14 0.00270442
39 *114:19 *625:61 0.000855857
40 *114:19 *627:54 0.000980195
41 *114:19 *630:26 0.00260208
42 *114:19 *630:43 0.00225856
43 *114:39 *819:DIODE 0.000158965
44 *114:39 *11907:B2 0
45 *114:39 *11913:B2 4.78222e-05
46 *114:39 *162:14 0.000156336
47 *114:39 *627:54 0.000120552
48 *114:39 *627:61 0.0011474
49 *114:39 *627:76 0.000767171
50 *114:52 *182:63 0.00017922
51 *114:52 *608:12 2.20732e-05
*RES
1 *11825:Y *114:10 6.98
2 *114:10 *11929:A 3.775
3 *114:10 *114:19 164.67
4 *114:19 *114:39 27.825
5 *114:39 *11913:C1 6.51
6 *114:39 *114:52 6.935
7 *114:52 *11919:C1 14.3
8 *114:52 *11916:C1 4.045
*END

*D_NET *115 0.036597
*CONN
*I *11828:A0 I *D sky130_fd_sc_hd__mux2_2
*I *11827:X O *D sky130_fd_sc_hd__mux2_2
*CAP
1 *11828:A0 6.61814e-05
2 *11827:X 0.000348647
3 *115:10 0.00360291
4 *115:8 0.00388538
5 *11828:A0 *11849:A1 0.000118081
6 *115:8 *976:DIODE 2.76356e-05
7 *115:10 *11818:B 0.000796253
8 *115:10 *11837:S 0.00104323
9 *115:10 *12074:A 0.00181613
10 *115:10 *121:18 0.0110174
11 *115:10 *221:54 0.000248254
12 *115:10 *225:70 0.000257869
13 *115:10 *225:74 9.37731e-05
14 *115:10 *229:25 0.000812074
15 *115:10 *248:76 0.000289705
16 *115:10 *290:27 0.000295336
17 *115:10 *418:16 0.00018605
18 *115:10 *554:57 0.000344392
19 *11824:A0 *115:10 0
20 *112:10 *115:10 0.0113477
*RES
1 *11827:X *115:8 7.845
2 *115:8 *115:10 160.755
3 *115:10 *11828:A0 4.74
*END

*D_NET *116 0.0373613
*CONN
*I *11829:B2 I *D sky130_fd_sc_hd__o221a_1
*I *11828:X O *D sky130_fd_sc_hd__mux2_2
*CAP
1 *11829:B2 0.00848037
2 *11828:X 0.00848037
3 *11829:B2 *11849:A1 8.49936e-05
4 *11829:B2 *11868:A1 0.000420285
5 *11829:B2 *11871:A1 0.000300363
6 *11829:B2 *11871:B2 0.000132266
7 *11829:B2 *12019:A 0.000128934
8 *11829:B2 *12124:BEN[15] 0.000106915
9 *11829:B2 *12124:vpwrpc 0.000373226
10 *11829:B2 *12124:vpwrac 0.000612396
11 *11829:B2 *12134:DI[6] 0
12 *11829:B2 *12134:DI[7] 0
13 *11829:B2 *118:14 0.00107514
14 *11829:B2 *120:16 0.000147915
15 *11829:B2 *122:26 0.00121464
16 *11829:B2 *124:12 0.000127555
17 *11829:B2 *124:14 0.00139829
18 *11829:B2 *124:28 0.000478572
19 *11829:B2 *132:18 0.000141085
20 *11829:B2 *186:29 0.00284395
21 *11829:B2 *187:30 4.53154e-05
22 *11829:B2 *197:27 5.29759e-05
23 *11829:B2 *199:27 0.00101793
24 *11829:B2 *219:29 4.3606e-06
25 *11829:B2 *362:10 1.88656e-05
26 *11829:B2 *382:46 0.00254677
27 *11829:B2 *496:18 0.00012389
28 *11829:B2 *496:34 0.000700848
29 *11829:B2 *560:18 0.000507176
30 *11829:B2 *577:28 0.00178897
31 *11829:B2 *586:16 0.00130522
32 *11829:B2 *588:46 0.000961503
33 *11829:B2 *631:55 0.000366165
34 *11829:B2 *633:110 0.00032581
35 *11920:RESET_B *11829:B2 0.000316979
36 *113:18 *11829:B2 0.000731231
*RES
1 *11828:X *11829:B2 47.6356
*END

*D_NET *117 0.0384652
*CONN
*I *11831:A0 I *D sky130_fd_sc_hd__mux2_2
*I *11830:X O *D sky130_fd_sc_hd__mux2_2
*CAP
1 *11831:A0 0
2 *11830:X 0.000518729
3 *117:14 0.00379598
4 *117:12 0.00431471
5 *117:12 *1001:DIODE 0.000690898
6 *117:12 *1006:DIODE 3.57349e-05
7 *117:12 *12216:A 4.01548e-05
8 *117:12 *121:16 0.000714299
9 *117:12 *290:27 0.000123245
10 *117:12 *304:50 7.14699e-05
11 *117:12 *304:52 0.000118081
12 *117:14 *968:DIODE 0.000179032
13 *117:14 *11875:A1 4.85242e-05
14 *117:14 *12052:A 0.00103453
15 *117:14 *12074:A 0.0010224
16 *117:14 *147:10 0.0134627
17 *117:14 *290:27 2.36689e-05
18 *117:14 *290:31 0.000255298
19 *117:14 *290:33 6.21553e-05
20 *117:14 *290:35 0.000194463
21 *117:14 *290:37 0.000150072
22 *117:14 *290:39 0.000176873
23 *117:14 *330:16 0.00141182
24 *117:14 *362:80 0.000549883
25 *117:14 *407:16 0.00944947
26 *117:14 *581:26 2.10433e-05
*RES
1 *11830:X *117:12 18.1875
2 *117:12 *117:14 163.943
3 *117:14 *11831:A0 3.6
*END

*D_NET *118 0.0296737
*CONN
*I *11832:B2 I *D sky130_fd_sc_hd__o221a_1
*I *11831:X O *D sky130_fd_sc_hd__mux2_2
*CAP
1 *11832:B2 0.000705858
2 *11831:X 0.00141724
3 *118:20 0.00149646
4 *118:14 0.00214378
5 *118:12 0.00277042
6 *11832:B2 *11832:A2 1.88602e-05
7 *11832:B2 *11832:B1 0.000130978
8 *11832:B2 *11847:A1 0.000103788
9 *11832:B2 *11862:B2 0
10 *11832:B2 *11862:C1 0.000113897
11 *11832:B2 *128:22 0
12 *11832:B2 *132:18 0
13 *11832:B2 *208:29 0.00015659
14 *11832:B2 *628:53 7.98745e-06
15 *11832:B2 *631:109 0.000187212
16 *118:12 *843:DIODE 2.8585e-06
17 *118:12 *11846:A0 7.88916e-05
18 *118:12 *11846:S 6.33103e-05
19 *118:12 *128:8 0.000548415
20 *118:12 *247:42 1.19928e-05
21 *118:12 *319:34 0.000895259
22 *118:12 *382:46 0.000147915
23 *118:12 *560:18 2.72764e-05
24 *118:14 *319:32 0.0018848
25 *118:14 *560:18 0.0022498
26 *118:14 *588:46 0.000390623
27 *118:20 *120:22 0.00444308
28 *118:20 *126:16 0.00444476
29 *11817:A *118:14 0.0017637
30 *11829:B2 *118:14 0.00107514
31 *11920:RESET_B *118:14 0.00234837
32 *12090:A *11832:B2 4.44345e-05
*RES
1 *11831:X *118:12 23.6325
2 *118:12 *118:14 55.0575
3 *118:14 *118:20 45.16
4 *118:20 *11832:B2 17.73
*END

*D_NET *119 0.0453379
*CONN
*I *11834:A0 I *D sky130_fd_sc_hd__mux2_2
*I *11833:X O *D sky130_fd_sc_hd__mux2_2
*CAP
1 *11834:A0 0.00199304
2 *11833:X 0.0014974
3 *119:18 0.00445379
4 *119:16 0.00395816
5 *11834:A0 *11834:A1 6.58339e-05
6 *11834:A0 *11846:A0 4.11678e-06
7 *11834:A0 *11855:A0 5.83121e-06
8 *11834:A0 *120:16 0.000187441
9 *11834:A0 *127:10 0.000312402
10 *11834:A0 *130:24 0.000284146
11 *11834:A0 *134:12 6.36139e-05
12 *11834:A0 *198:11 0.00059146
13 *11834:A0 *204:21 0.000128214
14 *11834:A0 *206:11 0.00056878
15 *11834:A0 *206:17 0.000100134
16 *11834:A0 *560:24 0.000110538
17 *119:16 *1019:DIODE 1.56428e-05
18 *119:16 *11833:A1 3.93162e-05
19 *119:16 *11833:S 4.66108e-05
20 *119:16 *12144:DI[10] 0.000158482
21 *119:16 *137:16 0.00098389
22 *119:16 *141:16 0.000985556
23 *119:16 *202:13 0.000118081
24 *119:16 *272:27 0
25 *119:16 *307:41 6.53929e-05
26 *119:16 *307:49 2.03356e-05
27 *119:16 *307:64 1.19928e-05
28 *119:16 *307:66 2.76356e-05
29 *119:18 *194:22 0.000502582
30 *119:18 *194:28 1.08814e-05
31 *119:18 *195:23 0.00185162
32 *119:18 *204:21 0.000664072
33 *119:18 *206:11 0.0132104
34 *119:18 *350:26 0.00135041
35 *119:18 *351:10 0.00494428
36 *119:18 *360:76 0.00600579
*RES
1 *11833:X *119:16 34.0975
2 *119:16 *119:18 148.77
3 *119:18 *11834:A0 39.0122
*END

*D_NET *120 0.0274749
*CONN
*I *11835:B2 I *D sky130_fd_sc_hd__o221a_1
*I *11834:X O *D sky130_fd_sc_hd__mux2_2
*CAP
1 *11835:B2 0.00072979
2 *11834:X 0.000960954
3 *120:22 0.00237856
4 *120:18 0.00295336
5 *120:16 0.00226554
6 *11835:B2 *680:DIODE 0
7 *11835:B2 *11835:A2 1.88602e-05
8 *11835:B2 *11847:C1 6.95679e-05
9 *11835:B2 *11992:A 0.000117407
10 *11835:B2 *128:22 0
11 *11835:B2 *211:27 0.000271697
12 *11835:B2 *631:30 0.000131729
13 *120:16 *11814:A 5.83121e-06
14 *120:16 *124:14 0.000928381
15 *120:16 *223:45 0.000700357
16 *120:16 *319:34 2.67082e-05
17 *120:16 *560:18 0.000177401
18 *120:18 *122:26 0.000107658
19 *120:18 *180:14 0.000412339
20 *120:18 *223:45 3.72765e-05
21 *120:18 *319:22 0.000592466
22 *120:18 *360:12 9.60591e-05
23 *120:18 *362:32 0.00230694
24 *120:18 *557:30 1.87328e-05
25 *120:18 *557:136 0.000650766
26 *120:22 *11859:B2 0.00135229
27 *120:22 *126:16 0.000390424
28 *120:22 *132:18 0
29 *120:22 *142:28 0.000350724
30 *120:22 *194:44 0
31 *11829:B2 *120:16 0.000147915
32 *11834:A0 *120:16 0.000187441
33 *12012:A *11835:B2 1.1561e-05
34 *113:10 *120:18 0.00463312
35 *113:18 *120:22 0
36 *118:20 *120:22 0.00444308
*RES
1 *11834:X *120:16 25.78
2 *120:16 *120:18 55.695
3 *120:18 *120:22 49.37
4 *120:22 *11835:B2 19.985
*END

*D_NET *121 0.038109
*CONN
*I *11837:A0 I *D sky130_fd_sc_hd__mux2_2
*I *11836:X O *D sky130_fd_sc_hd__mux2_2
*CAP
1 *11837:A0 0.000649423
2 *11836:X 0.0011421
3 *121:18 0.00332746
4 *121:16 0.00382014
5 *11837:A0 *147:10 0.000633495
6 *121:16 *952:DIODE 4.63276e-05
7 *121:16 *969:DIODE 0.000326632
8 *121:16 *1001:DIODE 1.07797e-05
9 *121:16 *11985:A 5.83121e-06
10 *121:16 *282:27 0.00139103
11 *121:16 *290:27 0.00058581
12 *121:16 *304:33 0.000507782
13 *121:16 *304:35 0.00048988
14 *121:16 *308:23 0.000394869
15 *121:16 *308:25 7.14699e-05
16 *121:16 *308:27 0.00010961
17 *121:16 *308:29 0.000122184
18 *121:16 *362:80 0.000518086
19 *121:18 *12074:A 0.001261
20 *121:18 *290:27 0.000370569
21 *121:18 *290:31 1.38481e-05
22 *121:18 *330:16 0.00481464
23 *121:18 *407:16 6.70094e-05
24 *121:18 *418:16 0.00569741
25 *115:10 *121:18 0.0110174
26 *117:12 *121:16 0.000714299
*RES
1 *11836:X *121:16 44.065
2 *121:16 *121:18 127.605
3 *121:18 *11837:A0 16.93
*END

*D_NET *122 0.0346412
*CONN
*I *11838:B2 I *D sky130_fd_sc_hd__o221a_1
*I *11837:X O *D sky130_fd_sc_hd__mux2_2
*CAP
1 *11838:B2 0
2 *11837:X 0.00155015
3 *122:36 0.00308467
4 *122:26 0.00485771
5 *122:24 0.00332319
6 *122:24 *11855:A0 3.93162e-05
7 *122:24 *11855:S 0.000206062
8 *122:24 *219:41 2.86975e-05
9 *122:24 *219:43 4.60123e-05
10 *122:24 *219:45 5.83121e-06
11 *122:24 *220:57 2.10596e-05
12 *122:24 *223:45 0.000457426
13 *122:24 *223:58 0.0001752
14 *122:24 *319:34 0.000437384
15 *122:24 *382:46 0.000247089
16 *122:24 *395:18 0.000429223
17 *122:24 *400:30 0.000196996
18 *122:24 *626:10 0.000227529
19 *122:24 *626:38 0.000333489
20 *122:24 *626:49 0.000889267
21 *122:26 *319:14 0
22 *122:26 *319:22 0
23 *122:26 *586:16 0.00675303
24 *122:36 *11838:A2 3.09164e-05
25 *122:36 *11838:B1 0.000136877
26 *122:36 *11838:C1 7.81838e-05
27 *122:36 *11856:B2 0
28 *122:36 *12025:A 0
29 *122:36 *189:34 0
30 *122:36 *212:27 1.68169e-05
31 *122:36 *571:16 0.00275949
32 *122:36 *584:18 0.000430952
33 *122:36 *633:47 0.000298413
34 *11829:B2 *122:26 0.00121464
35 *113:10 *122:26 0.00625795
36 *120:18 *122:26 0.000107658
*RES
1 *11837:X *122:24 44.9
2 *122:24 *122:26 78.39
3 *122:26 *122:36 49.695
4 *122:36 *11838:B2 1.6
*END

*D_NET *123 0.0426307
*CONN
*I *11840:A0 I *D sky130_fd_sc_hd__mux2_2
*I *11839:X O *D sky130_fd_sc_hd__mux2_2
*CAP
1 *11840:A0 0.00223729
2 *11839:X 0.00129756
3 *123:18 0.0047723
4 *123:16 0.00383256
5 *11840:A0 *11849:A0 0.000195895
6 *11840:A0 *11849:A1 0.00037001
7 *11840:A0 *11858:S 4.66108e-05
8 *11840:A0 *12124:BEN[4] 5.83121e-06
9 *11840:A0 *124:12 0.00037001
10 *11840:A0 *130:24 0.00013724
11 *11840:A0 *135:34 0.000616719
12 *11840:A0 *193:18 0.00157285
13 *11840:A0 *215:29 2.38557e-05
14 *11840:A0 *220:129 7.33639e-05
15 *11840:A0 *319:34 3.79555e-05
16 *11840:A0 *560:54 0.000236272
17 *123:16 *11839:S 0.000261638
18 *123:16 *203:9 0.000118081
19 *123:16 *204:21 0.000116216
20 *123:16 *206:11 0.00166576
21 *123:16 *258:21 0
22 *123:16 *272:27 6.33103e-05
23 *123:16 *277:15 7.98134e-05
24 *123:16 *278:23 0
25 *123:16 *309:31 2.62017e-05
26 *123:16 *309:33 3.59784e-05
27 *123:16 *360:76 0.00166711
28 *123:18 *12124:BEN[22] 8.41703e-06
29 *123:18 *12124:TM 0.000137195
30 *123:18 *12124:BEN[0] 0.000109393
31 *123:18 *12124:BEN[1] 0.000470612
32 *123:18 *133:14 0.000136355
33 *123:18 *133:16 0.00065067
34 *123:18 *133:34 0.00185326
35 *123:18 *193:16 0.00240707
36 *123:18 *193:18 0.000431209
37 *123:18 *194:20 0.000152829
38 *123:18 *194:22 0.00616798
39 *123:18 *195:23 0.00116969
40 *123:18 *204:21 0.000781144
41 *123:18 *258:21 0.0014448
42 *123:18 *281:27 0.00108406
43 *123:18 *360:76 0.00245437
44 *123:18 *458:24 2.09673e-05
45 *123:18 *639:22 0.00034027
46 *123:18 *639:34 0.000887161
47 *123:18 *639:46 0.000738551
48 *123:18 *639:58 0.000738551
49 *123:18 *639:74 0.000577331
50 *123:18 *639:94 8.41703e-06
*RES
1 *11839:X *123:16 40.93
2 *123:16 *123:18 135.765
3 *123:18 *11840:A0 37.3156
*END

*D_NET *124 0.0300529
*CONN
*I *11841:B2 I *D sky130_fd_sc_hd__o221a_1
*I *11840:X O *D sky130_fd_sc_hd__mux2_2
*CAP
1 *11841:B2 0.000552385
2 *11840:X 0.000413253
3 *124:28 0.00201679
4 *124:14 0.00302677
5 *124:12 0.00197562
6 *11841:B2 *649:DIODE 0.000134546
7 *11841:B2 *11841:A2 0.000109042
8 *11841:B2 *132:18 0.00106888
9 *11841:B2 *571:12 0
10 *124:12 *12019:A 0.000547338
11 *124:12 *223:45 0.000405944
12 *124:14 *12019:A 2.13396e-05
13 *124:14 *223:45 0.000437948
14 *124:14 *560:18 1.97849e-05
15 *124:14 *586:16 0.00620762
16 *124:14 *588:46 0.00450174
17 *124:28 *11871:B2 0.00123736
18 *124:28 *12124:BEN[15] 0.00021448
19 *124:28 *203:25 0.000138304
20 *124:28 *496:34 0.000959931
21 *124:28 *575:36 0.000191069
22 *124:28 *596:22 3.50606e-05
23 *11829:B2 *124:12 0.000127555
24 *11829:B2 *124:14 0.00139829
25 *11829:B2 *124:28 0.000478572
26 *11840:A0 *124:12 0.00037001
27 *113:16 *124:28 0.000149422
28 *113:18 *124:28 0.00238549
29 *120:16 *124:14 0.000928381
*RES
1 *11840:X *124:12 13.9575
2 *124:12 *124:14 72.3975
3 *124:14 *124:28 44.62
4 *124:28 *11841:B2 16.965
*END

*D_NET *125 0.0410656
*CONN
*I *11843:A0 I *D sky130_fd_sc_hd__mux2_2
*I *11842:X O *D sky130_fd_sc_hd__mux2_2
*CAP
1 *11843:A0 0.00121451
2 *11842:X 0.000780268
3 *125:20 0.00216569
4 *125:10 0.0034465
5 *125:8 0.00327559
6 *11843:A0 *854:DIODE 8.35106e-05
7 *11843:A0 *12094:A 0.000287704
8 *11843:A0 *129:10 0.000176594
9 *11843:A0 *184:8 0.00206209
10 *11843:A0 *203:11 0.000808442
11 *11843:A0 *220:57 7.23533e-05
12 *11843:A0 *220:68 0.000195918
13 *11843:A0 *220:79 0.00015212
14 *11843:A0 *223:45 7.54943e-05
15 *11843:A0 *246:47 0.000182857
16 *11843:A0 *246:49 7.32549e-05
17 *125:8 *11842:S 8.23457e-05
18 *125:8 *11936:A 7.66388e-05
19 *125:8 *12124:BEN[24] 0
20 *125:8 *278:23 0.000163969
21 *125:8 *637:25 0.000644357
22 *125:10 *127:10 3.55461e-05
23 *125:10 *139:16 0.00712928
24 *125:10 *205:11 0.000674337
25 *125:10 *350:16 0.00330713
26 *125:10 *629:8 0.00931233
27 *125:20 *705:DIODE 2.49909e-05
28 *125:20 *711:DIODE 5.83121e-06
29 *125:20 *11870:A0 0.000445494
30 *125:20 *127:10 0.00239361
31 *125:20 *130:24 2.49073e-05
32 *125:20 *138:16 0.00138413
33 *125:20 *629:8 0.000307824
*RES
1 *11842:X *125:8 16.47
2 *125:8 *125:10 122.887
3 *125:10 *125:20 37.0675
4 *125:20 *11843:A0 36.405
*END

*D_NET *126 0.0249464
*CONN
*I *11844:B2 I *D sky130_fd_sc_hd__o221a_2
*I *11843:X O *D sky130_fd_sc_hd__mux2_2
*CAP
1 *11844:B2 0.000435797
2 *11843:X 0
3 *126:16 0.00184669
4 *126:14 0.00156229
5 *126:8 0.00162859
6 *126:6 0.00147719
7 *11844:B2 *11850:B2 0.000317011
8 *11844:B2 *496:18 0.00119332
9 *11844:B2 *633:104 0.000336543
10 *126:8 *650:DIODE 0.000153587
11 *126:8 *12134:DI[15] 1.7635e-05
12 *126:8 *178:18 0.00078949
13 *126:8 *193:34 0.00145239
14 *126:8 *319:22 0.000481943
15 *126:8 *360:32 0.000934147
16 *126:8 *369:30 0.000608118
17 *126:8 *369:34 0.000322716
18 *126:8 *371:36 0.000927901
19 *126:8 *594:12 0.00224586
20 *126:14 *319:22 0.000314437
21 *126:14 *594:12 0.000163372
22 *126:16 *198:15 0.00139611
23 *126:16 *206:37 0.000194694
24 *126:16 *589:14 0.00131138
25 *118:20 *126:16 0.00444476
26 *120:22 *126:16 0.000390424
*RES
1 *11843:X *126:6 3.6
2 *126:6 *126:8 55.3125
3 *126:8 *126:14 6.2525
4 *126:14 *126:16 52.545
5 *126:16 *11844:B2 19.475
*END

*D_NET *127 0.0429801
*CONN
*I *11846:A0 I *D sky130_fd_sc_hd__mux2_2
*I *11845:X O *D sky130_fd_sc_hd__mux2_2
*CAP
1 *11846:A0 0.000754376
2 *11845:X 0.000598629
3 *127:10 0.00403175
4 *127:8 0.00387601
5 *11846:A0 *861:DIODE 8.23457e-05
6 *11846:A0 *128:8 0.0014134
7 *11846:A0 *247:42 0.000336226
8 *11846:A0 *247:44 8.35106e-05
9 *11846:A0 *247:46 8.23457e-05
10 *11846:A0 *247:48 8.23457e-05
11 *11846:A0 *247:50 8.23457e-05
12 *127:8 *272:27 3.3098e-05
13 *127:8 *275:21 0.000816392
14 *127:8 *279:19 0.00011006
15 *127:8 *635:63 2.10214e-05
16 *127:10 *11855:A0 0.00125602
17 *127:10 *11867:A0 1.68627e-05
18 *127:10 *130:24 2.05661e-05
19 *127:10 *136:14 0.00126696
20 *127:10 *138:16 0.000112281
21 *127:10 *138:18 1.07797e-05
22 *127:10 *139:16 0.00782692
23 *127:10 *143:18 0.011561
24 *127:10 *144:18 0.000813639
25 *127:10 *198:11 3.22922e-05
26 *127:10 *350:16 0.00330855
27 *127:10 *350:24 0.00152577
28 *11834:A0 *11846:A0 4.11678e-06
29 *11834:A0 *127:10 0.000312402
30 *118:12 *11846:A0 7.88916e-05
31 *125:10 *127:10 3.55461e-05
32 *125:20 *127:10 0.00239361
*RES
1 *11845:X *127:8 14.4
2 *127:8 *127:10 176.31
3 *127:10 *11846:A0 20.205
*END

*D_NET *128 0.0260352
*CONN
*I *11847:B2 I *D sky130_fd_sc_hd__o221a_2
*I *11846:X O *D sky130_fd_sc_hd__mux2_2
*CAP
1 *11847:B2 0
2 *11846:X 0.0006533
3 *128:22 0.00116291
4 *128:10 0.00243217
5 *128:8 0.00192256
6 *128:10 *136:14 0.00559517
7 *128:10 *138:18 0.000225502
8 *128:10 *144:18 0.00557581
9 *128:10 *582:20 8.58015e-05
10 *128:22 *11847:A2 9.50342e-06
11 *128:22 *11850:B2 0.000861362
12 *128:22 *11856:B2 0.00184082
13 *128:22 *11931:A 8.75854e-05
14 *128:22 *12013:A 0.00013757
15 *128:22 *208:29 0.000339406
16 *128:22 *211:27 0.00017484
17 *128:22 *215:29 0.000122457
18 *128:22 *589:14 0.00284659
19 *11832:B2 *128:22 0
20 *11835:B2 *128:22 0
21 *11846:A0 *128:8 0.0014134
22 *118:12 *128:8 0.000548415
*RES
1 *11846:X *128:8 17.16
2 *128:8 *128:10 67.425
3 *128:10 *128:22 49.285
4 *128:22 *11847:B2 3.6
*END

*D_NET *129 0.0410123
*CONN
*I *11849:A0 I *D sky130_fd_sc_hd__mux2_2
*I *11848:X O *D sky130_fd_sc_hd__mux2_2
*CAP
1 *11849:A0 0.000321292
2 *11848:X 0.000129273
3 *129:10 0.00494124
4 *129:8 0.00474923
5 *11849:A0 *703:DIODE 5.83121e-06
6 *11849:A0 *11858:A1 0.000109973
7 *11849:A0 *11858:S 4.66108e-05
8 *11849:A0 *130:24 9.08043e-05
9 *11849:A0 *135:34 8.34831e-05
10 *11849:A0 *136:12 6.33103e-05
11 *11849:A0 *220:90 2.49909e-05
12 *129:8 *207:13 8.74049e-05
13 *129:10 *711:DIODE 9.37731e-05
14 *129:10 *923:DIODE 0.000131565
15 *129:10 *935:DIODE 0.000182269
16 *129:10 *11861:A0 0.00253568
17 *129:10 *11994:A 0.00162468
18 *129:10 *12094:A 0.00152817
19 *129:10 *12124:AD[1] 1.7635e-05
20 *129:10 *12124:R_WB 1.79483e-05
21 *129:10 *184:8 0.00374382
22 *129:10 *196:17 0.00221243
23 *129:10 *203:11 0.0133819
24 *129:10 *250:11 0.000597832
25 *129:10 *257:23 0.000775446
26 *129:10 *283:58 0.000106377
27 *129:10 *284:30 0.000137571
28 *129:10 *284:32 0.000116853
29 *129:10 *369:76 0.00155949
30 *129:10 *506:60 0.00035588
31 *129:10 *635:69 2.23485e-05
32 *129:10 *635:78 0.000422405
33 *129:10 *635:89 0.000300372
34 *129:10 *635:100 0.000121975
35 *11840:A0 *11849:A0 0.000195895
36 *11843:A0 *129:10 0.000176594
*RES
1 *11848:X *129:8 5.1225
2 *129:8 *129:10 187.275
3 *129:10 *11849:A0 10.155
*END

*D_NET *130 0.0314394
*CONN
*I *11850:B2 I *D sky130_fd_sc_hd__o221a_2
*I *11849:X O *D sky130_fd_sc_hd__mux2_2
*CAP
1 *11850:B2 0.00121854
2 *11849:X 0.00169126
3 *130:26 0.00226548
4 *130:24 0.0027382
5 *11850:B2 *11856:B2 0.00133541
6 *11850:B2 *11862:B2 0.00298369
7 *11850:B2 *11931:A 0.000579521
8 *11850:B2 *589:14 0.000210855
9 *130:24 *11855:A0 0.00018768
10 *130:24 *136:12 0.000292582
11 *130:24 *138:18 0.00031898
12 *130:24 *198:11 0.000776442
13 *130:24 *199:21 0.00195314
14 *130:24 *204:21 0.00196772
15 *130:26 *11819:D 0.00162103
16 *130:26 *142:28 8.81252e-05
17 *130:26 *194:30 0.00351868
18 *130:26 *195:23 0.00113665
19 *130:26 *206:37 3.60648e-05
20 *130:26 *350:26 2.13396e-05
21 *130:26 *351:26 0.00465216
22 *130:26 *575:24 0.000109782
23 *11834:A0 *130:24 0.000284146
24 *11840:A0 *130:24 0.00013724
25 *11844:B2 *11850:B2 0.000317011
26 *11849:A0 *130:24 9.08043e-05
27 *125:20 *130:24 2.49073e-05
28 *127:10 *130:24 2.05661e-05
29 *128:22 *11850:B2 0.000861362
*RES
1 *11849:X *130:24 25.6958
2 *130:24 *130:26 58.3725
3 *130:26 *11850:B2 48.295
*END

*D_NET *131 0.0359684
*CONN
*I *11852:A0 I *D sky130_fd_sc_hd__mux2_1
*I *11851:X O *D sky130_fd_sc_hd__mux2_2
*CAP
1 *11852:A0 0
2 *11851:X 0.000723991
3 *131:26 0.00209649
4 *131:24 0.00316838
5 *131:20 0.00189358
6 *131:16 0.00206289
7 *131:8 0.00196519
8 *131:8 *959:DIODE 0.000193113
9 *131:8 *963:DIODE 3.57349e-05
10 *131:8 *11851:S 8.23457e-05
11 *131:8 *313:31 2.76356e-05
12 *131:8 *313:33 2.76356e-05
13 *131:8 *313:35 2.39856e-05
14 *131:16 *12050:A 0.00039571
15 *131:16 *12052:A 0.000242528
16 *131:16 *185:10 0
17 *131:16 *365:74 0.0035184
18 *131:16 *550:18 0.000226563
19 *131:16 *578:10 6.71803e-06
20 *131:20 *12050:A 0.00126976
21 *131:20 *200:11 0.000629178
22 *131:20 *226:22 0.00156111
23 *131:20 *365:72 0.000730398
24 *131:20 *396:16 0.00315214
25 *131:20 *578:10 1.79098e-05
26 *131:24 *12124:AD[9] 5.41654e-05
27 *131:24 *387:16 4.60061e-05
28 *131:26 *12019:A 0.000906205
29 *131:26 *12134:DI[1] 3.97211e-05
30 *131:26 *12134:DI[2] 2.04591e-05
31 *131:26 *360:12 0.00661537
32 *131:26 *402:20 0.000893836
33 *131:26 *409:54 0
34 *131:26 *415:18 0.000387252
35 *131:26 *424:34 0.00104613
36 *113:10 *131:26 0.00190792
*RES
1 *11851:X *131:8 13.71
2 *131:8 *131:16 44.5
3 *131:16 *131:20 46.475
4 *131:20 *131:24 13.145
5 *131:24 *131:26 79.155
6 *131:26 *11852:A0 3.6
*END

*D_NET *132 0.0251289
*CONN
*I *11853:B2 I *D sky130_fd_sc_hd__o221a_2
*I *11852:X O *D sky130_fd_sc_hd__mux2_1
*CAP
1 *11853:B2 5.95014e-05
2 *11852:X 0.000996991
3 *132:18 0.00180654
4 *132:10 0.00272932
5 *132:8 0.00197928
6 *11853:B2 *11853:B1 1.20741e-05
7 *11853:B2 *11853:C1 0.000119762
8 *11853:B2 *621:8 3.65341e-05
9 *132:8 *879:DIODE 8.23457e-05
10 *132:8 *12124:DI[9] 8.08149e-05
11 *132:8 *249:42 3.57349e-05
12 *132:8 *249:44 7.14699e-05
13 *132:8 *249:46 7.14699e-05
14 *132:8 *249:48 7.14699e-05
15 *132:10 *11819:D 8.04591e-05
16 *132:10 *134:14 2.5406e-05
17 *132:10 *194:44 0.0012516
18 *132:10 *195:23 0.00104389
19 *132:10 *206:19 0.00387481
20 *132:10 *350:26 0.00501679
21 *132:18 *677:DIODE 9.5799e-06
22 *132:18 *11841:A1 4.07688e-05
23 *132:18 *11853:C1 7.96104e-06
24 *132:18 *11859:B2 0
25 *132:18 *11862:B1 0.000115435
26 *132:18 *11862:B2 0.000288922
27 *132:18 *12014:A 4.44131e-05
28 *132:18 *12244:A 4.76263e-05
29 *132:18 *142:28 0
30 *132:18 *186:29 0.000119831
31 *132:18 *189:34 0.000154862
32 *132:18 *575:24 0.000347911
33 *132:18 *576:14 5.83121e-06
34 *132:18 *593:10 0
35 *132:18 *628:53 0
36 *11829:B2 *132:18 0.000141085
37 *11832:B2 *132:18 0
38 *11841:B2 *132:18 0.00106888
39 *12090:A *132:18 0
40 *109:12 *11853:B2 0.000232111
41 *113:18 *132:18 0.00305741
42 *120:22 *132:18 0
*RES
1 *11852:X *132:8 15.435
2 *132:8 *132:10 58.245
3 *132:10 *132:18 48.985
4 *132:18 *11853:B2 5.775
*END

*D_NET *133 0.0355083
*CONN
*I *11855:A0 I *D sky130_fd_sc_hd__mux2_1
*I *11854:X O *D sky130_fd_sc_hd__mux2_2
*CAP
1 *11855:A0 0.00118557
2 *11854:X 0.00147827
3 *133:34 0.00191285
4 *133:16 0.00536396
5 *133:14 0.00611495
6 *11855:A0 *700:DIODE 2.01259e-05
7 *11855:A0 *704:DIODE 2.01259e-05
8 *11855:A0 *11855:S 0.00018955
9 *11855:A0 *11867:A0 0.000558492
10 *11855:A0 *134:12 4.54218e-05
11 *11855:A0 *136:12 9.17709e-05
12 *11855:A0 *198:11 0.000295146
13 *11855:A0 *199:21 0.000232447
14 *11855:A0 *219:45 1.74678e-05
15 *11855:A0 *219:47 2.01259e-05
16 *11855:A0 *219:49 2.01259e-05
17 *133:14 *11854:A1 1.74678e-05
18 *133:14 *12124:BEN[23] 1.79536e-05
19 *133:14 *12124:DI[24] 1.79483e-05
20 *133:14 *204:21 2.18843e-05
21 *133:14 *251:15 7.37995e-05
22 *133:14 *279:19 0
23 *133:14 *281:27 0.00190287
24 *133:14 *283:41 0.000156837
25 *133:14 *283:45 4.66108e-05
26 *133:14 *462:36 1.79483e-05
27 *133:14 *638:19 0.000831367
28 *133:14 *638:39 1.79536e-05
29 *133:14 *639:134 0.00017881
30 *133:16 *12124:BEN[22] 1.79536e-05
31 *133:16 *12124:EN 0.000849014
32 *133:16 *12124:DI[20] 1.93765e-05
33 *133:16 *139:42 0.00125669
34 *133:16 *186:29 1.79483e-05
35 *133:16 *193:16 0.000615447
36 *133:16 *193:18 0.00134831
37 *133:16 *195:23 0.000108747
38 *133:16 *199:21 1.93765e-05
39 *133:16 *426:36 1.93834e-05
40 *133:16 *432:38 4.24632e-05
41 *133:16 *443:44 4.24632e-05
42 *133:16 *454:30 4.24632e-05
43 *133:16 *458:24 4.24632e-05
44 *133:16 *560:158 0.000593907
45 *133:16 *639:22 0.000402658
46 *133:16 *639:34 0.000418032
47 *133:16 *639:46 0.000398189
48 *133:16 *639:58 0.000411633
49 *133:16 *639:74 0.000377577
50 *133:16 *639:94 0.000132755
51 *133:34 *12124:DI[5] 0.00036974
52 *133:34 *12124:DI[2] 2.54431e-05
53 *133:34 *193:18 0.00223482
54 *133:34 *194:22 0.000206954
55 *133:34 *195:23 0.000350214
56 *133:34 *208:29 5.83121e-06
57 *133:34 *213:25 1.7635e-05
58 *133:34 *350:24 5.82345e-05
59 *133:34 *351:24 6.55631e-05
60 *11834:A0 *11855:A0 5.83121e-06
61 *122:24 *11855:A0 3.93162e-05
62 *123:18 *133:14 0.000136355
63 *123:18 *133:16 0.00065067
64 *123:18 *133:34 0.00185326
65 *127:10 *11855:A0 0.00125602
66 *130:24 *11855:A0 0.00018768
*RES
1 *11854:X *133:14 38.8125
2 *133:14 *133:16 100.448
3 *133:16 *133:34 39.53
4 *133:34 *11855:A0 28.875
*END

*D_NET *134 0.0271947
*CONN
*I *11856:B2 I *D sky130_fd_sc_hd__o221a_2
*I *11855:X O *D sky130_fd_sc_hd__mux2_1
*CAP
1 *11856:B2 0.000717108
2 *11855:X 0.00107359
3 *134:14 0.00194854
4 *134:12 0.00230502
5 *11856:B2 *11931:A 0.000761656
6 *11856:B2 *12025:A 0.000338943
7 *11856:B2 *187:30 4.43598e-05
8 *11856:B2 *584:16 0.000509371
9 *134:12 *700:DIODE 8.23457e-05
10 *134:12 *704:DIODE 8.23457e-05
11 *134:12 *12124:DI[7] 0.00017572
12 *134:12 *195:23 0.000232815
13 *134:12 *198:11 1.10631e-05
14 *134:12 *206:11 0.00094322
15 *134:12 *219:41 3.75126e-05
16 *134:12 *219:43 7.26348e-05
17 *134:12 *219:45 7.14699e-05
18 *134:12 *219:47 7.14699e-05
19 *134:12 *219:49 7.14699e-05
20 *134:12 *350:26 0.000979506
21 *134:14 *138:18 6.00003e-05
22 *134:14 *194:44 0.00131788
23 *134:14 *198:11 0.00610113
24 *134:14 *204:21 0.00121691
25 *134:14 *206:19 0.00445709
26 *134:14 *350:26 3.05531e-05
27 *134:14 *576:14 0.000170307
28 *11834:A0 *134:12 6.36139e-05
29 *11850:B2 *11856:B2 0.00133541
30 *11855:A0 *134:12 4.54218e-05
31 *122:36 *11856:B2 0
32 *128:22 *11856:B2 0.00184082
33 *132:10 *134:14 2.5406e-05
*RES
1 *11855:X *134:12 26.8275
2 *134:12 *134:14 70.1025
3 *134:14 *11856:B2 35.5
*END

*D_NET *135 0.0315129
*CONN
*I *11858:A0 I *D sky130_fd_sc_hd__mux2_1
*I *11857:X O *D sky130_fd_sc_hd__mux2_2
*CAP
1 *11858:A0 0
2 *11857:X 0.0134836
3 *135:34 0.0134836
4 *135:34 *11858:A1 3.00355e-05
5 *135:34 *12124:BEN[28] 8.1472e-05
6 *135:34 *12124:BEN[6] 4.13707e-05
7 *135:34 *12124:DI[28] 0
8 *135:34 *12124:DI[29] 0
9 *135:34 *186:29 0.000208404
10 *135:34 *208:29 0.00149871
11 *135:34 *212:27 0.000291958
12 *135:34 *215:29 0.00125967
13 *135:34 *220:129 0.000284939
14 *135:34 *250:11 0.000106344
15 *135:34 *284:66 2.49909e-05
16 *135:34 *319:34 1.7635e-05
17 *11840:A0 *135:34 0.000616719
18 *11849:A0 *135:34 8.34831e-05
*RES
1 *11857:X *135:34 49.5195
2 *135:34 *11858:A0 1.6
*END

*D_NET *136 0.0231362
*CONN
*I *11859:B2 I *D sky130_fd_sc_hd__o221a_2
*I *11858:X O *D sky130_fd_sc_hd__mux2_1
*CAP
1 *11859:B2 0.00104139
2 *11858:X 0.000424498
3 *136:14 0.00269113
4 *136:12 0.00207424
5 *11859:B2 *648:DIODE 0
6 *11859:B2 *11825:A 1.54318e-05
7 *11859:B2 *11871:B2 0.00054541
8 *11859:B2 *11871:C1 0.000114183
9 *11859:B2 *11930:A 0
10 *11859:B2 *12124:BEN[15] 0
11 *11859:B2 *142:28 0.0009127
12 *11859:B2 *194:44 2.25633e-05
13 *11859:B2 *212:27 0.000134256
14 *11859:B2 *575:24 0
15 *11859:B2 *576:14 0
16 *11859:B2 *597:12 0
17 *11859:B2 *633:26 0.00013493
18 *11859:B2 *633:41 1.61831e-05
19 *136:12 *703:DIODE 1.74678e-05
20 *136:14 *138:16 0.000464135
21 *136:14 *144:18 1.68627e-05
22 *136:14 *193:28 0.00265042
23 *136:14 *582:20 0.00237854
24 *136:14 *629:8 0.000790814
25 *11849:A0 *136:12 6.33103e-05
26 *11855:A0 *136:12 9.17709e-05
27 *114:10 *11859:B2 2.89429e-05
28 *120:22 *11859:B2 0.00135229
29 *127:10 *136:14 0.00126696
30 *128:10 *136:14 0.00559517
31 *130:24 *136:12 0.000292582
32 *132:18 *11859:B2 0
*RES
1 *11858:X *136:12 10.8
2 *136:12 *136:14 80.685
3 *136:14 *11859:B2 33.46
*END

*D_NET *137 0.0510087
*CONN
*I *11861:A0 I *D sky130_fd_sc_hd__mux2_2
*I *11860:X O *D sky130_fd_sc_hd__mux2_2
*CAP
1 *11861:A0 0.00120803
2 *11860:X 0.00189023
3 *137:16 0.0042963
4 *137:14 0.00497851
5 *11861:A0 *719:DIODE 8.23457e-05
6 *11861:A0 *12094:A 0.000571307
7 *11861:A0 *12124:DI[1] 7.96352e-05
8 *11861:A0 *138:16 0.000161632
9 *11861:A0 *184:8 0.0025397
10 *11861:A0 *197:27 0.000139949
11 *11861:A0 *221:69 3.57349e-05
12 *11861:A0 *221:71 0.00014294
13 *11861:A0 *221:73 7.14699e-05
14 *137:14 *11860:A1 0
15 *137:14 *139:14 0.00217529
16 *137:14 *141:14 0
17 *137:14 *287:30 0
18 *137:16 *12144:DI[10] 0.00239827
19 *137:16 *141:16 0.00390251
20 *137:16 *143:18 0.0149296
21 *137:16 *198:11 0.00576389
22 *137:16 *199:21 0.000253564
23 *137:16 *258:11 3.50033e-05
24 *137:16 *272:11 0
25 *137:16 *272:27 0.00123252
26 *3:23 *137:14 0.000600727
27 *119:16 *137:16 0.00098389
28 *129:10 *11861:A0 0.00253568
*RES
1 *11860:X *137:14 49.945
2 *137:14 *137:16 169.17
3 *137:16 *11861:A0 46.915
*END

*D_NET *138 0.0321832
*CONN
*I *11862:B2 I *D sky130_fd_sc_hd__o221a_2
*I *11861:X O *D sky130_fd_sc_hd__mux2_2
*CAP
1 *11862:B2 0.00229644
2 *11861:X 0.00111964
3 *138:18 0.00367954
4 *138:16 0.00250273
5 *11862:B2 *11862:B1 4.1652e-06
6 *11862:B2 *11931:A 3.48309e-05
7 *11862:B2 *206:39 0.000198425
8 *138:16 *12124:DI[7] 0
9 *138:16 *144:16 4.66108e-05
10 *138:16 *193:28 5.74791e-05
11 *138:16 *629:8 0.00205193
12 *138:18 *144:18 0.00642629
13 *138:18 *198:11 0.00676942
14 *138:18 *199:21 0.000985604
15 *138:18 *582:20 0
16 *11832:B2 *11862:B2 0
17 *11850:B2 *11862:B2 0.00298369
18 *11861:A0 *138:16 0.000161632
19 *125:20 *138:16 0.00138413
20 *127:10 *138:16 0.000112281
21 *127:10 *138:18 1.07797e-05
22 *128:10 *138:18 0.000225502
23 *130:24 *138:18 0.00031898
24 *132:18 *11862:B2 0.000288922
25 *134:14 *138:18 6.00003e-05
26 *136:14 *138:16 0.000464135
*RES
1 *11861:X *138:16 40.165
2 *138:16 *138:18 78.39
3 *138:18 *11862:B2 40.795
*END

*D_NET *139 0.0539159
*CONN
*I *11864:A0 I *D sky130_fd_sc_hd__mux2_1
*I *11863:X O *D sky130_fd_sc_hd__mux2_2
*CAP
1 *11864:A0 0.000906941
2 *11863:X 0.000562301
3 *139:42 0.00232064
4 *139:16 0.00432444
5 *139:14 0.00388725
6 *139:10 0.00153881
7 *11864:A0 *731:DIODE 2.01259e-05
8 *11864:A0 *11867:A0 9.60582e-07
9 *11864:A0 *140:8 2.84058e-05
10 *11864:A0 *222:48 3.49355e-05
11 *11864:A0 *222:50 2.01259e-05
12 *11864:A0 *222:52 2.01259e-05
13 *11864:A0 *222:54 2.01259e-05
14 *11864:A0 *402:20 4.82919e-05
15 *139:14 *143:14 0.00463434
16 *139:16 *143:18 0.000693455
17 *139:16 *205:11 2.26301e-05
18 *139:16 *258:11 0.00357342
19 *139:16 *259:11 0.0034885
20 *139:16 *278:23 0.00189524
21 *139:42 *12124:AD[2] 0.0002386
22 *139:42 *12124:EN 0.000293728
23 *139:42 *143:18 0.00148182
24 *139:42 *186:29 2.38557e-05
25 *139:42 *193:16 0.00125036
26 *139:42 *195:23 0.000893251
27 *139:42 *197:27 0.000286204
28 *139:42 *198:11 0.00148542
29 *139:42 *199:21 0.000325991
30 *139:42 *351:8 0.00029792
31 *139:42 *560:128 5.18735e-06
32 *3:23 *139:14 0.000904292
33 *125:10 *139:16 0.00712928
34 *127:10 *139:16 0.00782692
35 *133:16 *139:42 0.00125669
36 *137:14 *139:14 0.00217529
*RES
1 *11863:X *139:10 14.885
2 *139:10 *139:14 44.885
3 *139:14 *139:16 147.24
4 *139:16 *139:42 44.9854
5 *139:42 *11864:A0 11.71
*END

*D_NET *140 0.0191544
*CONN
*I *11865:B2 I *D sky130_fd_sc_hd__o221a_2
*I *11864:X O *D sky130_fd_sc_hd__mux2_1
*CAP
1 *11865:B2 0.000284765
2 *11864:X 0.000531346
3 *140:10 0.00181218
4 *140:8 0.00205876
5 *11865:B2 *11865:A1 5.14396e-05
6 *11865:B2 *11865:B1 1.12643e-05
7 *11865:B2 *11865:C1 0.00025506
8 *11865:B2 *205:19 0.000124449
9 *11865:B2 *575:36 0.00026286
10 *140:8 *731:DIODE 8.23457e-05
11 *140:8 *12124:DI[3] 3.18977e-05
12 *140:8 *222:48 3.57349e-05
13 *140:8 *222:50 7.14699e-05
14 *140:8 *222:52 7.14699e-05
15 *140:8 *222:54 7.14699e-05
16 *140:10 *205:19 0.00669754
17 *140:10 *575:36 1.99922e-05
18 *140:10 *575:38 0.00665193
19 *11864:A0 *140:8 2.84058e-05
*RES
1 *11864:X *140:8 9.915
2 *140:8 *140:10 78.2625
3 *140:10 *11865:B2 10.2975
*END

*D_NET *141 0.050688
*CONN
*I *11867:A0 I *D sky130_fd_sc_hd__mux2_2
*I *11866:X O *D sky130_fd_sc_hd__mux2_2
*CAP
1 *11867:A0 0.000967316
2 *11866:X 0.00209544
3 *141:16 0.00433309
4 *141:14 0.00546122
5 *11867:A0 *737:DIODE 8.49205e-05
6 *11867:A0 *12124:DI[3] 2.31229e-05
7 *11867:A0 *142:16 0.000132937
8 *11867:A0 *198:11 0.00208731
9 *11867:A0 *199:21 0.000403671
10 *11867:A0 *223:71 0.00018955
11 *11867:A0 *350:24 0.00149415
12 *141:14 *143:14 0.000425783
13 *141:16 *12144:DI[10] 0.000787902
14 *141:16 *198:11 0.00739047
15 *141:16 *204:21 0.00177463
16 *141:16 *206:11 0.0131719
17 *141:16 *272:11 0.00186484
18 *141:16 *272:27 0.00123418
19 *11855:A0 *11867:A0 0.000558492
20 *11864:A0 *11867:A0 9.60582e-07
21 *3:23 *141:14 0.00130124
22 *119:16 *141:16 0.000985556
23 *127:10 *11867:A0 1.68627e-05
24 *137:14 *141:14 0
25 *137:16 *141:16 0.00390251
*RES
1 *11866:X *141:14 45.835
2 *141:14 *141:16 185.235
3 *141:16 *11867:A0 39.655
*END

*D_NET *142 0.0236163
*CONN
*I *11868:B2 I *D sky130_fd_sc_hd__o221a_2
*I *11867:X O *D sky130_fd_sc_hd__mux2_2
*CAP
1 *11868:B2 0.000614309
2 *11867:X 0.00117067
3 *142:28 0.00166867
4 *142:20 0.00264943
5 *142:16 0.00276574
6 *11868:B2 *11868:A1 0.000330996
7 *11868:B2 *11868:B1 1.39456e-05
8 *11868:B2 *187:30 0
9 *11868:B2 *208:29 0.000118136
10 *142:16 *737:DIODE 3.1835e-05
11 *142:16 *12124:BEN[9] 3.64998e-06
12 *142:16 *12124:DI[6] 0.000214952
13 *142:16 *194:30 0.00261885
14 *142:16 *195:23 0.000577163
15 *142:16 *214:27 3.64998e-06
16 *142:16 *223:71 2.39856e-05
17 *142:16 *351:24 0.00260013
18 *142:20 *12124:BEN[10] 1.79536e-05
19 *142:20 *12124:BEN[11] 1.79536e-05
20 *142:20 *187:30 1.79483e-05
21 *142:20 *188:30 1.79483e-05
22 *142:20 *189:34 1.79483e-05
23 *142:20 *351:24 2.8531e-05
24 *142:20 *351:26 0.00118368
25 *142:20 *557:161 0.000261714
26 *142:20 *557:171 0.000620444
27 *142:20 *557:191 0.000456907
28 *142:20 *557:213 0.000212642
29 *142:28 *11868:A1 1.79483e-05
30 *142:28 *11871:A1 1.88602e-05
31 *142:28 *195:23 0.000245545
32 *142:28 *206:37 0.00146237
33 *142:28 *351:26 0.00167994
34 *142:28 *557:161 0.00033637
35 *142:28 *575:24 0.000111012
36 *11859:B2 *142:28 0.0009127
37 *11867:A0 *142:16 0.000132937
38 *120:22 *142:28 0.000350724
39 *130:26 *142:28 8.81252e-05
40 *132:18 *142:28 0
*RES
1 *11867:X *142:16 47.245
2 *142:16 *142:20 35.6175
3 *142:20 *142:28 40.0675
4 *142:28 *11868:B2 14.67
*END

*D_NET *143 0.054392
*CONN
*I *11870:A0 I *D sky130_fd_sc_hd__mux2_2
*I *11869:X O *D sky130_fd_sc_hd__mux2_4
*CAP
1 *11870:A0 0.000618208
2 *11869:X 0.000479259
3 *143:18 0.0037344
4 *143:16 0.00311619
5 *143:14 0.00188003
6 *143:12 0.00235929
7 *11870:A0 *742:DIODE 6.33103e-05
8 *11870:A0 *11870:A1 4.41506e-05
9 *11870:A0 *12124:DI[3] 6.33103e-05
10 *11870:A0 *144:16 0.000293227
11 *11870:A0 *400:30 2.97522e-05
12 *11870:A0 *629:8 0.000444081
13 *143:12 *11869:A1 0
14 *143:12 *11869:S 4.82919e-05
15 *143:12 *288:36 4.82919e-05
16 *143:18 *198:11 3.96225e-05
17 *143:18 *199:21 0.00155159
18 *143:18 *258:11 0.0036836
19 *3:23 *143:14 0.00172395
20 *125:20 *11870:A0 0.000445494
21 *127:10 *143:18 0.011561
22 *137:16 *143:18 0.0149296
23 *139:14 *143:14 0.00463434
24 *139:16 *143:18 0.000693455
25 *139:42 *143:18 0.00148182
26 *141:14 *143:14 0.000425783
*RES
1 *11869:X *143:12 14.06
2 *143:12 *143:14 50.82
3 *143:14 *143:16 2
4 *143:16 *143:18 185.745
5 *143:18 *11870:A0 21.64
*END

*D_NET *144 0.0299341
*CONN
*I *11871:B2 I *D sky130_fd_sc_hd__o221a_2
*I *11870:X O *D sky130_fd_sc_hd__mux2_2
*CAP
1 *11871:B2 0.000588253
2 *11870:X 0.00108498
3 *144:18 0.00179939
4 *144:16 0.00229612
5 *11871:B2 *11871:A1 0.000258425
6 *11871:B2 *12124:BEN[15] 0.000728084
7 *11871:B2 *212:27 0.000173043
8 *11871:B2 *496:34 9.90522e-05
9 *11871:B2 *575:24 0.000155601
10 *11871:B2 *575:36 5.9964e-05
11 *11871:B2 *632:10 0.000117825
12 *144:16 *193:28 0.000119242
13 *144:16 *198:11 0.00276334
14 *144:16 *204:21 0.000547624
15 *144:16 *206:11 0.00276666
16 *144:18 *199:21 0.00128903
17 *11829:B2 *11871:B2 0.000132266
18 *11859:B2 *11871:B2 0.00054541
19 *11870:A0 *144:16 0.000293227
20 *124:28 *11871:B2 0.00123736
21 *127:10 *144:18 0.000813639
22 *128:10 *144:18 0.00557581
23 *136:14 *144:18 1.68627e-05
24 *138:16 *144:16 4.66108e-05
25 *138:18 *144:18 0.00642629
*RES
1 *11870:X *144:16 47.305
2 *144:16 *144:18 72.27
3 *144:18 *11871:B2 28.375
*END

*D_NET *145 0.0362578
*CONN
*I *11873:A0 I *D sky130_fd_sc_hd__mux2_1
*I *11872:X O *D sky130_fd_sc_hd__mux2_2
*CAP
1 *11873:A0 0.000542776
2 *11872:X 0.000142667
3 *145:10 0.00386875
4 *145:8 0.00346865
5 *11873:A0 *11818:B 8.247e-05
6 *11873:A0 *11873:S 8.23457e-05
7 *11873:A0 *225:97 0.000118081
8 *11873:A0 *225:99 4.66108e-05
9 *11873:A0 *243:27 0.000126782
10 *11873:A0 *578:10 0.000885635
11 *145:8 *289:31 0.000118081
12 *145:8 *289:33 4.66108e-05
13 *145:8 *289:35 0.000111089
14 *145:10 *11818:A 1.34361e-05
15 *145:10 *11818:C 0.00121306
16 *145:10 *12058:A 0.000616779
17 *145:10 *12074:A 0.000634289
18 *145:10 *149:10 0.010833
19 *145:10 *181:51 0.000142915
20 *145:10 *185:10 0.000122756
21 *145:10 *290:27 0
22 *145:10 *293:19 0.000504694
23 *145:10 *310:19 0.000209246
24 *145:10 *578:10 0
25 *11824:A0 *11873:A0 0.000822487
26 *112:10 *11873:A0 0
27 *112:10 *145:10 0.0115046
*RES
1 *11872:X *145:8 6.0525
2 *145:8 *145:10 147.367
3 *145:10 *11873:A0 18.4725
*END

*D_NET *146 0.0161731
*CONN
*I *11874:B2 I *D sky130_fd_sc_hd__o221a_2
*I *11873:X O *D sky130_fd_sc_hd__mux2_1
*CAP
1 *11874:B2 6.14374e-05
2 *11873:X 0.000162393
3 *146:10 0.00244132
4 *146:8 0.00254228
5 *11874:B2 *11874:A1 3.26964e-05
6 *11874:B2 *11874:A2 0.000153816
7 *11874:B2 *11874:B1 4.62224e-05
8 *11874:B2 *11874:C1 8.23457e-05
9 *11874:B2 *180:25 1.91597e-05
10 *146:8 *11873:S 0.00026102
11 *146:10 *11874:C1 2.97746e-05
12 *146:10 *11932:A 0.000208816
13 *146:10 *12124:DI[7] 5.90885e-05
14 *146:10 *178:18 0.000132542
15 *146:10 *360:32 0.00230169
16 *146:10 *362:10 9.00109e-05
17 *146:10 *365:24 2.05605e-05
18 *146:10 *369:56 5.68523e-06
19 *146:10 *371:26 0.00374931
20 *146:10 *371:60 5.68523e-06
21 *146:10 *389:18 0.000131328
22 *146:10 *393:16 0.00196315
23 *146:10 *560:18 1.29415e-05
24 *146:10 *560:20 0.000851162
25 *146:10 *560:411 8.42277e-05
26 *146:10 *627:27 0.000577597
27 *146:10 *634:10 0.000146857
*RES
1 *11873:X *146:8 6.12
2 *146:8 *146:10 76.095
3 *146:10 *11874:B2 5.43
*END

*D_NET *147 0.0401985
*CONN
*I *11876:A0 I *D sky130_fd_sc_hd__mux2_1
*I *11875:X O *D sky130_fd_sc_hd__mux2_2
*CAP
1 *11876:A0 0
2 *11875:X 0.000111991
3 *147:10 0.00439915
4 *147:8 0.00451114
5 *147:8 *290:72 1.74678e-05
6 *147:8 *290:76 3.64998e-06
7 *147:10 *11840:A1 7.06865e-05
8 *147:10 *11875:A1 0.000182627
9 *147:10 *12074:A 0.00119396
10 *147:10 *220:51 0.00124819
11 *147:10 *221:54 0.00131497
12 *147:10 *223:31 0.000255338
13 *147:10 *245:27 3.82728e-05
14 *147:10 *248:39 0.00018375
15 *147:10 *362:80 0.000581094
16 *147:10 *407:16 0.000469018
17 *147:10 *550:8 0.00953516
18 *147:10 *554:14 0.00074088
19 *147:10 *554:31 0.000558509
20 *147:10 *625:120 0.000156828
21 *147:10 *625:131 0.000356991
22 *147:10 *625:153 0.000172618
23 *11837:A0 *147:10 0.000633495
24 *117:14 *147:10 0.0134627
*RES
1 *11875:X *147:8 4.74
2 *147:8 *147:10 181.155
3 *147:10 *11876:A0 3.6
*END

*D_NET *148 0.0118939
*CONN
*I *11877:B2 I *D sky130_fd_sc_hd__o221a_2
*I *11876:X O *D sky130_fd_sc_hd__mux2_1
*CAP
1 *11877:B2 0.000478451
2 *11876:X 0.000100849
3 *148:12 0.00176362
4 *148:8 0.00138602
5 *11877:B2 *11877:A1 1.44696e-05
6 *11877:B2 *11877:A2 0.00010163
7 *11877:B2 *11877:B1 5.25592e-05
8 *11877:B2 *11877:C1 0.000119866
9 *11877:B2 *632:95 0.000901799
10 *11877:B2 *634:22 0.000929305
11 *148:8 *625:26 6.33103e-05
12 *148:12 *12058:A 0.000437116
13 *148:12 *180:25 0.00123986
14 *148:12 *223:31 0.00151592
15 *148:12 *564:10 0.000957811
16 *148:12 *564:25 0.000462885
17 *148:12 *574:16 0.0013684
18 *148:12 *578:10 0
*RES
1 *11876:X *148:8 4.74
2 *148:8 *148:12 48.515
3 *148:12 *11877:B2 18.265
*END

*D_NET *149 0.0709329
*CONN
*I *663:DIODE I *D sky130_fd_sc_hd__diode_2
*I *862:DIODE I *D sky130_fd_sc_hd__diode_2
*I *11879:A0 I *D sky130_fd_sc_hd__mux2_1
*I *640:DIODE I *D sky130_fd_sc_hd__diode_2
*I *751:DIODE I *D sky130_fd_sc_hd__diode_2
*I *973:DIODE I *D sky130_fd_sc_hd__diode_2
*I *1076:DIODE I *D sky130_fd_sc_hd__diode_2
*I *1109:DIODE I *D sky130_fd_sc_hd__diode_2
*I *641:DIODE I *D sky130_fd_sc_hd__diode_2
*I *652:DIODE I *D sky130_fd_sc_hd__diode_2
*I *1098:DIODE I *D sky130_fd_sc_hd__diode_2
*I *1087:DIODE I *D sky130_fd_sc_hd__diode_2
*I *1065:DIODE I *D sky130_fd_sc_hd__diode_2
*I *11878:X O *D sky130_fd_sc_hd__mux2_4
*CAP
1 *663:DIODE 3.27779e-05
2 *862:DIODE 0
3 *11879:A0 2.00545e-05
4 *640:DIODE 6.04177e-05
5 *751:DIODE 0
6 *973:DIODE 0
7 *1076:DIODE 0
8 *1109:DIODE 0
9 *641:DIODE 0
10 *652:DIODE 3.87554e-05
11 *1098:DIODE 0
12 *1087:DIODE 0
13 *1065:DIODE 0
14 *11878:X 8.77849e-05
15 *149:61 0.000151306
16 *149:59 0.000361813
17 *149:57 0.000388763
18 *149:55 0.000279845
19 *149:53 0.000283585
20 *149:51 0.000245638
21 *149:49 0.000130966
22 *149:45 0.00026569
23 *149:38 0.000213979
24 *149:31 0.000108942
25 *149:24 8.7222e-05
26 *149:22 0.00265762
27 *149:20 0.00262934
28 *149:18 0.00271484
29 *149:16 0.00300457
30 *149:10 0.00274739
31 *149:8 0.00254545
32 *640:DIODE *385:14 5.05437e-05
33 *652:DIODE *12197:A 0
34 *663:DIODE *585:14 2.49909e-05
35 *11879:A0 *385:14 0.000123592
36 *11879:A0 *625:65 0.000123592
37 *149:8 *291:23 3.00381e-05
38 *149:8 *309:23 3.74359e-05
39 *149:10 *1036:DIODE 0.000545382
40 *149:10 *12036:A 0.000147915
41 *149:10 *181:51 0.000982307
42 *149:10 *185:10 0.00804645
43 *149:10 *310:19 0.00173357
44 *149:10 *550:18 0.0004439
45 *149:16 *185:8 0
46 *149:18 *209:13 0.000212463
47 *149:18 *210:13 0.0108323
48 *149:18 *330:8 0.0114391
49 *149:18 *540:18 0
50 *149:22 *564:8 0.00301582
51 *149:22 *584:18 0.000154196
52 *149:22 *585:14 0.00223415
53 *149:31 *585:14 4.47209e-05
54 *149:38 *585:14 5.30673e-05
55 *149:45 *585:14 0.00013493
56 *149:49 *11880:B2 1.52945e-05
57 *149:49 *227:75 7.23533e-05
58 *149:51 *11880:B2 2.66939e-05
59 *149:53 *11880:B2 2.97004e-06
60 *149:53 *198:23 0
61 *149:55 *198:23 0
62 *149:55 *603:14 0
63 *149:57 *198:23 0
64 *149:57 *603:14 0
65 *149:57 *630:88 7.21296e-06
66 *149:59 *11886:A1 0.000138225
67 *149:59 *198:23 0
68 *149:59 *603:14 0
69 *149:59 *630:88 1.73877e-05
70 *149:59 *634:56 7.06865e-05
71 *149:61 *12197:A 0
72 wbs_dat_o[12] *149:61 0
73 *12015:A *652:DIODE 7.4027e-05
74 *12015:A *149:59 4.39353e-05
75 *12015:A *149:61 0.00016389
76 *145:10 *149:10 0.010833
*RES
1 *11878:X *149:8 5.085
2 *149:8 *149:10 125.82
3 *149:10 *149:16 7.9
4 *149:16 *149:18 133.725
5 *149:18 *149:20 2
6 *149:20 *149:22 50.475
7 *149:22 *149:24 0.36
8 *149:24 *1065:DIODE 1.6
9 *149:24 *149:31 0.795
10 *149:31 *1087:DIODE 1.6
11 *149:31 *149:38 0.795
12 *149:38 *1098:DIODE 1.6
13 *149:38 *149:45 2.175
14 *149:45 *149:49 3.38
15 *149:49 *149:51 0.87
16 *149:51 *149:53 2.145
17 *149:53 *149:55 2.145
18 *149:55 *149:57 2.145
19 *149:57 *149:59 4.185
20 *149:59 *149:61 2.145
21 *149:61 *652:DIODE 4.47
22 *149:61 *641:DIODE 3.6
23 *149:59 *1109:DIODE 3.6
24 *149:57 *1076:DIODE 3.6
25 *149:55 *973:DIODE 3.6
26 *149:53 *751:DIODE 3.6
27 *149:51 *640:DIODE 4.395
28 *149:49 *11879:A0 4.74
29 *149:45 *862:DIODE 1.6
30 *149:45 *663:DIODE 2.05
*END

*D_NET *150 0.00758985
*CONN
*I *11880:B2 I *D sky130_fd_sc_hd__o221a_2
*I *11879:X O *D sky130_fd_sc_hd__mux2_1
*CAP
1 *11880:B2 0.00136202
2 *11879:X 0.00136202
3 *11880:B2 *11880:B1 0
4 *11880:B2 *196:43 0
5 *11880:B2 *198:23 5.92269e-05
6 *11880:B2 *227:45 8.53113e-06
7 *11880:B2 *385:14 0.000553233
8 *11880:B2 *594:24 0.00205581
9 *11880:B2 *625:65 8.65961e-05
10 *11880:B2 *632:107 0
11 *11880:B2 *632:126 0.00205746
12 *149:49 *11880:B2 1.52945e-05
13 *149:51 *11880:B2 2.66939e-05
14 *149:53 *11880:B2 2.97004e-06
*RES
1 *11879:X *11880:B2 45.325
*END

*D_NET *151 0.048761
*CONN
*I *718:DIODE I *D sky130_fd_sc_hd__diode_2
*I *740:DIODE I *D sky130_fd_sc_hd__diode_2
*I *696:DIODE I *D sky130_fd_sc_hd__diode_2
*I *11882:A0 I *D sky130_fd_sc_hd__mux2_1
*I *674:DIODE I *D sky130_fd_sc_hd__diode_2
*I *685:DIODE I *D sky130_fd_sc_hd__diode_2
*I *707:DIODE I *D sky130_fd_sc_hd__diode_2
*I *763:DIODE I *D sky130_fd_sc_hd__diode_2
*I *774:DIODE I *D sky130_fd_sc_hd__diode_2
*I *785:DIODE I *D sky130_fd_sc_hd__diode_2
*I *729:DIODE I *D sky130_fd_sc_hd__diode_2
*I *796:DIODE I *D sky130_fd_sc_hd__diode_2
*I *752:DIODE I *D sky130_fd_sc_hd__diode_2
*I *11881:X O *D sky130_fd_sc_hd__mux2_4
*CAP
1 *718:DIODE 5.68923e-05
2 *740:DIODE 0
3 *696:DIODE 0
4 *11882:A0 0.000130467
5 *674:DIODE 0
6 *685:DIODE 0
7 *707:DIODE 0
8 *763:DIODE 0
9 *774:DIODE 0
10 *785:DIODE 8.4535e-05
11 *729:DIODE 0
12 *796:DIODE 0
13 *752:DIODE 0
14 *11881:X 0.000567095
15 *151:131 0.000327511
16 *151:124 0.000305648
17 *151:110 0.000130467
18 *151:71 0.000240391
19 *151:69 0.000390335
20 *151:54 0.000341144
21 *151:52 0.000202313
22 *151:50 0.000291605
23 *151:44 0.000378237
24 *151:40 0.000383839
25 *151:33 0.000236786
26 *151:26 0.00159986
27 *151:16 0.0200619
28 *151:14 0.0190994
29 *718:DIODE *12016:A 3.23663e-05
30 *785:DIODE *12225:A 4.55864e-06
31 *785:DIODE *441:14 0
32 *11882:A0 *625:78 0.000197826
33 *151:14 *304:25 0.000331865
34 *151:14 *311:25 0.000635329
35 *151:26 *199:27 9.39045e-07
36 *151:26 *201:15 0.000194789
37 *151:26 *202:27 0.000188932
38 *151:26 *227:27 0.000386527
39 *151:26 *441:14 0.0006093
40 *151:33 *12016:A 3.03684e-05
41 *151:40 *12016:A 5.9964e-05
42 *151:44 *441:14 0
43 *151:50 *152:20 8.12102e-05
44 *151:52 *152:20 0.000144102
45 *151:52 *441:14 0
46 *151:54 *12225:A 4.35575e-05
47 *151:54 *152:20 0.000111755
48 *151:54 *441:14 0
49 *151:69 *12225:A 0.000318646
50 *151:69 *634:121 0.000172937
51 *151:71 *12225:A 0.000110458
52 *151:124 *12016:A 1.41165e-05
53 *151:131 *12016:A 0.000150689
54 wbs_dat_o[15] *785:DIODE 0.000112279
*RES
1 *11881:X *151:14 9.5911
2 *151:14 *151:16 50.6844
3 *151:16 *151:26 11.4583
4 *151:26 *752:DIODE 1.6
5 *151:26 *151:33 0.795
6 *151:33 *796:DIODE 1.6
7 *151:33 *151:40 1.83
8 *151:40 *151:44 4.145
9 *151:44 *151:50 2.955
10 *151:50 *151:52 1.89
11 *151:52 *151:54 2.145
12 *151:54 *729:DIODE 3.6
13 *151:54 *151:69 5.19
14 *151:69 *151:71 2.655
15 *151:71 *785:DIODE 5.235
16 *151:71 *774:DIODE 3.6
17 *151:69 *763:DIODE 3.6
18 *151:52 *707:DIODE 3.6
19 *151:50 *685:DIODE 3.6
20 *151:44 *151:110 2
21 *151:110 *674:DIODE 1.6
22 *151:110 *11882:A0 3.43
23 *151:40 *151:124 0.45
24 *151:124 *696:DIODE 1.6
25 *151:124 *151:131 3.555
26 *151:131 *740:DIODE 1.6
27 *151:131 *718:DIODE 2.395
*END

*D_NET *152 0.0121531
*CONN
*I *11883:B2 I *D sky130_fd_sc_hd__o221a_2
*I *11882:X O *D sky130_fd_sc_hd__mux2_1
*CAP
1 *11883:B2 0.000377953
2 *11882:X 0.00265472
3 *152:20 0.00303267
4 *11883:B2 *11883:A1 6.69608e-06
5 *11883:B2 *597:14 0.00132388
6 *11883:B2 *601:16 0.00104091
7 *11883:B2 *632:126 1.96856e-05
8 *11883:B2 *634:56 1.98144e-05
9 *152:20 *12225:A 0.00230496
10 *152:20 *385:16 4.66108e-05
11 *152:20 *594:24 0.000842523
12 *152:20 *634:90 0.000145598
13 *151:50 *152:20 8.12102e-05
14 *151:52 *152:20 0.000144102
15 *151:54 *152:20 0.000111755
*RES
1 *11882:X *152:20 46.515
2 *152:20 *11883:B2 19.385
*END

*D_NET *153 0.0500285
*CONN
*I *851:DIODE I *D sky130_fd_sc_hd__diode_2
*I *874:DIODE I *D sky130_fd_sc_hd__diode_2
*I *896:DIODE I *D sky130_fd_sc_hd__diode_2
*I *918:DIODE I *D sky130_fd_sc_hd__diode_2
*I *829:DIODE I *D sky130_fd_sc_hd__diode_2
*I *11885:A0 I *D sky130_fd_sc_hd__mux2_1
*I *807:DIODE I *D sky130_fd_sc_hd__diode_2
*I *818:DIODE I *D sky130_fd_sc_hd__diode_2
*I *840:DIODE I *D sky130_fd_sc_hd__diode_2
*I *863:DIODE I *D sky130_fd_sc_hd__diode_2
*I *885:DIODE I *D sky130_fd_sc_hd__diode_2
*I *907:DIODE I *D sky130_fd_sc_hd__diode_2
*I *929:DIODE I *D sky130_fd_sc_hd__diode_2
*I *11884:X O *D sky130_fd_sc_hd__mux2_4
*CAP
1 *851:DIODE 0
2 *874:DIODE 4.14003e-05
3 *896:DIODE 0
4 *918:DIODE 0
5 *829:DIODE 0
6 *11885:A0 8.20203e-05
7 *807:DIODE 2.62285e-05
8 *818:DIODE 0
9 *840:DIODE 0
10 *863:DIODE 0
11 *885:DIODE 4.47645e-05
12 *907:DIODE 1.2598e-05
13 *929:DIODE 0.000112504
14 *11884:X 0.000105519
15 *153:126 8.68048e-05
16 *153:119 0.000164833
17 *153:115 0.000119428
18 *153:92 0.000108249
19 *153:40 0.000294753
20 *153:38 0.00039849
21 *153:34 0.000308614
22 *153:32 0.000227929
23 *153:30 0.000167565
24 *153:28 0.000238405
25 *153:26 0.0003025
26 *153:24 0.00215399
27 *153:16 0.0209973
28 *153:14 0.0190771
29 *874:DIODE *228:33 3.23663e-05
30 *907:DIODE *605:24 4.75991e-05
31 *929:DIODE *12073:A 2.30258e-05
32 *929:DIODE *12078:A 1.52418e-05
33 *929:DIODE *12178:A 7.2091e-05
34 *153:14 *287:30 3.1187e-05
35 *153:16 *219:29 0.000196571
36 *153:16 *247:29 0.000120468
37 *153:24 *11885:A1 2.99518e-06
38 *153:24 *12016:A 0.000143828
39 *153:24 *204:31 0.0033025
40 *153:24 *230:25 3.16057e-06
41 *153:26 *11885:A1 6.23762e-05
42 *153:26 *547:18 0
43 *153:28 *11885:A1 6.53508e-05
44 *153:28 *156:20 6.92786e-05
45 *153:30 *156:20 8.82606e-05
46 *153:32 *156:20 0.00017537
47 *153:34 *156:20 9.21064e-05
48 *153:38 *634:135 4.99524e-05
49 *153:40 *12078:A 0
50 *153:40 *12178:A 4.43129e-05
51 *153:119 *228:33 5.81172e-05
52 *153:126 *228:33 2.9972e-05
53 *12077:A *907:DIODE 2.68526e-05
54 *114:19 *807:DIODE 4.75959e-05
55 *114:19 *11885:A0 0.000156837
*RES
1 *11884:X *153:14 4.9579
2 *153:14 *153:16 52.2348
3 *153:16 *153:24 6.2523
4 *153:24 *153:26 2.145
5 *153:26 *153:28 3.165
6 *153:28 *153:30 1.125
7 *153:30 *153:32 2.145
8 *153:32 *153:34 2.145
9 *153:34 *153:38 2.595
10 *153:38 *153:40 2.655
11 *153:40 *929:DIODE 5.685
12 *153:40 *907:DIODE 4.05
13 *153:38 *885:DIODE 4.05
14 *153:34 *863:DIODE 3.6
15 *153:32 *840:DIODE 3.6
16 *153:30 *818:DIODE 3.6
17 *153:28 *153:92 2
18 *153:92 *807:DIODE 2.05
19 *153:92 *11885:A0 3.085
20 *153:26 *829:DIODE 3.6
21 *153:24 *153:115 2
22 *153:115 *153:119 1.845
23 *153:119 *918:DIODE 1.6
24 *153:119 *153:126 0.795
25 *153:126 *896:DIODE 1.6
26 *153:126 *874:DIODE 2.395
27 *153:115 *851:DIODE 1.6
*END

*D_NET *154 0.0104269
*CONN
*I *11886:B2 I *D sky130_fd_sc_hd__o221a_2
*I *11885:X O *D sky130_fd_sc_hd__mux2_1
*CAP
1 *11886:B2 0.00148316
2 *11885:X 0.00105661
3 *154:16 0.00253977
4 *11886:B2 *11889:B2 0.000548274
5 *11886:B2 *12208:A 0.000134922
6 *11886:B2 *585:14 4.82919e-05
7 *11886:B2 *630:113 0.000557477
8 *11886:B2 *632:151 0.000911514
9 *11886:B2 *634:56 8.73389e-06
10 *11886:B2 *634:73 0.000362439
11 *154:16 *441:14 0.000587791
12 *154:16 *599:12 0.00107431
13 *154:16 *630:113 6.61522e-05
14 *154:16 *630:121 0.00044682
15 *114:19 *154:16 0.000600588
*RES
1 *11885:X *154:16 28.94
2 *154:16 *11886:B2 33.46
*END

*D_NET *155 0.0473732
*CONN
*I *1051:DIODE I *D sky130_fd_sc_hd__diode_2
*I *985:DIODE I *D sky130_fd_sc_hd__diode_2
*I *962:DIODE I *D sky130_fd_sc_hd__diode_2
*I *1029:DIODE I *D sky130_fd_sc_hd__diode_2
*I *11888:A0 I *D sky130_fd_sc_hd__mux2_1
*I *951:DIODE I *D sky130_fd_sc_hd__diode_2
*I *974:DIODE I *D sky130_fd_sc_hd__diode_2
*I *996:DIODE I *D sky130_fd_sc_hd__diode_2
*I *1018:DIODE I *D sky130_fd_sc_hd__diode_2
*I *1040:DIODE I *D sky130_fd_sc_hd__diode_2
*I *1062:DIODE I *D sky130_fd_sc_hd__diode_2
*I *940:DIODE I *D sky130_fd_sc_hd__diode_2
*I *1007:DIODE I *D sky130_fd_sc_hd__diode_2
*I *11887:X O *D sky130_fd_sc_hd__mux2_4
*CAP
1 *1051:DIODE 0
2 *985:DIODE 0
3 *962:DIODE 0
4 *1029:DIODE 8.88614e-05
5 *11888:A0 8.44283e-05
6 *951:DIODE 0
7 *974:DIODE 0
8 *996:DIODE 0
9 *1018:DIODE 0
10 *1040:DIODE 0
11 *1062:DIODE 9.61769e-05
12 *940:DIODE 4.82494e-05
13 *1007:DIODE 0
14 *11887:X 0.000123825
15 *155:121 8.88614e-05
16 *155:66 0.0001856
17 *155:64 0.000218167
18 *155:62 0.000251437
19 *155:60 0.000231858
20 *155:58 0.000168282
21 *155:56 0.000206213
22 *155:43 0.00025201
23 *155:41 0.000262116
24 *155:37 0.000230714
25 *155:33 0.000143014
26 *155:26 0.00165824
27 *155:16 0.0202525
28 *155:14 0.0187514
29 *1029:DIODE *800:DIODE 4.99619e-05
30 *1029:DIODE *385:16 6.69341e-05
31 *1062:DIODE *12085:A 0
32 *1062:DIODE *12179:A 2.43028e-05
33 *1062:DIODE *12228:A 6.87295e-05
34 *155:14 *287:30 3.1187e-05
35 *155:16 *248:27 0
36 *155:26 *203:27 0.000442136
37 *155:26 *227:27 0.00144744
38 *155:26 *598:20 0.000281598
39 *155:33 *228:33 1.33293e-05
40 *155:37 *799:DIODE 8.8266e-05
41 *155:37 *228:33 0.000131658
42 *155:37 *231:66 3.66286e-05
43 *155:37 *231:68 7.66083e-05
44 *155:41 *228:33 0
45 *155:41 *231:27 0
46 *155:41 *231:29 0
47 *155:43 *231:29 0
48 *155:56 *11888:A1 0
49 *155:56 *12227:A 0
50 *155:56 *158:20 6.83488e-05
51 *155:56 *231:29 0
52 *155:58 *158:20 8.82606e-05
53 *155:60 *12227:A 0
54 *155:60 *158:20 0.000201716
55 *155:62 *12227:A 0
56 *155:62 *158:20 3.09233e-05
57 *155:62 *601:24 0
58 *155:64 *12227:A 0
59 *155:64 *601:24 0
60 *155:66 *12085:A 0
61 *155:66 *12179:A 3.30343e-05
62 *155:66 *601:24 0
63 wbs_dat_o[17] *1062:DIODE 6.18754e-05
64 wbs_dat_o[17] *155:64 5.38499e-05
65 wbs_dat_o[17] *155:66 9.43117e-05
66 *111:16 *155:26 0.00048237
67 *114:19 *11888:A0 0.000157818
*RES
1 *11887:X *155:14 5.2129
2 *155:14 *155:16 51.0289
3 *155:16 *155:26 14.227
4 *155:26 *1007:DIODE 1.6
5 *155:26 *155:33 0.45
6 *155:33 *155:37 3.225
7 *155:37 *155:41 3.89
8 *155:41 *155:43 2.0175
9 *155:43 *940:DIODE 4.2825
10 *155:43 *155:56 1.2525
11 *155:56 *155:58 1.125
12 *155:58 *155:60 2.4
13 *155:60 *155:62 1.89
14 *155:62 *155:64 2.145
15 *155:64 *155:66 2.145
16 *155:66 *1062:DIODE 5.745
17 *155:66 *1040:DIODE 3.6
18 *155:64 *1018:DIODE 3.6
19 *155:62 *996:DIODE 3.6
20 *155:60 *974:DIODE 3.6
21 *155:58 *951:DIODE 3.6
22 *155:56 *11888:A0 5.085
23 *155:41 *155:121 2
24 *155:121 *1029:DIODE 3.445
25 *155:121 *962:DIODE 1.6
26 *155:37 *985:DIODE 1.6
27 *155:33 *1051:DIODE 1.6
*END

*D_NET *156 0.0121058
*CONN
*I *11889:B2 I *D sky130_fd_sc_hd__o221a_2
*I *11888:X O *D sky130_fd_sc_hd__mux2_1
*CAP
1 *11889:B2 0.000965319
2 *11888:X 0.000841836
3 *156:20 0.00180716
4 *11889:B2 *659:DIODE 4.89295e-05
5 *11889:B2 *11895:A1 0.000365162
6 *11889:B2 *12208:A 0.000234669
7 *11889:B2 *201:23 4.82863e-05
8 *11889:B2 *585:14 0.000132167
9 *11889:B2 *630:113 0.00102721
10 *11889:B2 *632:193 0.000622848
11 *11889:B2 *634:73 0.000159304
12 *156:20 *11885:A1 9.94994e-05
13 *156:20 *11888:S 0.000733527
14 *156:20 *11898:B2 0.00139949
15 *156:20 *202:27 0.000112123
16 *156:20 *203:31 0.000120209
17 *156:20 *599:12 0.000573598
18 *156:20 *601:24 0.0016508
19 *156:20 *634:121 0.000134118
20 *11886:B2 *11889:B2 0.000548274
21 *114:19 *156:20 5.62354e-05
22 *153:28 *156:20 6.92786e-05
23 *153:30 *156:20 8.82606e-05
24 *153:32 *156:20 0.00017537
25 *153:34 *156:20 9.21064e-05
*RES
1 *11888:X *156:20 39.6
2 *156:20 *11889:B2 30.8
*END

*D_NET *157 0.0486248
*CONN
*I *1075:DIODE I *D sky130_fd_sc_hd__diode_2
*I *1069:DIODE I *D sky130_fd_sc_hd__diode_2
*I *1068:DIODE I *D sky130_fd_sc_hd__diode_2
*I *1066:DIODE I *D sky130_fd_sc_hd__diode_2
*I *1073:DIODE I *D sky130_fd_sc_hd__diode_2
*I *11891:A0 I *D sky130_fd_sc_hd__mux2_1
*I *1064:DIODE I *D sky130_fd_sc_hd__diode_2
*I *1067:DIODE I *D sky130_fd_sc_hd__diode_2
*I *1070:DIODE I *D sky130_fd_sc_hd__diode_2
*I *1072:DIODE I *D sky130_fd_sc_hd__diode_2
*I *1074:DIODE I *D sky130_fd_sc_hd__diode_2
*I *1071:DIODE I *D sky130_fd_sc_hd__diode_2
*I *11890:X O *D sky130_fd_sc_hd__mux2_4
*CAP
1 *1075:DIODE 0
2 *1069:DIODE 0.000153376
3 *1068:DIODE 0
4 *1066:DIODE 0
5 *1073:DIODE 0
6 *11891:A0 0
7 *1064:DIODE 8.82146e-05
8 *1067:DIODE 2.24916e-05
9 *1070:DIODE 0
10 *1072:DIODE 0
11 *1074:DIODE 0.000122983
12 *1071:DIODE 0
13 *11890:X 0.000985041
14 *157:65 0.000232425
15 *157:61 0.000428182
16 *157:55 0.000500312
17 *157:53 0.000330067
18 *157:51 0.000193364
19 *157:47 0.000222992
20 *157:43 0.000166975
21 *157:37 0.000411039
22 *157:33 0.000276581
23 *157:26 0.000982104
24 *157:16 0.0197231
25 *157:14 0.0197996
26 *1064:DIODE *603:16 5.07419e-05
27 *1067:DIODE *11898:B2 7.35729e-05
28 *1067:DIODE *609:22 0.000124895
29 *1069:DIODE *232:29 7.66083e-05
30 *1069:DIODE *232:31 7.40446e-05
31 *1069:DIODE *232:33 7.66083e-05
32 *1069:DIODE *232:35 3.74161e-05
33 *1069:DIODE *232:37 8.49205e-05
34 *1074:DIODE *12180:A 8.7152e-06
35 *157:14 *892:DIODE 0
36 *157:14 *159:14 0.000897875
37 *157:14 *177:16 0.000160538
38 *157:14 *287:30 0.000663695
39 *157:26 *204:31 0
40 *157:26 *227:27 0.000381347
41 *157:26 *231:25 0
42 *157:37 *809:DIODE 8.40269e-05
43 *157:37 *232:37 3.66286e-05
44 *157:37 *232:39 7.40446e-05
45 *157:43 *204:31 9.24049e-05
46 *157:43 *232:60 8.68724e-05
47 *157:43 *232:64 5.53249e-06
48 *157:47 *385:16 6.27438e-05
49 *157:51 *204:31 0
50 *157:51 *232:64 0.000112105
51 *157:51 *627:41 0.000112105
52 *157:55 *204:31 0
53 *157:61 *664:DIODE 0
54 *157:61 *11907:A2 1.9488e-05
55 *157:61 *11907:B1 0.000134057
56 *157:61 *12229:A 0.0001249
57 *157:61 *204:31 0
58 *157:65 *664:DIODE 2.97004e-06
59 *157:65 *12180:A 0.000114047
60 wbs_dat_o[18] *1074:DIODE 5.39718e-05
61 *3:41 *157:14 0.000159068
*RES
1 *11890:X *157:14 9.2703
2 *157:14 *157:16 51.0289
3 *157:16 *157:26 11.4302
4 *157:26 *1071:DIODE 1.6
5 *157:26 *157:33 0.795
6 *157:33 *157:37 3.225
7 *157:37 *157:43 5.89
8 *157:43 *157:47 1.845
9 *157:47 *157:51 4.91
10 *157:51 *157:53 1.125
11 *157:53 *157:55 2.4
12 *157:55 *157:61 7.07
13 *157:61 *157:65 4.145
14 *157:65 *1074:DIODE 5.745
15 *157:65 *1072:DIODE 3.6
16 *157:61 *1070:DIODE 1.6
17 *157:55 *1067:DIODE 4.74
18 *157:53 *1064:DIODE 4.74
19 *157:51 *11891:A0 3.6
20 *157:47 *1073:DIODE 1.6
21 *157:43 *1066:DIODE 1.6
22 *157:37 *1068:DIODE 1.6
23 *157:37 *1069:DIODE 5.155
24 *157:33 *1075:DIODE 1.6
*END

*D_NET *158 0.0115266
*CONN
*I *11892:B2 I *D sky130_fd_sc_hd__o221a_2
*I *11891:X O *D sky130_fd_sc_hd__mux2_1
*CAP
1 *11892:B2 0.00210131
2 *11891:X 0.000948851
3 *158:20 0.00305016
4 *11892:B2 *11892:B1 7.9642e-06
5 *11892:B2 *11895:B1 3.78034e-06
6 *11892:B2 *11898:B2 0.00110572
7 *11892:B2 *200:19 0
8 *11892:B2 *601:16 0.00103325
9 *11892:B2 *605:22 8.65905e-05
10 *11892:B2 *609:22 0.000258574
11 *11892:B2 *632:170 0.000153041
12 *11892:B2 *634:90 2.0519e-05
13 *11892:B2 *634:106 3.03353e-05
14 *11892:B2 *634:121 0.00113532
15 *158:20 *11888:A1 0
16 *158:20 *11888:S 0.000200201
17 *158:20 *11898:B2 0.000408724
18 *158:20 *160:12 0.000122331
19 *158:20 *609:22 0.000232141
20 *114:19 *158:20 0.000238538
21 *155:56 *158:20 6.83488e-05
22 *155:58 *158:20 8.82606e-05
23 *155:60 *158:20 0.000201716
24 *155:62 *158:20 3.09233e-05
*RES
1 *11891:X *158:20 22.9775
2 *158:20 *11892:B2 45.7175
*END

*D_NET *159 0.0483413
*CONN
*I *1080:DIODE I *D sky130_fd_sc_hd__diode_2
*I *1083:DIODE I *D sky130_fd_sc_hd__diode_2
*I *1078:DIODE I *D sky130_fd_sc_hd__diode_2
*I *11894:A0 I *D sky130_fd_sc_hd__mux2_1
*I *1077:DIODE I *D sky130_fd_sc_hd__diode_2
*I *1079:DIODE I *D sky130_fd_sc_hd__diode_2
*I *1082:DIODE I *D sky130_fd_sc_hd__diode_2
*I *1084:DIODE I *D sky130_fd_sc_hd__diode_2
*I *1086:DIODE I *D sky130_fd_sc_hd__diode_2
*I *1088:DIODE I *D sky130_fd_sc_hd__diode_2
*I *1085:DIODE I *D sky130_fd_sc_hd__diode_2
*I *1081:DIODE I *D sky130_fd_sc_hd__diode_2
*I *11893:X O *D sky130_fd_sc_hd__mux2_4
*CAP
1 *1080:DIODE 0
2 *1083:DIODE 0.000116182
3 *1078:DIODE 0
4 *11894:A0 0.000209162
5 *1077:DIODE 0
6 *1079:DIODE 0
7 *1082:DIODE 0
8 *1084:DIODE 0
9 *1086:DIODE 0.000121863
10 *1088:DIODE 0
11 *1085:DIODE 0
12 *1081:DIODE 0
13 *11893:X 0.00146977
14 *159:113 0.000116182
15 *159:93 0.000209162
16 *159:61 0.000247733
17 *159:59 0.000330662
18 *159:57 0.000277282
19 *159:55 0.000236142
20 *159:53 0.000230874
21 *159:49 0.000243928
22 *159:42 0.000248271
23 *159:35 0.000151899
24 *159:28 0.000745287
25 *159:16 0.0195189
26 *159:14 0.0203237
27 *1083:DIODE *12039:A 4.21973e-05
28 *1083:DIODE *205:43 8.49205e-05
29 *1086:DIODE *12086:A 0
30 *11894:A0 *11907:B2 0.000104672
31 *11894:A0 *603:16 6.27529e-05
32 *159:14 *11893:A1 0
33 *159:14 *11923:A 7.71236e-05
34 *159:14 *269:32 0.000236455
35 *159:14 *287:30 0.000331702
36 *159:28 *227:27 0.000166206
37 *159:28 *230:25 5.93515e-05
38 *159:28 *232:27 8.33184e-05
39 *159:49 *817:DIODE 8.65905e-05
40 *159:49 *233:37 4.66108e-05
41 *159:53 *205:37 9.65864e-05
42 *159:53 *233:41 0.000151353
43 *159:55 *11894:A1 0.000110083
44 *159:55 *11907:B2 0.000107777
45 *159:55 *205:37 1.52184e-05
46 *159:55 *205:43 2.3917e-05
47 *159:55 *233:41 0.00018471
48 *159:57 *11907:B2 7.0118e-05
49 *159:57 *205:43 9.52092e-05
50 *159:59 *665:DIODE 0.000122526
51 *159:59 *11907:B2 1.88081e-05
52 *159:59 *12181:A 0.000144209
53 *159:59 *205:43 2.4393e-05
54 *159:61 *12100:A 0
55 *159:61 *12181:A 5.53249e-06
56 wbs_dat_o[19] *1086:DIODE 6.44118e-05
57 wbs_dat_o[19] *159:61 2.96845e-05
58 *157:14 *159:14 0.000897875
*RES
1 *11893:X *159:14 9.4595
2 *159:14 *159:16 51.6319
3 *159:16 *159:28 9.33537
4 *159:28 *1081:DIODE 1.6
5 *159:28 *159:35 0.795
6 *159:35 *1085:DIODE 1.6
7 *159:35 *159:42 0.795
8 *159:42 *1088:DIODE 1.6
9 *159:42 *159:49 2.175
10 *159:49 *159:53 4.145
11 *159:53 *159:55 4.185
12 *159:55 *159:57 2.145
13 *159:57 *159:59 4.185
14 *159:59 *159:61 2.145
15 *159:61 *1086:DIODE 5.745
16 *159:61 *1084:DIODE 3.6
17 *159:59 *1082:DIODE 3.6
18 *159:57 *1079:DIODE 3.6
19 *159:55 *159:93 2
20 *159:93 *1077:DIODE 1.6
21 *159:93 *11894:A0 8.465
22 *159:53 *159:113 2
23 *159:113 *1078:DIODE 1.6
24 *159:113 *1083:DIODE 3.085
25 *159:49 *1080:DIODE 1.6
*END

*D_NET *160 0.0113603
*CONN
*I *11895:B2 I *D sky130_fd_sc_hd__o221a_2
*I *11894:X O *D sky130_fd_sc_hd__mux2_1
*CAP
1 *11895:B2 0.00199552
2 *11894:X 0.000775739
3 *160:12 0.00277126
4 *11895:B2 *201:23 0
5 *11895:B2 *601:16 4.43871e-06
6 *11895:B2 *603:16 0.00428993
7 *160:12 *801:DIODE 0.000124895
8 *160:12 *11891:A1 0.000122337
9 *160:12 *204:31 0.000196767
10 *160:12 *627:54 0.000903115
11 *114:19 *160:12 5.39946e-05
12 *158:20 *160:12 0.000122331
*RES
1 *11894:X *160:12 19.49
2 *160:12 *11895:B2 47.18
*END

*D_NET *161 0.0560607
*CONN
*I *1095:DIODE I *D sky130_fd_sc_hd__diode_2
*I *1100:DIODE I *D sky130_fd_sc_hd__diode_2
*I *1092:DIODE I *D sky130_fd_sc_hd__diode_2
*I *1090:DIODE I *D sky130_fd_sc_hd__diode_2
*I *1093:DIODE I *D sky130_fd_sc_hd__diode_2
*I *1097:DIODE I *D sky130_fd_sc_hd__diode_2
*I *11897:A0 I *D sky130_fd_sc_hd__mux2_1
*I *1089:DIODE I *D sky130_fd_sc_hd__diode_2
*I *1091:DIODE I *D sky130_fd_sc_hd__diode_2
*I *1094:DIODE I *D sky130_fd_sc_hd__diode_2
*I *1096:DIODE I *D sky130_fd_sc_hd__diode_2
*I *1099:DIODE I *D sky130_fd_sc_hd__diode_2
*I *11896:X O *D sky130_fd_sc_hd__mux2_4
*CAP
1 *1095:DIODE 5.99515e-05
2 *1100:DIODE 0
3 *1092:DIODE 0
4 *1090:DIODE 0
5 *1093:DIODE 5.41613e-05
6 *1097:DIODE 0
7 *11897:A0 0
8 *1089:DIODE 9.46297e-05
9 *1091:DIODE 2.25496e-05
10 *1094:DIODE 8.68279e-05
11 *1096:DIODE 8.36858e-05
12 *1099:DIODE 0.000148475
13 *11896:X 0.00112776
14 *161:128 0.000217497
15 *161:121 0.000157546
16 *161:102 0.000105736
17 *161:46 0.000396998
18 *161:44 0.000514415
19 *161:42 0.000409631
20 *161:40 0.000291736
21 *161:38 0.000216622
22 *161:32 0.000321261
23 *161:28 0.000165823
24 *161:24 0.000124591
25 *161:16 0.0193505
26 *161:14 0.0203937
27 *1089:DIODE *608:12 3.80606e-05
28 *1091:DIODE *182:42 0.000123225
29 *1091:DIODE *611:26 0.000123225
30 *1094:DIODE *12229:A 4.99619e-05
31 *1096:DIODE *605:24 0.00012208
32 *1099:DIODE *12104:A 7.60965e-05
33 *1099:DIODE *12107:A 0.000166806
34 *161:14 *287:30 0.00141194
35 *161:14 *304:25 0.00279323
36 *161:16 *382:18 0.00539797
37 *161:24 *182:23 3.01119e-05
38 *161:24 *233:27 6.11227e-05
39 *161:28 *182:23 0.000166346
40 *161:32 *830:DIODE 4.82919e-05
41 *161:38 *11897:A1 6.97256e-05
42 *161:38 *11910:B2 0
43 *161:38 *234:39 0.000141599
44 *161:42 *11910:B2 0
45 *161:44 *668:DIODE 0
46 *161:44 *11910:B2 0
47 *161:46 *668:DIODE 0
48 *161:102 *830:DIODE 1.16578e-05
49 *161:128 *234:29 7.66083e-05
50 *161:128 *234:31 7.66083e-05
51 *161:128 *234:33 7.57202e-05
52 *161:128 *234:75 0.000120655
53 wbs_dat_o[19] *1094:DIODE 2.36616e-05
54 wbs_dat_o[20] *1099:DIODE 0.000139238
55 *11910:A2 *161:44 4.11194e-05
56 *111:20 *161:24 3.79555e-05
57 *111:20 *161:28 0.000164679
58 *111:20 *161:38 4.27883e-06
59 *111:20 *161:40 2.40107e-05
60 *111:20 *161:42 7.46123e-05
61 *111:20 *161:44 2.604e-05
*RES
1 *11896:X *161:14 13.6266
2 *161:14 *161:16 51.8041
3 *161:16 *161:24 1.67117
4 *161:24 *161:28 3.89
5 *161:28 *161:32 1.845
6 *161:32 *161:38 5.015
7 *161:38 *161:40 1.125
8 *161:40 *161:42 2.4
9 *161:42 *161:44 3.93
10 *161:44 *161:46 2.145
11 *161:46 *1099:DIODE 7.14
12 *161:46 *1096:DIODE 4.74
13 *161:44 *1094:DIODE 4.74
14 *161:42 *1091:DIODE 4.74
15 *161:40 *1089:DIODE 4.74
16 *161:38 *11897:A0 3.6
17 *161:32 *161:102 0.795
18 *161:102 *1097:DIODE 1.6
19 *161:102 *1093:DIODE 2.395
20 *161:28 *1090:DIODE 1.6
21 *161:24 *161:121 2
22 *161:121 *1092:DIODE 1.6
23 *161:121 *161:128 3.555
24 *161:128 *1100:DIODE 1.6
25 *161:128 *1095:DIODE 2.395
*END

*D_NET *162 0.0117297
*CONN
*I *11898:B2 I *D sky130_fd_sc_hd__o221a_2
*I *11897:X O *D sky130_fd_sc_hd__mux2_1
*CAP
1 *11898:B2 0.000988411
2 *11897:X 0.000784668
3 *162:14 0.00177308
4 *11898:B2 *164:30 0.00271397
5 *11898:B2 *601:24 7.74817e-05
6 *11898:B2 *609:22 0.000813855
7 *11898:B2 *634:121 0.000199369
8 *162:14 *665:DIODE 2.85364e-05
9 *162:14 *11894:A1 0.000229295
10 *162:14 *205:43 0.000295208
11 *162:14 *485:14 8.69417e-06
12 *162:14 *627:61 0.000444953
13 *1067:DIODE *11898:B2 7.35729e-05
14 *11892:B2 *11898:B2 0.00110572
15 *114:19 *162:14 0.000228307
16 *114:39 *162:14 0.000156336
17 *156:20 *11898:B2 0.00139949
18 *158:20 *11898:B2 0.000408724
*RES
1 *11897:X *162:14 21.035
2 *162:14 *11898:B2 46.58
*END

*D_NET *163 0.0516239
*CONN
*I *11900:A0 I *D sky130_fd_sc_hd__mux2_1
*I *1102:DIODE I *D sky130_fd_sc_hd__diode_2
*I *1101:DIODE I *D sky130_fd_sc_hd__diode_2
*I *1103:DIODE I *D sky130_fd_sc_hd__diode_2
*I *1105:DIODE I *D sky130_fd_sc_hd__diode_2
*I *1107:DIODE I *D sky130_fd_sc_hd__diode_2
*I *1108:DIODE I *D sky130_fd_sc_hd__diode_2
*I *1110:DIODE I *D sky130_fd_sc_hd__diode_2
*I *1111:DIODE I *D sky130_fd_sc_hd__diode_2
*I *1112:DIODE I *D sky130_fd_sc_hd__diode_2
*I *1106:DIODE I *D sky130_fd_sc_hd__diode_2
*I *1104:DIODE I *D sky130_fd_sc_hd__diode_2
*I *11899:X O *D sky130_fd_sc_hd__mux2_4
*CAP
1 *11900:A0 6.04047e-05
2 *1102:DIODE 0
3 *1101:DIODE 4.78063e-05
4 *1103:DIODE 4.78063e-05
5 *1105:DIODE 4.16082e-05
6 *1107:DIODE 1.65033e-05
7 *1108:DIODE 1.36534e-05
8 *1110:DIODE 4.78063e-05
9 *1111:DIODE 3.69588e-05
10 *1112:DIODE 0.000217472
11 *1106:DIODE 0
12 *1104:DIODE 0
13 *11899:X 0.00141824
14 *163:127 4.78063e-05
15 *163:60 0.000413411
16 *163:58 0.000352638
17 *163:56 0.000307031
18 *163:54 0.000340501
19 *163:52 0.000382257
20 *163:50 0.000362169
21 *163:48 0.000216029
22 *163:46 0.000447384
23 *163:35 0.000364139
24 *163:28 8.98806e-05
25 *163:18 0.0193838
26 *163:16 0.0207552
27 *1105:DIODE *613:14 1.56428e-05
28 *1107:DIODE *518:18 2.49909e-05
29 *1107:DIODE *611:28 4.66108e-05
30 *1108:DIODE *166:14 4.66108e-05
31 *1108:DIODE *615:14 4.66108e-05
32 *1111:DIODE *12235:A 4.66108e-05
33 *1112:DIODE *606:28 5.36384e-06
34 *11900:A0 *833:DIODE 5.05521e-05
35 *163:16 *898:DIODE 0
36 *163:16 *11899:A0 8.65905e-05
37 *163:16 *12083:A 0.00120889
38 *163:16 *12087:A 0.000181082
39 *163:16 *287:30 0.000484863
40 *163:16 *304:25 0.00221389
41 *163:16 *637:133 0.00149337
42 *163:28 *11916:B2 1.7635e-05
43 *163:28 *233:27 1.81196e-05
44 *163:35 *164:24 5.35969e-06
45 *163:46 *164:24 2.19562e-06
46 *163:46 *235:31 0
47 *163:46 *627:76 0.000120789
48 *163:56 *612:24 8.90632e-05
49 *163:58 *612:24 8.53113e-06
*RES
1 *11899:X *163:16 26.3126
2 *163:16 *163:18 51.8041
3 *163:18 *163:28 3.29963
4 *163:28 *1104:DIODE 1.6
5 *163:28 *163:35 0.45
6 *163:35 *1106:DIODE 1.6
7 *163:35 *163:46 5.9
8 *163:46 *163:48 0.87
9 *163:48 *163:50 2.145
10 *163:50 *163:52 2.145
11 *163:52 *163:54 2.4
12 *163:54 *163:56 2.145
13 *163:56 *163:58 1.89
14 *163:58 *163:60 2.145
15 *163:60 *1112:DIODE 6.195
16 *163:60 *1111:DIODE 4.05
17 *163:58 *1110:DIODE 4.05
18 *163:56 *1108:DIODE 4.05
19 *163:54 *1107:DIODE 4.05
20 *163:52 *1105:DIODE 4.05
21 *163:50 *1103:DIODE 4.05
22 *163:48 *163:127 2
23 *163:127 *1101:DIODE 2.05
24 *163:127 *1102:DIODE 1.6
25 *163:46 *11900:A0 4.395
*END

*D_NET *164 0.0148865
*CONN
*I *11901:B2 I *D sky130_fd_sc_hd__o221a_2
*I *11900:X O *D sky130_fd_sc_hd__mux2_1
*CAP
1 *11901:B2 0
2 *11900:X 0.00197593
3 *164:30 0.00183004
4 *164:24 0.00380596
5 *164:24 *669:DIODE 1.7635e-05
6 *164:24 *833:DIODE 4.41506e-05
7 *164:24 *11913:A1 2.75229e-05
8 *164:24 *11916:A1 0.000222496
9 *164:24 *11916:B2 0
10 *164:24 *12235:A 9.86621e-05
11 *164:24 *209:25 0.000262696
12 *164:24 *210:21 0
13 *164:24 *507:14 7.9642e-06
14 *164:24 *518:18 0.000102494
15 *164:24 *612:24 3.59531e-06
16 *164:24 *615:12 0
17 *164:24 *627:76 2.39856e-05
18 *164:30 *11901:A1 5.18317e-06
19 *164:30 *11907:A1 0.0001049
20 *164:30 *11907:B1 0.000309607
21 *164:30 *12181:A 0.000122331
22 *164:30 *182:42 0.000604983
23 *164:30 *203:31 0.000132462
24 *164:30 *485:14 0.000111324
25 *164:30 *601:24 0.000995739
26 *164:30 *609:22 0.000157194
27 *164:30 *611:26 0.000138263
28 *11898:B2 *164:30 0.00271397
29 *11916:A2 *164:24 0
30 *111:37 *164:24 5.83121e-06
31 *111:37 *164:30 0.000953472
32 *111:46 *164:24 0.000100516
33 *163:35 *164:24 5.35969e-06
34 *163:46 *164:24 2.19562e-06
*RES
1 *11900:X *164:24 34.425
2 *164:24 *164:30 48.59
3 *164:30 *11901:B2 3.6
*END

*D_NET *165 0.0541076
*CONN
*I *1116:DIODE I *D sky130_fd_sc_hd__diode_2
*I *1114:DIODE I *D sky130_fd_sc_hd__diode_2
*I *1118:DIODE I *D sky130_fd_sc_hd__diode_2
*I *11903:A0 I *D sky130_fd_sc_hd__mux2_2
*I *1113:DIODE I *D sky130_fd_sc_hd__diode_2
*I *1115:DIODE I *D sky130_fd_sc_hd__diode_2
*I *1117:DIODE I *D sky130_fd_sc_hd__diode_2
*I *1119:DIODE I *D sky130_fd_sc_hd__diode_2
*I *642:DIODE I *D sky130_fd_sc_hd__diode_2
*I *643:DIODE I *D sky130_fd_sc_hd__diode_2
*I *644:DIODE I *D sky130_fd_sc_hd__diode_2
*I *11902:X O *D sky130_fd_sc_hd__mux2_4
*CAP
1 *1116:DIODE 5.8244e-05
2 *1114:DIODE 0
3 *1118:DIODE 9.32821e-05
4 *11903:A0 0
5 *1113:DIODE 0
6 *1115:DIODE 0
7 *1117:DIODE 0
8 *1119:DIODE 0
9 *642:DIODE 0
10 *643:DIODE 0
11 *644:DIODE 0.000127517
12 *11902:X 0.00225082
13 *165:111 5.8244e-05
14 *165:97 0.000250084
15 *165:44 0.000272432
16 *165:42 0.000199967
17 *165:40 0.000282783
18 *165:38 0.000370005
19 *165:36 0.000269523
20 *165:32 0.000367074
21 *165:26 0.000494189
22 *165:24 0.000412906
23 *165:16 0.0194306
24 *165:14 0.021366
25 *644:DIODE *834:DIODE 0
26 *644:DIODE *12190:A 3.30343e-05
27 *1116:DIODE *166:12 8.52883e-05
28 *1118:DIODE *627:83 7.44006e-05
29 *1118:DIODE *627:92 4.60584e-05
30 *165:14 *12087:A 0.00131804
31 *165:14 *287:30 0.00548305
32 *165:14 *301:25 0
33 *165:14 *302:23 0
34 *165:14 *306:33 0
35 *165:16 *311:21 0.00028234
36 *165:24 *233:27 0.000300875
37 *165:38 *834:DIODE 0
38 *165:40 *834:DIODE 0
39 *165:97 *627:83 0.000180862
*RES
1 *11902:X *165:14 16.1752
2 *165:14 *165:16 52.0625
3 *165:16 *165:24 2.0571
4 *165:24 *165:26 1.125
5 *165:26 *165:32 4.61
6 *165:32 *165:36 4.145
7 *165:36 *165:38 2.145
8 *165:38 *165:40 3.42
9 *165:40 *165:42 0.87
10 *165:42 *165:44 2.145
11 *165:44 *644:DIODE 5.745
12 *165:44 *643:DIODE 3.6
13 *165:42 *642:DIODE 3.6
14 *165:40 *1119:DIODE 3.6
15 *165:38 *1117:DIODE 3.6
16 *165:36 *1115:DIODE 3.6
17 *165:32 *1113:DIODE 1.6
18 *165:26 *165:97 4.865
19 *165:97 *11903:A0 1.6
20 *165:97 *1118:DIODE 3.43
21 *165:24 *165:111 2
22 *165:111 *1114:DIODE 1.6
23 *165:111 *1116:DIODE 2.395
*END

*D_NET *166 0.0220943
*CONN
*I *11904:B2 I *D sky130_fd_sc_hd__o221a_2
*I *11903:X O *D sky130_fd_sc_hd__mux2_2
*CAP
1 *11904:B2 3.61338e-05
2 *11903:X 0.000912309
3 *166:14 0.00602028
4 *166:12 0.00689645
5 *11904:B2 *632:221 1.42171e-05
6 *166:12 *627:83 0.000450545
7 *166:14 *669:DIODE 0.000163199
8 *166:14 *11907:A2 5.07419e-05
9 *166:14 *11907:B1 0.000321988
10 *166:14 *11910:A1 0.000207861
11 *166:14 *11910:B2 2.32597e-05
12 *166:14 *11910:C1 0.000981616
13 *166:14 *11919:B1 6.03947e-06
14 *166:14 *11919:B2 4.8854e-05
15 *166:14 *176:22 0.000148207
16 *166:14 *507:14 0.000518666
17 *166:14 *610:20 2.20732e-05
18 *166:14 *612:24 0.000719281
19 *166:14 *612:26 0.00380404
20 *166:14 *615:14 0.000110481
21 *166:14 *630:152 6.1357e-05
22 *166:14 *634:148 1.03423e-05
23 *1108:DIODE *166:14 4.66108e-05
24 *1116:DIODE *166:12 8.52883e-05
25 *11919:A2 *166:14 2.24368e-05
26 *11919:C1 *166:14 0.000412047
*RES
1 *11903:X *166:12 19.895
2 *166:12 *166:14 81.18
3 *166:14 *11904:B2 2.215
*END

*D_NET *167 0.0575082
*CONN
*I *11906:A0 I *D sky130_fd_sc_hd__mux2_2
*I *11905:X O *D sky130_fd_sc_hd__mux2_4
*CAP
1 *11906:A0 0.000371213
2 *11905:X 0.000652073
3 *167:16 0.00603855
4 *167:14 0.00566733
5 *167:12 0.0031202
6 *167:10 0.00377228
7 *11906:A0 *11906:A1 4.66108e-05
8 *11906:A0 *627:98 0.000266541
9 *167:10 *11905:A1 0
10 *167:12 *169:12 0.00744522
11 *167:12 *283:25 0.000226891
12 *167:16 *12134:TM 6.91641e-05
13 *167:16 *175:10 0.00147408
14 *167:16 *237:11 0.00333412
15 *167:16 *354:10 0.00751478
16 *167:16 *432:14 0
17 *167:16 *518:24 0.0175092
*RES
1 *11905:X *167:10 15.65
2 *167:10 *167:12 78.765
3 *167:12 *167:14 2
4 *167:14 *167:16 234.45
5 *167:16 *11906:A0 9.57
*END

*D_NET *168 0.0379924
*CONN
*I *11907:B2 I *D sky130_fd_sc_hd__o221a_2
*I *11906:X O *D sky130_fd_sc_hd__mux2_2
*CAP
1 *11907:B2 0.000923284
2 *11906:X 3.98087e-05
3 *168:22 0.00341758
4 *168:20 0.00394153
5 *168:16 0.00190155
6 *168:10 0.00177622
7 *168:8 0.00136172
8 *11907:B2 *11907:A1 5.17259e-05
9 *11907:B2 *11907:A2 1.88602e-05
10 *11907:B2 *12181:A 0.000151242
11 *11907:B2 *12231:A 0
12 *11907:B2 *205:37 0.00034805
13 *11907:B2 *233:27 0
14 *11907:B2 *611:26 0
15 *168:8 *627:98 2.49909e-05
16 *168:10 *835:DIODE 7.06865e-05
17 *168:10 *567:24 0.00518185
18 *168:10 *569:22 0.0028751
19 *168:16 *12134:vpwrpc 2.20014e-05
20 *168:16 *12134:vpwrac 1.14169e-05
21 *168:16 *569:20 0.000153054
22 *168:20 *12134:vpwrac 1.05984e-05
23 *168:20 *174:14 0.00474263
24 *168:20 *227:27 0.00178872
25 *168:20 *568:22 0.000270436
26 *168:20 *569:20 0.000308594
27 *168:22 *174:14 0.00216209
28 *168:22 *210:17 0.002857
29 *168:22 *227:27 0.00307574
30 *168:22 *228:25 0.000204566
31 *11894:A0 *11907:B2 0.000104672
32 *114:39 *11907:B2 0
33 *159:55 *11907:B2 0.000107777
34 *159:57 *11907:B2 7.0118e-05
35 *159:59 *11907:B2 1.88081e-05
*RES
1 *11906:X *168:8 4.05
2 *168:8 *168:10 59.265
3 *168:10 *168:16 8.585
4 *168:16 *168:20 43.7625
5 *168:20 *168:22 64.7925
6 *168:22 *11907:B2 22.535
*END

*D_NET *169 0.0528242
*CONN
*I *11909:A0 I *D sky130_fd_sc_hd__mux2_2
*I *11908:X O *D sky130_fd_sc_hd__mux2_4
*CAP
1 *11909:A0 0
2 *11908:X 0.000628004
3 *169:16 0.00932397
4 *169:14 0.00932397
5 *169:12 0.00182642
6 *169:10 0.00245443
7 *169:12 *171:12 0.00667923
8 *169:12 *173:12 1.91597e-05
9 *169:12 *312:25 0.00121666
10 *169:12 *449:62 0
11 *169:16 *836:DIODE 7.20318e-05
12 *169:16 *238:11 0.0138351
13 *167:12 *169:12 0.00744522
*RES
1 *11908:X *169:10 15.395
2 *169:10 *169:12 77.04
3 *169:12 *169:14 2
4 *169:14 *169:16 202.575
5 *169:16 *11909:A0 3.6
*END

*D_NET *170 0.0381952
*CONN
*I *11910:B2 I *D sky130_fd_sc_hd__o221a_2
*I *11909:X O *D sky130_fd_sc_hd__mux2_2
*CAP
1 *11910:B2 0.000879479
2 *11909:X 0
3 *170:12 0.00659356
4 *170:10 0.00571408
5 *170:8 0.00597715
6 *170:6 0.00597715
7 *11910:B2 *11910:A1 7.60965e-05
8 *11910:B2 *234:27 5.04273e-05
9 *11910:B2 *234:37 0
10 *11910:B2 *234:39 0
11 *11910:B2 *610:20 0.00043044
12 *11910:B2 *612:24 0.000239807
13 *170:8 *573:10 0
14 *170:8 *573:12 0
15 *170:8 *627:109 0
16 *170:8 *627:120 0
17 *170:12 *172:14 0.0100647
18 *170:12 *209:17 0.000425474
19 *170:12 *233:27 0.00174349
20 *161:38 *11910:B2 0
21 *161:42 *11910:B2 0
22 *161:44 *11910:B2 0
23 *166:14 *11910:B2 2.32597e-05
*RES
1 *11909:X *170:6 3.6
2 *170:6 *170:8 97.77
3 *170:8 *170:10 2
4 *170:10 *170:12 107.055
5 *170:12 *11910:B2 21.59
*END

*D_NET *171 0.0588454
*CONN
*I *11912:A0 I *D sky130_fd_sc_hd__mux2_2
*I *11911:X O *D sky130_fd_sc_hd__mux2_4
*CAP
1 *11912:A0 0.00033873
2 *11911:X 0.000617482
3 *171:16 0.00346352
4 *171:14 0.00312478
5 *171:12 0.00104581
6 *171:10 0.00166329
7 *11912:A0 *11912:A1 0.00022786
8 *11912:A0 *172:8 0.000116676
9 *171:10 *901:DIODE 0
10 *171:10 *1000:DIODE 0
11 *171:10 *1010:DIODE 0
12 *171:10 *12087:A 0
13 *171:12 *173:12 0.00591789
14 *171:12 *312:25 0.00114299
15 *171:16 *845:DIODE 8.87553e-05
16 *171:16 *173:16 0.0170002
17 *171:16 *175:10 0.000671462
18 *171:16 *242:11 0.0165368
19 *171:16 *462:12 0.000146751
20 *171:16 *541:16 6.31066e-05
21 *171:16 *572:8 0
22 *169:12 *171:12 0.00667923
*RES
1 *11911:X *171:10 15.14
2 *171:10 *171:12 60.825
3 *171:12 *171:14 2
4 *171:14 *171:16 198.24
5 *171:16 *11912:A0 9.225
*END

*D_NET *172 0.0356877
*CONN
*I *11913:B2 I *D sky130_fd_sc_hd__o221a_2
*I *11912:X O *D sky130_fd_sc_hd__mux2_2
*CAP
1 *11913:B2 0.000424013
2 *11912:X 0.00035276
3 *172:14 0.00372038
4 *172:12 0.00329637
5 *172:10 0.00229793
6 *172:8 0.00265069
7 *11913:B2 *182:63 0.000156697
8 *11913:B2 *207:23 0.000464429
9 *11913:B2 *463:16 0.00021634
10 *172:10 *176:18 0.000154832
11 *172:10 *242:11 0.000990058
12 *172:10 *529:20 0
13 *172:10 *541:16 0.0052359
14 *172:10 *627:94 0.0033788
15 *172:14 *209:17 0.000348904
16 *172:14 *233:27 0.00174349
17 *11912:A0 *172:8 0.000116676
18 *11913:C1 *11913:B2 2.68966e-05
19 *114:39 *11913:B2 4.78222e-05
20 *170:12 *172:14 0.0100647
*RES
1 *11912:X *172:8 7.845
2 *172:8 *172:10 101.595
3 *172:10 *172:12 2
4 *172:12 *172:14 91.53
5 *172:14 *11913:B2 15.65
*END

*D_NET *173 0.0507947
*CONN
*I *11915:A0 I *D sky130_fd_sc_hd__mux2_2
*I *11914:X O *D sky130_fd_sc_hd__mux2_4
*CAP
1 *11915:A0 0.000141257
2 *11914:X 0.000593669
3 *173:16 0.00349992
4 *173:14 0.00335866
5 *173:12 0.00200889
6 *173:10 0.00260256
7 *11915:A0 *11915:A1 0.0003708
8 *11915:A0 *627:148 0.000222989
9 *173:10 *903:DIODE 0
10 *173:10 *1010:DIODE 0
11 *173:10 *12098:A 0
12 *173:12 *449:62 0
13 *173:16 *845:DIODE 3.09233e-05
14 *173:16 *175:10 7.21296e-06
15 *173:16 *241:11 0.0150205
16 *173:16 *443:16 0
17 *169:12 *173:12 1.91597e-05
18 *171:12 *173:12 0.00591789
19 *171:16 *173:16 0.0170002
*RES
1 *11914:X *173:10 14.885
2 *173:10 *173:12 54.27
3 *173:12 *173:14 2
4 *173:14 *173:16 190.335
5 *173:16 *11915:A0 7.5
*END

*D_NET *174 0.0401289
*CONN
*I *11916:B2 I *D sky130_fd_sc_hd__o221a_2
*I *11915:X O *D sky130_fd_sc_hd__mux2_2
*CAP
1 *11916:B2 0.00125996
2 *11915:X 0.000385568
3 *174:14 0.0025202
4 *174:12 0.00126024
5 *174:10 0.00231432
6 *174:8 0.00269989
7 *11916:B2 *11919:B1 1.08361e-05
8 *11916:B2 *608:12 2.12656e-05
9 *11916:B2 *613:14 0.000231842
10 *11916:B2 *627:76 0.000365327
11 *174:8 *845:DIODE 3.1807e-05
12 *174:8 *12122:A 0
13 *174:8 *627:148 0.000335424
14 *174:10 *353:10 0.00895221
15 *174:10 *552:16 0.00499974
16 *174:14 *12134:vpwrac 0.000149328
17 *174:14 *227:27 0.000981656
18 *174:14 *228:23 0.00448023
19 *174:14 *228:25 0.00216209
20 *11916:A2 *11916:B2 3.2038e-05
21 *11916:C1 *11916:B2 1.25822e-05
22 *163:28 *11916:B2 1.7635e-05
23 *164:24 *11916:B2 0
24 *168:20 *174:14 0.00474263
25 *168:22 *174:14 0.00216209
*RES
1 *11915:X *174:8 9.57
2 *174:8 *174:10 104.4
3 *174:10 *174:12 2
4 *174:12 *174:14 76.005
5 *174:14 *11916:B2 25.1675
*END

*D_NET *175 0.0524885
*CONN
*I *11918:A0 I *D sky130_fd_sc_hd__mux2_2
*I *11917:X O *D sky130_fd_sc_hd__mux2_4
*CAP
1 *11918:A0 0.000896673
2 *11917:X 0.00177579
3 *175:10 0.00476372
4 *175:8 0.00564284
5 *11918:A0 *11918:A1 4.66742e-05
6 *11918:A0 *237:33 0.000727533
7 *11918:A0 *567:24 0.00107783
8 *11918:A0 *569:22 0.000329052
9 *175:8 *287:30 0.000404969
10 *175:8 *432:12 0.0041122
11 *175:10 *242:11 0.0169919
12 *175:10 *426:52 9.05377e-05
13 *175:10 *443:16 0
14 *175:10 *449:64 0
15 *175:10 *518:24 0.00160255
16 *175:10 *529:20 0.0118735
17 *167:16 *175:10 0.00147408
18 *171:16 *175:10 0.000671462
19 *173:16 *175:10 7.21296e-06
*RES
1 *11917:X *175:8 44.07
2 *175:8 *175:10 210.99
3 *175:10 *11918:A0 31.76
*END

*D_NET *176 0.0407453
*CONN
*I *11919:B2 I *D sky130_fd_sc_hd__o221a_2
*I *11918:X O *D sky130_fd_sc_hd__mux2_2
*CAP
1 *11919:B2 4.03353e-05
2 *11918:X 0.000658754
3 *176:22 0.00150487
4 *176:20 0.00146453
5 *176:18 0.0015687
6 *176:16 0.00222746
7 *11919:B2 *612:24 1.53053e-05
8 *176:16 *11918:A1 2.01259e-05
9 *176:16 *237:33 0.00126091
10 *176:16 *567:24 0.00126258
11 *176:18 *529:20 0.00731499
12 *176:18 *541:16 0
13 *176:18 *572:8 0
14 *176:18 *627:94 0.00601685
15 *176:22 *12243:A 0.000541194
16 *176:22 *507:14 0.00033166
17 *176:22 *610:26 1.60203e-05
18 *176:22 *612:24 8.35068e-05
19 *176:22 *615:14 0.00820265
20 *176:22 *616:6 0.00781517
21 *11919:A2 *11919:B2 4.77757e-05
22 *166:14 *11919:B2 4.8854e-05
23 *166:14 *176:22 0.000148207
24 *172:10 *176:18 0.000154832
*RES
1 *11918:X *176:16 27.025
2 *176:16 *176:18 82.215
3 *176:18 *176:20 2
4 *176:20 *176:22 81.18
5 *176:22 *11919:B2 2.755
*END

*D_NET *177 0.0555774
*CONN
*I *11923:A I *D sky130_fd_sc_hd__clkbuf_16
*I *11922:A I *D sky130_fd_sc_hd__clkbuf_16
*I *11921:X O *D sky130_fd_sc_hd__clkbuf_16
*CAP
1 *11923:A 0.0010929
2 *11922:A 0.00042373
3 *11921:X 0.000237294
4 *177:22 0.00363805
5 *177:20 0.00321432
6 *177:18 0.00110966
7 *177:16 0.00179996
8 *177:8 0.0020205
9 *11923:A *11893:A1 0
10 *11923:A *297:36 0
11 *177:8 *269:28 0.00023744
12 *177:8 *269:32 0.000113282
13 *177:16 *982:DIODE 8.35068e-05
14 *177:16 *984:DIODE 0.00015817
15 *177:16 *11884:A0 8.52883e-05
16 *177:16 *11884:A1 2.20014e-05
17 *177:16 *11884:S 2.75229e-05
18 *177:16 *11887:A1 2.30292e-05
19 *177:16 *11887:S 9.53428e-06
20 *177:16 *269:28 0.00377899
21 *177:16 *637:64 2.75229e-05
22 *177:16 *637:85 0.000933933
23 *177:18 *269:18 0.00654981
24 *177:18 *269:28 0.000407159
25 *177:18 *287:30 0.000649239
26 *177:18 *637:31 0.000184054
27 *177:22 *185:18 0.00734643
28 *177:22 *202:15 0.00227721
29 *177:22 *210:13 0.00998884
30 *177:22 *330:8 0.000265592
31 *177:22 *637:27 0
32 *3:25 *177:16 1.53053e-05
33 *3:25 *177:18 0.00679239
34 *3:41 *177:16 0.00182711
35 *157:14 *177:16 0.000160538
36 *159:14 *11923:A 7.71236e-05
*RES
1 *11921:X *177:8 6.805
2 *177:8 *177:16 36.12
3 *177:16 *177:18 66.345
4 *177:18 *177:20 2
5 *177:20 *177:22 136.275
6 *177:22 *11922:A 8.88
7 *177:8 *11923:A 22.22
*END

*D_NET *178 0.0694116
*CONN
*I *12134:CLKin I *D CF_SRAM_1024x32
*I *12124:CLKin I *D CF_SRAM_1024x32
*I *11920:CLK I *D sky130_fd_sc_hd__dfrtp_4
*I *11922:X O *D sky130_fd_sc_hd__clkbuf_16
*CAP
1 *12134:CLKin 0.0143991
2 *12124:CLKin 0.00171135
3 *11920:CLK 0
4 *11922:X 0
5 *178:56 6.9367e-06
6 *178:36 6.9367e-06
7 *178:29 0.0162296
8 *178:18 0.00336605
9 *178:16 0.00408756
10 *178:4 0.000854561
11 *12124:CLKin *12124:BEN[17] 9.2741e-05
12 *12124:CLKin *12124:DI[17] 0
13 *12124:CLKin *369:10 0.000296755
14 *12134:CLKin *12134:BEN[17] 4.51961e-05
15 *12134:CLKin *227:19 0.000174699
16 *12134:CLKin *228:11 3.97748e-05
17 *12134:CLKin *387:12 3.06021e-05
18 *12134:CLKin *393:14 3.78941e-05
19 *12134:CLKin *426:16 1.74963e-05
20 *12134:CLKin *426:36 0.00589994
21 *12134:CLKin *547:64 3.97748e-05
22 *178:16 *371:24 0.00175645
23 *178:16 *371:26 0.000104956
24 *178:16 *387:12 0.000101574
25 *178:16 *417:96 5.83121e-06
26 *178:16 *513:10 0.000150292
27 *178:16 *515:22 0.00156225
28 *178:18 *11874:C1 9.09788e-06
29 *178:18 *12124:AD[9] 0.000162345
30 *178:18 *360:32 0.0023027
31 *178:18 *369:22 0
32 *178:18 *369:26 0.00304134
33 *178:18 *369:30 0.000375689
34 *178:18 *371:26 0.00749452
35 *178:18 *371:36 0.000926551
36 *178:18 *387:28 0.00187301
37 *178:18 *513:10 0.000176543
38 *178:18 *594:12 0.000294266
39 *178:29 *387:12 0.000407534
40 *178:29 *393:14 0.000407534
41 *126:8 *178:18 0.00078949
42 *146:10 *178:18 0.000132542
*RES
1 *11922:X *178:4 1.6
2 *178:4 *178:16 27.0725
3 *178:16 *178:18 120.592
4 *178:18 *11920:CLK 3.6
5 *178:4 *178:29 6.95
6 *178:29 *12124:CLKin 21.425
7 *12124:CLKin *178:36 0.12
8 *178:29 *12134:CLKin 46.8673
9 *12134:CLKin *178:56 0.12
*END

*D_NET *179 0.0626298
*CONN
*I *11924:A I *D sky130_fd_sc_hd__clkbuf_4
*I *12154:CLKin I *D CF_SRAM_1024x32
*I *12144:CLKin I *D CF_SRAM_1024x32
*I *11923:X O *D sky130_fd_sc_hd__clkbuf_16
*CAP
1 *11924:A 0.000319623
2 *12154:CLKin 0.00954651
3 *12144:CLKin 0.0080176
4 *11923:X 1.65976e-05
5 *179:18 0.0287256
6 *179:8 0.0114977
7 *11924:A *266:19 0
8 *11924:A *268:15 0.000504257
9 *11924:A *296:27 0.000116624
10 *12144:CLKin *12144:BEN[17] 4.03363e-05
11 *12144:CLKin *12144:DI[17] 0
12 *12144:CLKin *426:78 0.00328343
13 *12154:CLKin *12154:BEN[17] 1.43409e-05
14 *12154:CLKin *426:78 0.000412332
15 *12154:CLKin *480:58 3.97748e-05
16 *12154:CLKin *639:174 3.97748e-05
17 *179:18 *285:25 3.99991e-05
18 *179:18 *289:25 1.52249e-05
*RES
1 *11923:X *179:8 3.8325
2 *179:8 *179:18 32.2686
3 *179:18 *12144:CLKin 26.3521
4 *179:18 *12154:CLKin 26.6435
5 *179:8 *11924:A 9.6975
*END

*D_NET *180 0.0274777
*CONN
*I *11818:C I *D sky130_fd_sc_hd__and3_4
*I *11820:B I *D sky130_fd_sc_hd__and3b_1
*I *11920:D I *D sky130_fd_sc_hd__dfrtp_4
*I *11817:Y O *D sky130_fd_sc_hd__inv_2
*CAP
1 *11818:C 0.000631531
2 *11820:B 0.000332768
3 *11920:D 0
4 *11817:Y 0.000255232
5 *180:36 0.00199539
6 *180:25 0.00295721
7 *180:14 0.00151581
8 *11818:C *11818:A 0.0012025
9 *11818:C *11818:B 0.000589512
10 *11818:C *12036:A 0.000266322
11 *11818:C *185:8 0.000153816
12 *11818:C *578:10 0.000107727
13 *11820:B *11820:A_N 0.000143827
14 *11820:B *564:49 7.66388e-05
15 *180:14 *11874:A1 4.36694e-06
16 *180:14 *12124:EN 6.3124e-06
17 *180:14 *319:22 0.000411108
18 *180:25 *11874:A1 5.06945e-05
19 *180:25 *11874:A2 0.00018955
20 *180:25 *11874:C1 1.19928e-05
21 *180:25 *12036:A 0.000247831
22 *180:25 *221:40 0.000655598
23 *180:25 *223:31 1.97849e-05
24 *180:25 *564:25 0.00081791
25 *180:25 *578:10 0.000146753
26 *180:25 *625:26 0.000492713
27 *180:36 *12036:A 0.000236176
28 *180:36 *220:51 1.7902e-05
29 *180:36 *221:40 0.0011608
30 *180:36 *246:39 0.00114665
31 *180:36 *554:57 0.00468152
32 *180:36 *564:51 6.01281e-05
33 *180:36 *625:26 0.00077832
34 *180:36 *625:174 0.000702523
35 *180:36 *625:209 0.000179922
36 *11824:A0 *180:36 0.00234642
37 *11874:B2 *180:25 1.91597e-05
38 *120:18 *180:14 0.000412339
39 *145:10 *11818:C 0.00121306
40 *148:12 *180:25 0.00123986
*RES
1 *11817:Y *180:14 11.8625
2 *180:14 *11920:D 1.6
3 *180:14 *180:25 30.8225
4 *180:25 *11820:B 7.5
5 *180:25 *180:36 64.11
6 *180:36 *11818:C 29.365
*END

*D_NET *181 0.193357
*CONN
*I *12134:R_WB I *D CF_SRAM_1024x32
*I *12154:R_WB I *D CF_SRAM_1024x32
*I *12144:R_WB I *D CF_SRAM_1024x32
*I *12124:R_WB I *D CF_SRAM_1024x32
*I *11814:Y O *D sky130_fd_sc_hd__inv_16
*CAP
1 *12134:R_WB 0.00806761
2 *12154:R_WB 0.0101448
3 *12144:R_WB 0.00173438
4 *12124:R_WB 0.000713301
5 *11814:Y 0.00272403
6 *181:53 0.0118792
7 *181:51 0.0241157
8 *181:49 0.0241157
9 *181:47 0.0094313
10 *181:18 0.00480102
11 *12124:R_WB *12124:AD[0] 0.000557958
12 *12124:R_WB *12124:AD[1] 3.16092e-05
13 *12124:R_WB *12124:WLOFF 0
14 *12124:R_WB *184:8 1.93765e-05
15 *12134:R_WB *12134:AD[0] 0.026739
16 *12134:R_WB *12134:WLOFF 0
17 *12134:R_WB *226:20 0.00574118
18 *12134:R_WB *228:11 4.56611e-05
19 *12134:R_WB *231:13 4.56611e-05
20 *12144:R_WB *12144:AD[0] 0.000254276
21 *12144:R_WB *12144:WLOFF 0
22 *12144:R_WB *12154:AD[0] 0.000577276
23 *12154:R_WB *12154:AD[0] 0.0268501
24 *12154:R_WB *12154:WLOFF 0
25 *12154:R_WB *12154:EN 0.001341
26 *12154:R_WB *432:54 5.05716e-06
27 *12154:R_WB *480:58 1.79536e-05
28 *181:18 *12094:A 0.00379652
29 *181:18 *12124:DI[10] 5.60685e-05
30 *181:18 *184:8 0.00024107
31 *181:18 *196:19 0.00173498
32 *181:18 *203:11 1.88602e-05
33 *181:18 *224:25 0.000781842
34 *181:18 *400:20 0.000769753
35 *181:18 *577:28 0.00916599
36 *181:47 *12124:AD[1] 0
37 *181:47 *12134:AD[0] 0.00105862
38 *181:47 *438:38 4.12356e-05
39 *181:47 *511:20 1.77261e-05
40 *181:47 *524:20 4.3428e-05
41 *181:51 *12036:A 0.00073633
42 *181:51 *12050:A 0.000151862
43 *181:51 *12058:A 0.000214757
44 *181:51 *12074:A 0.0025031
45 *181:51 *185:10 0.000524082
46 *181:51 *289:27 0.000673406
47 *181:51 *291:19 0.000773226
48 *181:51 *293:19 0.00236736
49 *181:51 *308:19 0.00246673
50 *181:51 *309:19 0.00187429
51 *181:51 *310:19 0.00204816
52 *181:51 *362:80 0
53 *181:51 *513:54 0
54 *181:51 *515:64 0
55 *181:51 *578:10 0.000200844
56 *129:10 *12124:R_WB 1.79483e-05
57 *145:10 *181:51 0.000142915
58 *149:10 *181:51 0.000982307
*RES
1 *11814:Y *181:18 22.3223
2 *181:18 *12124:R_WB 12.7977
3 *181:18 *181:47 2.9336
4 *181:47 *181:49 0.5
5 *181:49 *181:51 55.7663
6 *181:51 *181:53 0.5
7 *181:53 *12144:R_WB 25.931
8 *181:53 *12154:R_WB 44.8524
9 *181:47 *12134:R_WB 43.9709
*END

*D_NET *182 0.0521027
*CONN
*I *11919:B1 I *D sky130_fd_sc_hd__o221a_2
*I *11916:B1 I *D sky130_fd_sc_hd__o221a_2
*I *11913:B1 I *D sky130_fd_sc_hd__o221a_2
*I *11910:B1 I *D sky130_fd_sc_hd__o221a_2
*I *11931:A I *D sky130_fd_sc_hd__buf_8
*I *11822:Y O *D sky130_fd_sc_hd__nor2_4
*CAP
1 *11919:B1 0.000470338
2 *11916:B1 0
3 *11913:B1 0
4 *11910:B1 0.000128415
5 *11931:A 0.000481284
6 *11822:Y 0
7 *182:63 0.00079409
8 *182:42 0.000580006
9 *182:23 0.000883165
10 *182:19 0.0031257
11 *182:4 0.00310848
12 *11910:B1 *668:DIODE 5.53249e-06
13 *11910:B1 *11910:A1 1.12643e-05
14 *11910:B1 *206:47 0
15 *11910:B1 *610:20 7.25921e-06
16 *11919:B1 *12235:A 1.79536e-05
17 *11919:B1 *210:21 0.000327265
18 *11919:B1 *507:14 0.000123864
19 *11919:B1 *608:12 2.04625e-07
20 *11919:B1 *611:26 7.06865e-05
21 *11931:A *205:31 4.85381e-05
22 *11931:A *206:39 0.000818913
23 *11931:A *575:24 0
24 *11931:A *589:14 0.000167515
25 *182:19 *204:31 0.0011274
26 *182:19 *205:31 0.00110155
27 *182:19 *206:39 0.0169883
28 *182:19 *209:17 0.0150909
29 *182:19 *230:25 0.000488543
30 *182:19 *233:27 0.000152088
31 *182:19 *441:14 0.00094027
32 *182:23 *206:47 0
33 *182:23 *382:18 0
34 *182:42 *485:14 0.00013827
35 *182:42 *611:26 0.000590823
36 *182:63 *669:DIODE 2.0851e-06
37 *182:63 *207:23 3.61388e-06
38 *182:63 *608:12 0.000694765
39 *182:63 *611:26 3.74096e-06
40 *1091:DIODE *182:42 0.000123225
41 *11822:A *182:19 0.000153816
42 *11850:B2 *11931:A 0.000579521
43 *11856:B2 *11931:A 0.000761656
44 *11862:B2 *11931:A 3.48309e-05
45 *11910:A2 *11910:B1 6.02202e-05
46 *11913:B2 *182:63 0.000156697
47 *11913:C1 *182:63 9.36208e-05
48 *11916:A2 *182:63 9.72742e-06
49 *11916:B2 *11919:B1 1.08361e-05
50 *11916:C1 *182:63 6.93983e-05
51 *11919:A2 *11919:B1 3.11226e-05
52 *111:20 *11910:B1 2.98594e-05
53 *111:20 *182:23 0.000346804
54 *111:37 *182:42 5.62402e-05
55 *111:37 *182:63 1.02573e-05
56 *111:46 *182:42 7.79767e-06
57 *114:52 *182:63 0.00017922
58 *128:22 *11931:A 8.75854e-05
59 *161:24 *182:23 3.01119e-05
60 *161:28 *182:23 0.000166346
61 *164:30 *182:42 0.000604983
62 *166:14 *11919:B1 6.03947e-06
*RES
1 *11822:Y *182:4 1.6
2 *182:4 *11931:A 21.305
3 *182:4 *182:19 157.08
4 *182:19 *182:23 12.05
5 *182:23 *11910:B1 5.85375
6 *182:23 *182:42 12.9275
7 *182:42 *11913:B1 1.6
8 *182:42 *182:63 13.5025
9 *182:63 *11916:B1 1.6
10 *182:63 *11919:B1 11.6114
*END

*D_NET *183 0.0039489
*CONN
*I *11927:A I *D sky130_fd_sc_hd__clkbuf_16
*I *11820:X O *D sky130_fd_sc_hd__and3b_1
*CAP
1 *11927:A 0.000524745
2 *11820:X 0.000524745
3 *11927:A *839:DIODE 0.000138257
4 *11927:A *11820:A_N 3.74359e-05
5 *11927:A *11820:C 1.16578e-05
6 *11927:A *12074:A 0.000135795
7 *11927:A *220:51 2.05661e-05
8 *11927:A *221:40 0.000101145
9 *11927:A *418:16 0.00136587
10 *11927:A *554:14 8.40213e-05
11 *11927:A *564:49 3.64998e-06
12 *11927:A *574:16 0.000650923
13 *11927:A *625:26 0.000115187
14 *11927:A *625:109 0.000234899
*RES
1 *11820:X *11927:A 24.945
*END

*D_NET *184 0.0455605
*CONN
*I *11936:A I *D sky130_fd_sc_hd__buf_8
*I *11819:X O *D sky130_fd_sc_hd__and4b_2
*CAP
1 *11936:A 9.30842e-05
2 *11819:X 0
3 *184:8 0.00520682
4 *184:6 0.00511373
5 *11936:A *278:23 0.00029854
6 *11936:A *637:25 0.000153816
7 *184:8 *711:DIODE 9.5433e-05
8 *184:8 *11865:B1 0.00118171
9 *184:8 *11994:A 0.00146942
10 *184:8 *12094:A 0.00143418
11 *184:8 *12124:AD[1] 1.88904e-05
12 *184:8 *12124:DI[10] 9.82856e-06
13 *184:8 *196:17 0.00221409
14 *184:8 *203:11 0.000886959
15 *184:8 *369:76 0.000562683
16 *184:8 *576:22 0.000168539
17 *184:8 *596:24 0.017369
18 *184:8 *607:16 0.000601069
19 *11843:A0 *184:8 0.00206209
20 *11861:A0 *184:8 0.0025397
21 *12124:R_WB *184:8 1.93765e-05
22 *125:8 *11936:A 7.66388e-05
23 *129:10 *184:8 0.00374382
24 *181:18 *184:8 0.00024107
*RES
1 *11819:X *184:6 3.6
2 *184:6 *184:8 217.875
3 *184:8 *11936:A 6.465
*END

*D_NET *185 0.0532688
*CONN
*I *645:DIODE I *D sky130_fd_sc_hd__diode_2
*I *12023:A I *D sky130_fd_sc_hd__dlygate4sd3_1
*I *11818:X O *D sky130_fd_sc_hd__and3_4
*CAP
1 *645:DIODE 0.0001679
2 *12023:A 2.09808e-05
3 *11818:X 0.000100065
4 *185:22 0.00589819
5 *185:20 0.00570931
6 *185:18 0.00326591
7 *185:16 0.00343455
8 *185:10 0.00239333
9 *185:8 0.00232475
10 *645:DIODE *637:122 0.000176442
11 *185:8 *11818:B 2.16917e-05
12 *185:10 *11960:A 0.000317993
13 *185:10 *12036:A 0.000124269
14 *185:10 *12045:A 0.000470971
15 *185:10 *12050:A 0.000781722
16 *185:10 *12058:A 1.79483e-05
17 *185:10 *509:34 0.000721769
18 *185:10 *509:42 0.000405669
19 *185:10 *550:18 0.000144655
20 *185:10 *578:10 0.00181182
21 *185:16 *11978:A 0
22 *185:16 *201:9 0.000267949
23 *185:18 *202:15 0.000687507
24 *185:18 *269:14 7.3916e-05
25 *185:18 *365:74 0
26 *185:22 *986:DIODE 3.39426e-05
27 *185:22 *987:DIODE 4.78678e-05
28 *185:22 *989:DIODE 9.91257e-05
29 *185:22 *11890:A0 4.46754e-05
30 *185:22 *265:35 0.00269847
31 *185:22 *286:15 0.00321182
32 *185:22 *637:85 4.43682e-05
33 *185:22 *637:96 0.000208351
34 *185:22 *637:109 0.0011962
35 *185:22 *637:122 0.000151179
36 *11818:C *185:8 0.000153816
37 *131:16 *185:10 0
38 *145:10 *185:10 0.000122756
39 *149:10 *185:10 0.00804645
40 *149:16 *185:8 0
41 *177:22 *185:18 0.00734643
42 *181:51 *185:10 0.000524082
*RES
1 *11818:X *185:8 5.43
2 *185:8 *185:10 93.69
3 *185:10 *185:16 7.21
4 *185:16 *185:18 87.57
5 *185:18 *185:20 2
6 *185:20 *185:22 113.955
7 *185:22 *12023:A 1.96
8 *185:22 *645:DIODE 4.465
*END

*D_NET *186 0.0352386
*CONN
*I *11826:A1 I *D sky130_fd_sc_hd__o221a_1
*I *646:DIODE I *D sky130_fd_sc_hd__diode_2
*I *12124:DO[0] O *D CF_SRAM_1024x32
*CAP
1 *11826:A1 0
2 *646:DIODE 0.000129742
3 *12124:DO[0] 0.00788638
4 *186:29 0.00801612
5 *646:DIODE *12219:A 7.06865e-05
6 *186:29 *12124:ScanInCC 0
7 *186:29 *12124:DI[0] 4.65229e-05
8 *186:29 *187:30 2.52824e-05
9 *186:29 *189:34 0.0041105
10 *186:29 *193:16 1.79483e-05
11 *186:29 *208:29 0.0111024
12 *11826:B2 *646:DIODE 4.18603e-06
13 *11826:B2 *186:29 0.000333052
14 *11829:B2 *186:29 0.00284395
15 *113:18 *186:29 0.000281782
16 *132:18 *186:29 0.000119831
17 *133:16 *186:29 1.79483e-05
18 *135:34 *186:29 0.000208404
19 *139:42 *186:29 2.38557e-05
*RES
1 *12124:DO[0] *186:29 45.4225
2 *186:29 *646:DIODE 5.685
3 *186:29 *11826:A1 3.6
*END

*D_NET *187 0.0149925
*CONN
*I *11856:A1 I *D sky130_fd_sc_hd__o221a_2
*I *647:DIODE I *D sky130_fd_sc_hd__diode_2
*I *12124:DO[10] O *D CF_SRAM_1024x32
*CAP
1 *11856:A1 1.19736e-05
2 *647:DIODE 0.000250009
3 *12124:DO[10] 0.00357866
4 *187:30 0.00383373
5 *187:4 6.90636e-06
6 *647:DIODE *11856:B1 0.000130204
7 *647:DIODE *11868:B1 0
8 *647:DIODE *620:22 0.0001925
9 *647:DIODE *622:20 2.01565e-05
10 *647:DIODE *628:37 4.66474e-05
11 *11856:A1 *633:41 2.13633e-05
12 *187:30 *11856:B1 4.09813e-05
13 *187:30 *11868:A1 0.000728049
14 *187:30 *12124:BEN[10] 0
15 *187:30 *12124:DI[10] 7.22354e-05
16 *187:30 *189:34 6.58744e-05
17 *187:30 *212:27 0.000460636
18 *187:30 *217:27 0.0051352
19 *187:30 *351:26 1.79483e-05
20 *187:30 *557:219 0
21 *187:30 *584:16 0.000238569
22 *187:30 *628:37 7.9642e-06
23 *11829:B2 *187:30 4.53154e-05
24 *11856:B2 *187:30 4.43598e-05
25 *11868:B2 *187:30 0
26 *142:20 *187:30 1.79483e-05
27 *186:29 *187:30 2.52824e-05
*RES
1 *12124:DO[10] *187:4 0.1125
2 *12124:DO[10] *187:30 28.2394
3 *187:30 *647:DIODE 7.41
4 *187:30 *11856:A1 3.80625
*END

*D_NET *188 0.0116644
*CONN
*I *11859:A1 I *D sky130_fd_sc_hd__o221a_2
*I *648:DIODE I *D sky130_fd_sc_hd__diode_2
*I *12124:DO[11] O *D CF_SRAM_1024x32
*CAP
1 *11859:A1 0
2 *648:DIODE 0.000194236
3 *12124:DO[11] 0.00428556
4 *188:30 0.0044798
5 *188:4 0
6 *648:DIODE *11825:A 0
7 *648:DIODE *11930:A 0.000137894
8 *648:DIODE *588:36 8.53113e-06
9 *648:DIODE *592:10 4.76581e-05
10 *648:DIODE *620:22 0.000196381
11 *188:30 *11871:A1 0.000788226
12 *188:30 *11871:C1 7.39838e-05
13 *188:30 *11930:A 0.000255744
14 *188:30 *12124:EN 0.00108998
15 *188:30 *12124:BEN[10] 0
16 *188:30 *12124:BEN[11] 0
17 *188:30 *12124:DI[11] 7.05395e-05
18 *188:30 *195:23 0
19 *188:30 *351:26 1.79483e-05
20 *188:30 *557:219 0
21 *11859:B2 *648:DIODE 0
22 *142:20 *188:30 1.79483e-05
*RES
1 *12124:DO[11] *188:4 0.113077
2 *12124:DO[11] *188:30 19.4545
3 *188:30 *648:DIODE 7.065
4 *188:30 *11859:A1 3.6
*END

*D_NET *189 0.0133639
*CONN
*I *11862:A1 I *D sky130_fd_sc_hd__o221a_2
*I *649:DIODE I *D sky130_fd_sc_hd__diode_2
*I *12124:DO[12] O *D CF_SRAM_1024x32
*CAP
1 *11862:A1 0
2 *649:DIODE 0.000221451
3 *12124:DO[12] 0.00400966
4 *189:34 0.00423112
5 *189:4 0
6 *649:DIODE *11841:A2 0.000112154
7 *649:DIODE *12092:A 4.27025e-05
8 *189:34 *11841:A2 4.66108e-05
9 *189:34 *12124:BEN[11] 0
10 *189:34 *12124:DI[12] 7.05395e-05
11 *189:34 *208:29 2.3093e-05
12 *189:34 *351:26 1.79483e-05
13 *189:34 *557:191 0
14 *189:34 *571:12 0
15 *189:34 *623:12 0.00010491
16 *11841:B2 *649:DIODE 0.000134546
17 *122:36 *189:34 0
18 *132:18 *189:34 0.000154862
19 *142:20 *189:34 1.79483e-05
20 *186:29 *189:34 0.0041105
21 *187:30 *189:34 6.58744e-05
*RES
1 *12124:DO[12] *189:4 0.133636
2 *12124:DO[12] *189:34 30.1387
3 *189:34 *649:DIODE 9.065
4 *189:34 *11862:A1 1.6
*END

*D_NET *190 0.00205625
*CONN
*I *11865:A1 I *D sky130_fd_sc_hd__o221a_2
*I *12124:DO[13] O *D CF_SRAM_1024x32
*CAP
1 *11865:A1 0.000844189
2 *12124:DO[13] 0.000844189
3 *11865:A1 *11865:B1 1.12643e-05
4 *11865:A1 *11865:C1 0.00026102
5 *11865:A1 *12124:BEN[12] 0
6 *11865:A1 *12124:DI[13] 0
7 *11865:A1 *633:6 4.41506e-05
8 *11865:B2 *11865:A1 5.14396e-05
*RES
1 *12124:DO[13] *11865:A1 13.6525
*END

*D_NET *191 0.00812634
*CONN
*I *11868:A1 I *D sky130_fd_sc_hd__o221a_2
*I *12124:DO[14] O *D CF_SRAM_1024x32
*CAP
1 *11868:A1 0.00208917
2 *12124:DO[14] 0.00208917
3 *11868:A1 *11868:A2 0.000131124
4 *11868:A1 *11930:A 0
5 *11868:A1 *12124:EN 0
6 *11868:A1 *12124:BEN[15] 0
7 *11868:A1 *12124:DI[14] 2.30318e-05
8 *11868:A1 *12124:vpwrac 0.000419082
9 *11868:A1 *208:29 0.00012665
10 *11868:A1 *212:27 0.001745
11 *11868:A1 *557:161 5.83121e-06
12 *11829:B2 *11868:A1 0.000420285
13 *11868:B2 *11868:A1 0.000330996
14 *142:28 *11868:A1 1.79483e-05
15 *187:30 *11868:A1 0.000728049
*RES
1 *12124:DO[14] *11868:A1 27.8899
*END

*D_NET *192 0.00628442
*CONN
*I *11871:A1 I *D sky130_fd_sc_hd__o221a_2
*I *12124:DO[15] O *D CF_SRAM_1024x32
*CAP
1 *11871:A1 0.00226798
2 *12124:DO[15] 0.00226798
3 *11871:A1 *12124:BEN[14] 0
4 *11871:A1 *12124:vpwrac 0.000295859
5 *11871:A1 *206:37 2.38557e-05
6 *11871:A1 *632:10 6.28765e-05
7 *11829:B2 *11871:A1 0.000300363
8 *11871:B2 *11871:A1 0.000258425
9 *142:28 *11871:A1 1.88602e-05
10 *188:30 *11871:A1 0.000788226
*RES
1 *12124:DO[15] *11871:A1 25.5842
*END

*D_NET *193 0.0338536
*CONN
*I *11874:A1 I *D sky130_fd_sc_hd__o221a_2
*I *650:DIODE I *D sky130_fd_sc_hd__diode_2
*I *12124:DO[16] O *D CF_SRAM_1024x32
*CAP
1 *11874:A1 0.000260916
2 *650:DIODE 0.000315097
3 *12124:DO[16] 0.000676437
4 *193:34 0.00217133
5 *193:28 0.00250594
6 *193:18 0.0026531
7 *193:16 0.00241198
8 *193:4 6.9367e-06
9 *650:DIODE *319:22 0.000156293
10 *11874:A1 *11874:A2 1.19928e-05
11 *11874:A1 *11874:B1 4.62224e-05
12 *11874:A1 *11874:C1 0.000118081
13 *11874:A1 *12124:EN 0.00029854
14 *193:16 *12124:EN 3.82728e-05
15 *193:16 *12124:ScanInDR 0.000160635
16 *193:16 *12124:DI[16] 0
17 *193:16 *195:23 0.000449167
18 *193:18 *12124:BEN[0] 0.000100677
19 *193:18 *12124:BEN[1] 0.000470612
20 *193:18 *12124:BEN[2] 1.79536e-05
21 *193:18 *12124:BEN[3] 1.79536e-05
22 *193:18 *12124:BEN[4] 1.79536e-05
23 *193:18 *12124:BEN[6] 1.79536e-05
24 *193:18 *194:22 3.60738e-06
25 *193:18 *194:28 1.1071e-05
26 *193:18 *195:23 0.000325909
27 *193:18 *208:29 1.7635e-05
28 *193:18 *211:27 1.79483e-05
29 *193:18 *212:27 1.79536e-05
30 *193:18 *215:29 0.000103204
31 *193:18 *351:24 0.00179175
32 *193:18 *560:30 0.0002262
33 *193:18 *560:54 0.000109931
34 *193:28 *12124:BEN[7] 3.64998e-06
35 *193:28 *629:8 0.00264901
36 *193:34 *319:22 0.000499993
37 *193:34 *362:32 0.000230083
38 *193:34 *369:34 0.000522752
39 *11840:A0 *193:18 0.00157285
40 *11874:B2 *11874:A1 3.26964e-05
41 *123:18 *193:16 0.00240707
42 *123:18 *193:18 0.000431209
43 *126:8 *650:DIODE 0.000153587
44 *126:8 *193:34 0.00145239
45 *133:16 *193:16 0.000615447
46 *133:16 *193:18 0.00134831
47 *133:34 *193:18 0.00223482
48 *136:14 *193:28 0.00265042
49 *138:16 *193:28 5.74791e-05
50 *139:42 *193:16 0.00125036
51 *144:16 *193:28 0.000119242
52 *180:14 *11874:A1 4.36694e-06
53 *180:25 *11874:A1 5.06945e-05
54 *186:29 *193:16 1.79483e-05
*RES
1 *12124:DO[16] *193:4 0.12
2 *12124:DO[16] *193:16 31.1975
3 *193:16 *193:18 60.9225
4 *193:18 *193:28 41.55
5 *193:28 *193:34 30.935
6 *193:34 *650:DIODE 8.01
7 *193:34 *11874:A1 8.55
*END

*D_NET *194 0.0493979
*CONN
*I *11877:A1 I *D sky130_fd_sc_hd__o221a_2
*I *651:DIODE I *D sky130_fd_sc_hd__diode_2
*I *12124:DO[17] O *D CF_SRAM_1024x32
*CAP
1 *11877:A1 0.000232539
2 *651:DIODE 0.000154339
3 *12124:DO[17] 0.000158127
4 *194:50 0.00202907
5 *194:44 0.00238315
6 *194:30 0.00202856
7 *194:28 0.00137338
8 *194:22 0.0013415
9 *194:20 0.00140605
10 *194:4 7.80379e-06
11 *651:DIODE *632:107 0.000152634
12 *11877:A1 *11877:A2 3.25731e-05
13 *11877:A1 *11877:B1 6.18136e-05
14 *194:20 *12124:WLBI 0.00015806
15 *194:20 *12124:TM 4.41506e-05
16 *194:20 *12124:DI[17] 1.35779e-05
17 *194:20 *639:6 8.33308e-05
18 *194:20 *639:22 0.00015235
19 *194:22 *195:23 0.0011834
20 *194:22 *213:25 1.7635e-05
21 *194:22 *351:10 0.00492613
22 *194:22 *360:76 0.000778798
23 *194:28 *351:10 9.39388e-06
24 *194:28 *351:24 4.96965e-05
25 *194:30 *12124:BEN[5] 1.79483e-05
26 *194:30 *195:23 0.00132072
27 *194:30 *214:27 1.79536e-05
28 *194:30 *350:26 0.00697568
29 *194:30 *351:24 0.000362362
30 *194:30 *351:26 7.85697e-05
31 *194:44 *11819:D 7.85879e-05
32 *194:44 *196:39 1.46744e-05
33 *194:44 *204:21 0.000267891
34 *194:44 *557:136 1.04292e-05
35 *194:44 *576:14 0.000766102
36 *194:50 *196:39 0.00321971
37 *194:50 *198:15 0
38 *194:50 *199:27 0.000195957
39 *194:50 *625:61 0.00149329
40 *11859:B2 *194:44 2.25633e-05
41 *11877:B2 *11877:A1 1.44696e-05
42 *119:18 *194:22 0.000502582
43 *119:18 *194:28 1.08814e-05
44 *120:22 *194:44 0
45 *123:18 *194:20 0.000152829
46 *123:18 *194:22 0.00616798
47 *130:26 *194:30 0.00351868
48 *132:10 *194:44 0.0012516
49 *133:34 *194:22 0.000206954
50 *134:14 *194:44 0.00131788
51 *142:16 *194:30 0.00261885
52 *193:18 *194:22 3.60738e-06
53 *193:18 *194:28 1.1071e-05
*RES
1 *12124:DO[17] *194:4 0.135
2 *12124:DO[17] *194:20 10.17
3 *194:20 *194:22 74.055
4 *194:22 *194:28 1.77
5 *194:28 *194:30 78.39
6 *194:30 *194:44 29.745
7 *194:44 *194:50 39.62
8 *194:50 *651:DIODE 5.745
9 *194:50 *11877:A1 6.39
*END

*D_NET *195 0.0645796
*CONN
*I *11880:A1 I *D sky130_fd_sc_hd__o221a_2
*I *653:DIODE I *D sky130_fd_sc_hd__diode_2
*I *12124:DO[18] O *D CF_SRAM_1024x32
*CAP
1 *11880:A1 0.000298134
2 *653:DIODE 8.24005e-05
3 *12124:DO[18] 0.0128806
4 *195:23 0.0132611
5 *653:DIODE *11880:A2 0
6 *653:DIODE *11880:C1 0.000119575
7 *653:DIODE *634:42 0
8 *11880:A1 *11880:A2 9.58678e-06
9 *11880:A1 *11880:C1 0
10 *195:23 *11819:D 0.000471762
11 *195:23 *12124:EN 0.00097692
12 *195:23 *12124:DI[18] 0
13 *195:23 *204:21 0.0169093
14 *195:23 *206:11 0.000107684
15 *195:23 *206:37 0.000353483
16 *195:23 *350:26 0.00127427
17 *195:23 *351:10 0.000959949
18 *195:23 *351:24 0.000295208
19 *195:23 *351:26 0.000395778
20 *195:23 *352:14 0.000276539
21 *195:23 *360:76 0.000167494
22 *195:23 *426:36 0
23 *195:23 *452:22 0.00235227
24 *195:23 *557:191 0.000411872
25 *195:23 *557:213 0.000328355
26 *195:23 *560:30 0.000250569
27 *195:23 *560:54 0.000419416
28 *195:23 *560:76 0.000368964
29 *195:23 *560:158 0
30 *195:23 *576:14 0.000117111
31 *195:23 *594:20 0.000270374
32 *195:23 *597:14 0.00011579
33 *195:23 *632:107 0.000109836
34 *195:23 *639:34 0.000106444
35 *119:18 *195:23 0.00185162
36 *123:18 *195:23 0.00116969
37 *130:26 *195:23 0.00113665
38 *132:10 *195:23 0.00104389
39 *133:16 *195:23 0.000108747
40 *133:34 *195:23 0.000350214
41 *134:12 *195:23 0.000232815
42 *139:42 *195:23 0.000893251
43 *142:16 *195:23 0.000577163
44 *142:28 *195:23 0.000245545
45 *188:30 *195:23 0
46 *193:16 *195:23 0.000449167
47 *193:18 *195:23 0.000325909
48 *194:22 *195:23 0.0011834
49 *194:30 *195:23 0.00132072
*RES
1 *12124:DO[18] *195:23 47.6718
2 *195:23 *653:DIODE 5.6075
3 *195:23 *11880:A1 4.9751
*END

*D_NET *196 0.063243
*CONN
*I *11883:A1 I *D sky130_fd_sc_hd__o221a_2
*I *654:DIODE I *D sky130_fd_sc_hd__diode_2
*I *655:DIODE I *D sky130_fd_sc_hd__diode_2
*I *12124:DO[19] O *D CF_SRAM_1024x32
*CAP
1 *11883:A1 9.97113e-05
2 *654:DIODE 0
3 *655:DIODE 0.000141637
4 *12124:DO[19] 0.00144375
5 *196:56 9.97113e-05
6 *196:43 0.00106594
7 *196:39 0.00311753
8 *196:37 0.0035607
9 *196:19 0.00412219
10 *196:17 0.00419846
11 *655:DIODE *11981:A 6.28765e-05
12 *655:DIODE *632:126 1.44259e-05
13 *655:DIODE *632:136 4.19967e-05
14 *11883:A1 *11883:A2 9.13949e-06
15 *11883:A1 *11883:B1 6.03947e-06
16 *11883:A1 *597:14 0.000243181
17 *11883:A1 *634:42 0.000124774
18 *11883:A1 *634:56 3.68265e-05
19 *196:17 *12094:A 0.00042775
20 *196:17 *12124:BEN[18] 0
21 *196:17 *12124:DI[19] 0
22 *196:17 *360:74 4.23612e-05
23 *196:17 *443:51 0
24 *196:19 *203:11 0.0112634
25 *196:19 *224:25 0.00626437
26 *196:19 *224:38 0.00012711
27 *196:19 *400:20 0.00476713
28 *196:19 *577:28 0.000581686
29 *196:37 *11865:C1 0.00152493
30 *196:37 *575:36 0.00158169
31 *196:37 *596:22 4.93699e-05
32 *196:37 *628:188 0.00082869
33 *196:37 *631:218 0.000702161
34 *196:39 *199:27 0.000986368
35 *196:39 *200:15 0.00486417
36 *196:39 *576:14 0.000372956
37 *196:43 *632:126 5.64226e-05
38 *11880:B2 *196:43 0
39 *11883:B2 *11883:A1 6.69608e-06
40 *11990:A *655:DIODE 3.00381e-05
41 *111:16 *196:39 3.04766e-05
42 *113:16 *196:39 0.000950385
43 *129:10 *196:17 0.00221243
44 *181:18 *196:19 0.00173498
45 *184:8 *196:17 0.00221409
46 *194:44 *196:39 1.46744e-05
47 *194:50 *196:39 0.00321971
*RES
1 *12124:DO[19] *196:17 43.185
2 *196:17 *196:19 130.283
3 *196:19 *196:37 32.3408
4 *196:37 *196:39 65.31
5 *196:39 *196:43 16.13
6 *196:43 *655:DIODE 5.94
7 *196:43 *196:56 2
8 *196:56 *654:DIODE 1.6
9 *196:56 *11883:A1 4.84
*END

*D_NET *197 0.0321333
*CONN
*I *11829:A1 I *D sky130_fd_sc_hd__o221a_1
*I *656:DIODE I *D sky130_fd_sc_hd__diode_2
*I *12124:DO[1] O *D CF_SRAM_1024x32
*CAP
1 *11829:A1 0
2 *656:DIODE 0.00014182
3 *12124:DO[1] 0.00942794
4 *197:27 0.00956976
5 *656:DIODE *12230:A 3.54987e-05
6 *656:DIODE *631:44 0
7 *656:DIODE *633:110 5.18317e-06
8 *197:27 *12124:BEN[0] 0
9 *197:27 *12124:DI[1] 0.00037812
10 *197:27 *205:19 1.79536e-05
11 *197:27 *208:29 0.000585609
12 *197:27 *211:27 0.0111021
13 *197:27 *215:29 0
14 *197:27 *216:31 3.72305e-05
15 *197:27 *560:128 0.00016156
16 *197:27 *575:38 1.79536e-05
17 *197:27 *633:110 0.000173377
18 *11829:B2 *197:27 5.29759e-05
19 *11861:A0 *197:27 0.000139949
20 *139:42 *197:27 0.000286204
*RES
1 *12124:DO[1] *197:27 47.1918
2 *197:27 *656:DIODE 5.685
3 *197:27 *11829:A1 3.6
*END

*D_NET *198 0.062028
*CONN
*I *11886:A1 I *D sky130_fd_sc_hd__o221a_2
*I *657:DIODE I *D sky130_fd_sc_hd__diode_2
*I *12124:DO[20] O *D CF_SRAM_1024x32
*CAP
1 *11886:A1 0.000194968
2 *657:DIODE 0
3 *12124:DO[20] 0.00034099
4 *198:23 0.00116886
5 *198:15 0.00491555
6 *198:13 0.00394166
7 *198:11 0.00327318
8 *198:9 0.00361417
9 *11886:A1 *12037:A 0.000150653
10 *11886:A1 *595:14 0.00016063
11 *198:9 *12124:BEN[19] 1.8644e-05
12 *198:9 *12124:DI[20] 0
13 *198:9 *449:35 0
14 *198:11 *12144:DI[10] 0.000812019
15 *198:11 *199:21 0.00232401
16 *198:11 *206:11 0.000285949
17 *198:11 *350:24 1.93806e-05
18 *198:15 *202:19 0.00344467
19 *198:15 *441:14 0.000940875
20 *198:15 *589:14 0.000156435
21 *198:15 *625:61 0
22 *198:15 *627:35 0.000135553
23 *198:23 *12037:A 8.8266e-05
24 *198:23 *227:45 0.000180682
25 *198:23 *595:14 8.65961e-05
26 *198:23 *630:88 7.3664e-05
27 *11834:A0 *198:11 0.00059146
28 *11855:A0 *198:11 0.000295146
29 *11867:A0 *198:11 0.00208731
30 *11880:B2 *198:23 5.92269e-05
31 *126:16 *198:15 0.00139611
32 *127:10 *198:11 3.22922e-05
33 *130:24 *198:11 0.000776442
34 *134:12 *198:11 1.10631e-05
35 *134:14 *198:11 0.00610113
36 *137:16 *198:11 0.00576389
37 *138:18 *198:11 0.00676942
38 *139:42 *198:11 0.00148542
39 *141:16 *198:11 0.00739047
40 *143:18 *198:11 3.96225e-05
41 *144:16 *198:11 0.00276334
42 *149:53 *198:23 0
43 *149:55 *198:23 0
44 *149:57 *198:23 0
45 *149:59 *11886:A1 0.000138225
46 *149:59 *198:23 0
47 *194:50 *198:15 0
*RES
1 *12124:DO[20] *198:9 7.1
2 *198:9 *198:11 195.435
3 *198:11 *198:13 2
4 *198:13 *198:15 77.385
5 *198:15 *198:23 20.2
6 *198:23 *657:DIODE 1.6
7 *198:23 *11886:A1 9.875
*END

*D_NET *199 0.0741658
*CONN
*I *11889:A1 I *D sky130_fd_sc_hd__o221a_2
*I *658:DIODE I *D sky130_fd_sc_hd__diode_2
*I *12124:DO[21] O *D CF_SRAM_1024x32
*CAP
1 *11889:A1 0.00021124
2 *658:DIODE 4.19546e-05
3 *12124:DO[21] 0.0121477
4 *199:27 0.00778303
5 *199:21 0.0196775
6 *658:DIODE *632:151 7.23533e-05
7 *11889:A1 *12223:A 0
8 *11889:A1 *604:12 2.97004e-06
9 *11889:A1 *630:88 1.08758e-05
10 *11889:A1 *630:97 0.000216984
11 *11889:A1 *634:73 2.41376e-05
12 *11889:A1 *634:90 4.55864e-06
13 *199:21 *12124:BEN[20] 1.48249e-05
14 *199:21 *12124:DI[21] 0
15 *199:21 *12144:DI[10] 0.00521467
16 *199:21 *204:21 0.0068801
17 *199:21 *350:24 0.000285264
18 *199:21 *454:30 6.08132e-05
19 *199:21 *639:74 1.79483e-05
20 *199:27 *11889:B1 1.15399e-05
21 *199:27 *200:15 0.00156726
22 *199:27 *201:15 0.00143654
23 *199:27 *203:27 0.000869956
24 *199:27 *204:31 0
25 *199:27 *207:19 0.0015749
26 *199:27 *210:17 0.00143654
27 *199:27 *441:14 0
28 *199:27 *585:14 0.000369651
29 *199:27 *598:18 0.000309237
30 *199:27 *598:20 0.000801043
31 *199:27 *625:61 0.000101314
32 *199:27 *632:151 4.01019e-05
33 *11829:B2 *199:27 0.00101793
34 *11855:A0 *199:21 0.000232447
35 *11867:A0 *199:21 0.000403671
36 *111:16 *199:27 0.00144113
37 *130:24 *199:21 0.00195314
38 *133:16 *199:21 1.93765e-05
39 *137:16 *199:21 0.000253564
40 *138:18 *199:21 0.000985604
41 *139:42 *199:21 0.000325991
42 *143:18 *199:21 0.00155159
43 *144:18 *199:21 0.00128903
44 *151:26 *199:27 9.39045e-07
45 *194:50 *199:27 0.000195957
46 *196:39 *199:27 0.000986368
47 *198:11 *199:21 0.00232401
*RES
1 *12124:DO[21] *199:21 40.4813
2 *199:21 *199:27 30.863
3 *199:27 *658:DIODE 4.47
4 *199:27 *11889:A1 10.39
*END

*D_NET *200 0.0665148
*CONN
*I *11892:A1 I *D sky130_fd_sc_hd__o221a_2
*I *659:DIODE I *D sky130_fd_sc_hd__diode_2
*I *12124:DO[22] O *D CF_SRAM_1024x32
*CAP
1 *11892:A1 6.48665e-05
2 *659:DIODE 0.00013026
3 *12124:DO[22] 0.00206773
4 *200:19 0.00121782
5 *200:15 0.00253064
6 *200:13 0.00150794
7 *200:11 0.00399847
8 *200:9 0.00606621
9 *659:DIODE *12223:A 0
10 *659:DIODE *634:106 0
11 *11892:A1 *11892:A2 4.89295e-05
12 *11892:A1 *11892:B1 1.18246e-05
13 *11892:A1 *11892:C1 4.77757e-05
14 *11892:A1 *601:16 9.63757e-05
15 *11892:A1 *630:105 0.000302812
16 *200:9 *12065:A 0.00022707
17 *200:9 *12124:DI[22] 4.92935e-05
18 *200:9 *409:12 2.49909e-05
19 *200:9 *409:48 4.41506e-05
20 *200:11 *12050:A 0.00126745
21 *200:11 *201:11 0.0179745
22 *200:11 *202:15 1.04063e-05
23 *200:11 *226:22 0.0101249
24 *200:11 *226:28 0.000236974
25 *200:11 *365:72 1.10631e-05
26 *200:11 *365:74 0.00245831
27 *200:11 *396:16 0.00142712
28 *200:15 *201:15 0.00741374
29 *200:19 *11892:B1 4.61701e-06
30 *200:19 *12223:A 0
31 *200:19 *12225:A 2.92612e-05
32 *11889:B2 *659:DIODE 4.89295e-05
33 *11892:B2 *200:19 0
34 *111:16 *200:15 9.77048e-06
35 *131:20 *200:11 0.000629178
36 *196:39 *200:15 0.00486417
37 *199:27 *200:15 0.00156726
*RES
1 *12124:DO[22] *200:9 29.855
2 *200:9 *200:11 209.97
3 *200:11 *200:13 2
4 *200:13 *200:15 67.725
5 *200:15 *200:19 17.15
6 *200:19 *659:DIODE 5.175
7 *200:19 *11892:A1 6.48
*END

*D_NET *201 0.0745631
*CONN
*I *11895:A1 I *D sky130_fd_sc_hd__o221a_2
*I *660:DIODE I *D sky130_fd_sc_hd__diode_2
*I *12124:DO[23] O *D CF_SRAM_1024x32
*CAP
1 *11895:A1 0.000378216
2 *660:DIODE 0
3 *12124:DO[23] 0.00173968
4 *201:23 0.00148137
5 *201:15 0.00246054
6 *201:13 0.00135739
7 *201:11 0.00425373
8 *201:9 0.00599342
9 *11895:A1 *601:24 5.74791e-05
10 *11895:A1 *606:20 0.000135049
11 *11895:A1 *632:193 0.000101872
12 *11895:A1 *634:121 0.000155601
13 *201:9 *965:DIODE 2.49909e-05
14 *201:9 *11875:A1 2.76356e-05
15 *201:9 *11972:A 0.000343864
16 *201:9 *12124:DI[23] 1.04217e-05
17 *201:9 *258:23 0.000507663
18 *201:9 *502:8 0.00022707
19 *201:11 *202:15 0.0186669
20 *201:11 *365:74 0.000398363
21 *201:15 *210:17 0.00836936
22 *201:23 *227:27 0
23 *201:23 *601:16 1.01911e-05
24 *201:23 *630:113 0.000112143
25 *11889:B2 *11895:A1 0.000365162
26 *11889:B2 *201:23 4.82863e-05
27 *11895:B2 *201:23 0
28 *111:16 *201:15 4.91081e-05
29 *151:26 *201:15 0.000194789
30 *185:16 *201:9 0.000267949
31 *199:27 *201:15 0.00143654
32 *200:11 *201:11 0.0179745
33 *200:15 *201:15 0.00741374
*RES
1 *12124:DO[23] *201:9 30.185
2 *201:9 *201:11 217.875
3 *201:11 *201:13 2
4 *201:13 *201:15 77.385
5 *201:15 *201:23 20.875
6 *201:23 *660:DIODE 1.6
7 *201:23 *11895:A1 12.02
*END

*D_NET *202 0.07464
*CONN
*I *661:DIODE I *D sky130_fd_sc_hd__diode_2
*I *11898:A1 I *D sky130_fd_sc_hd__o221a_2
*I *12124:DO[24] O *D CF_SRAM_1024x32
*CAP
1 *661:DIODE 0
2 *11898:A1 0.000326149
3 *12124:DO[24] 0.0019744
4 *202:27 0.00153107
5 *202:19 0.00341037
6 *202:17 0.00220545
7 *202:15 0.0047297
8 *202:13 0.00670411
9 *11898:A1 *12102:A 6.69608e-06
10 *11898:A1 *12225:A 0.000151346
11 *11898:A1 *441:14 4.61119e-05
12 *11898:A1 *608:10 8.30853e-06
13 *11898:A1 *632:206 2.49909e-05
14 *11898:A1 *634:135 4.66108e-05
15 *202:13 *1036:DIODE 6.07575e-06
16 *202:13 *11976:A 0.000840078
17 *202:13 *11983:A 0.000488491
18 *202:13 *12124:BEN[23] 0
19 *202:13 *12124:DI[24] 1.16646e-05
20 *202:15 *330:8 0.0148942
21 *202:15 *365:74 0.000290487
22 *202:15 *396:16 0
23 *202:19 *441:14 0.0018706
24 *202:19 *627:35 0.00956726
25 *119:16 *202:13 0.000118081
26 *151:26 *202:27 0.000188932
27 *156:20 *202:27 0.000112123
28 *177:22 *202:15 0.00227721
29 *185:18 *202:15 0.000687507
30 *198:15 *202:19 0.00344467
31 *200:11 *202:15 1.04063e-05
32 *201:11 *202:15 0.0186669
*RES
1 *12124:DO[24] *202:13 31.235
2 *202:13 *202:15 229.35
3 *202:15 *202:17 2
4 *202:17 *202:19 87.045
5 *202:19 *202:27 19.78
6 *202:27 *11898:A1 10.82
7 *202:27 *661:DIODE 1.6
*END

*D_NET *203 0.0850697
*CONN
*I *11901:A1 I *D sky130_fd_sc_hd__o221a_2
*I *662:DIODE I *D sky130_fd_sc_hd__diode_2
*I *12124:DO[25] O *D CF_SRAM_1024x32
*CAP
1 *11901:A1 0.000130532
2 *662:DIODE 0.000141845
3 *12124:DO[25] 0.000802327
4 *203:31 0.00128174
5 *203:27 0.00258668
6 *203:25 0.00299958
7 *203:17 0.00205488
8 *203:11 0.00522541
9 *203:9 0.00539512
10 *662:DIODE *630:129 5.05716e-06
11 *11901:A1 *632:221 4.82919e-05
12 *11901:A1 *634:148 4.82919e-05
13 *203:9 *12124:DI[25] 0
14 *203:9 *278:23 7.28804e-05
15 *203:11 *11935:A 0.000898709
16 *203:11 *12094:A 0.00227128
17 *203:11 *12124:DI[10] 1.7635e-05
18 *203:11 *220:57 7.06865e-05
19 *203:11 *220:68 0.000204449
20 *203:11 *220:79 0.000158309
21 *203:11 *224:25 1.73598e-05
22 *203:11 *369:76 0.000721706
23 *203:11 *400:18 0.0017905
24 *203:11 *400:20 0.000911924
25 *203:11 *400:80 0.00109759
26 *203:11 *504:14 2.10433e-05
27 *203:11 *506:12 0.000534411
28 *203:11 *506:60 6.81237e-05
29 *203:11 *576:22 0.000304285
30 *203:17 *11819:C 0.00103816
31 *203:17 *12124:EN 1.88602e-05
32 *203:17 *224:25 0.000253071
33 *203:17 *576:22 3.17579e-05
34 *203:17 *577:28 0.000406243
35 *203:17 *589:12 0.00193609
36 *203:17 *633:20 0.00120313
37 *203:25 *341:10 2.78732e-05
38 *203:25 *598:14 0.00106363
39 *203:27 *227:27 0.000199894
40 *203:27 *598:14 4.77757e-05
41 *203:27 *598:18 0.00129539
42 *203:27 *598:20 0.0079488
43 *203:31 *11885:A1 0.000385725
44 *203:31 *230:25 0.000139862
45 *203:31 *547:18 0
46 *203:31 *625:91 7.7379e-05
47 *11843:A0 *203:11 0.000808442
48 *111:16 *203:27 0.0109295
49 *123:16 *203:9 0.000118081
50 *124:28 *203:25 0.000138304
51 *129:10 *203:11 0.0133819
52 *155:26 *203:27 0.000442136
53 *156:20 *203:31 0.000120209
54 *164:30 *11901:A1 5.18317e-06
55 *164:30 *203:31 0.000132462
56 *181:18 *203:11 1.88602e-05
57 *184:8 *203:11 0.000886959
58 *196:19 *203:11 0.0112634
59 *199:27 *203:27 0.000869956
*RES
1 *12124:DO[25] *203:9 13.22
2 *203:9 *203:11 205.253
3 *203:11 *203:17 29.2025
4 *203:17 *203:25 26.11
5 *203:25 *203:27 99.12
6 *203:27 *203:31 20.3375
7 *203:31 *662:DIODE 5.4075
8 *203:31 *11901:A1 5.6775
*END

*D_NET *204 0.101915
*CONN
*I *11904:A1 I *D sky130_fd_sc_hd__o221a_2
*I *664:DIODE I *D sky130_fd_sc_hd__diode_2
*I *12124:DO[26] O *D CF_SRAM_1024x32
*CAP
1 *11904:A1 9.57331e-05
2 *664:DIODE 0.000193167
3 *12124:DO[26] 0.00744636
4 *204:31 0.011518
5 *204:21 0.0186754
6 *664:DIODE *11907:A2 0
7 *664:DIODE *11907:B1 1.93834e-05
8 *664:DIODE *12229:A 8.65961e-05
9 *11904:A1 *11907:A2 2.10433e-05
10 *204:21 *12124:DI[26] 0.000289011
11 *204:21 *12144:DI[10] 0.00930408
12 *204:21 *206:11 0.00272126
13 *204:21 *206:19 0.000813572
14 *204:21 *258:21 0.000450735
15 *204:21 *281:27 0.000102616
16 *204:21 *360:76 0.000872512
17 *204:21 *560:158 0
18 *204:21 *638:39 4.70558e-05
19 *204:21 *639:94 0
20 *204:21 *639:114 0
21 *204:21 *639:134 0
22 *204:31 *11907:B1 9.74694e-05
23 *204:31 *206:39 0.00229748
24 *204:31 *209:17 0.00112772
25 *204:31 *227:29 0.000334366
26 *204:31 *230:25 0.000915888
27 *204:31 *232:64 0
28 *204:31 *441:14 0.00838053
29 *204:31 *547:18 0
30 *204:31 *585:14 0.000106983
31 *204:31 *627:41 0
32 *11834:A0 *204:21 0.000128214
33 *119:18 *204:21 0.000664072
34 *123:16 *204:21 0.000116216
35 *123:18 *204:21 0.000781144
36 *130:24 *204:21 0.00196772
37 *133:14 *204:21 2.18843e-05
38 *134:14 *204:21 0.00121691
39 *141:16 *204:21 0.00177463
40 *144:16 *204:21 0.000547624
41 *153:24 *204:31 0.0033025
42 *157:26 *204:31 0
43 *157:43 *204:31 9.24049e-05
44 *157:51 *204:31 0
45 *157:55 *204:31 0
46 *157:61 *664:DIODE 0
47 *157:61 *204:31 0
48 *157:65 *664:DIODE 2.97004e-06
49 *160:12 *204:31 0.000196767
50 *182:19 *204:31 0.0011274
51 *194:44 *204:21 0.000267891
52 *195:23 *204:21 0.0169093
53 *199:21 *204:21 0.0068801
54 *199:27 *204:31 0
*RES
1 *12124:DO[26] *204:21 48.922
2 *204:21 *204:31 36.2349
3 *204:31 *664:DIODE 6.1575
4 *204:31 *11904:A1 4.9725
*END

*D_NET *205 0.0925165
*CONN
*I *666:DIODE I *D sky130_fd_sc_hd__diode_2
*I *11907:A1 I *D sky130_fd_sc_hd__o221a_2
*I *665:DIODE I *D sky130_fd_sc_hd__diode_2
*I *12124:DO[27] O *D CF_SRAM_1024x32
*CAP
1 *666:DIODE 0
2 *11907:A1 0.000162729
3 *665:DIODE 0.000150194
4 *12124:DO[27] 0.000530132
5 *205:43 0.000625187
6 *205:37 0.000478471
7 *205:31 0.00312984
8 *205:29 0.00352759
9 *205:19 0.00332574
10 *205:17 0.0028125
11 *205:11 0.00301267
12 *205:9 0.0034921
13 *665:DIODE *630:152 3.69766e-05
14 *11907:A1 *11907:A2 9.5799e-06
15 *11907:A1 *12181:A 0.000122331
16 *11907:A1 *609:22 0.000309618
17 *11907:A1 *611:26 9.19546e-05
18 *205:9 *12124:BEN[26] 9.18456e-06
19 *205:11 *11980:A 0
20 *205:11 *251:11 0.000660497
21 *205:11 *275:13 0
22 *205:11 *278:23 0.00079914
23 *205:11 *496:36 0
24 *205:11 *506:22 0.00294002
25 *205:11 *575:38 0.00153897
26 *205:11 *607:16 0
27 *205:11 *618:14 0
28 *205:11 *629:8 0.00635798
29 *205:19 *11865:C1 0.00156975
30 *205:19 *575:38 0.00159637
31 *205:19 *629:8 0.0113638
32 *205:29 *12094:A 0.00018336
33 *205:29 *12124:DI[15] 1.46832e-05
34 *205:29 *596:24 0.000847446
35 *205:29 *607:16 0.00019252
36 *205:29 *631:218 7.57575e-05
37 *205:29 *633:20 0.00120812
38 *205:31 *209:17 0.014114
39 *205:31 *230:25 0.000354859
40 *205:31 *441:14 0.00196033
41 *205:31 *589:14 0.000196376
42 *205:31 *627:35 0.0141615
43 *205:43 *11894:A1 0.000111308
44 *205:43 *12039:A 0.000158066
45 *205:43 *233:41 0.000152814
46 *1083:DIODE *205:43 8.49205e-05
47 *11822:A *205:31 0.000153816
48 *11865:B2 *205:19 0.000124449
49 *11907:B2 *11907:A1 5.17259e-05
50 *11907:B2 *205:37 0.00034805
51 *11931:A *205:31 4.85381e-05
52 *125:10 *205:11 0.000674337
53 *139:16 *205:11 2.26301e-05
54 *140:10 *205:19 0.00669754
55 *159:53 *205:37 9.65864e-05
56 *159:55 *205:37 1.52184e-05
57 *159:55 *205:43 2.3917e-05
58 *159:57 *205:43 9.52092e-05
59 *159:59 *665:DIODE 0.000122526
60 *159:59 *205:43 2.4393e-05
61 *162:14 *665:DIODE 2.85364e-05
62 *162:14 *205:43 0.000295208
63 *164:30 *11907:A1 0.0001049
64 *182:19 *205:31 0.00110155
65 *197:27 *205:19 1.79536e-05
*RES
1 *12124:DO[27] *205:9 9.62
2 *205:9 *205:11 105.93
3 *205:11 *205:17 4.87
4 *205:17 *205:19 132.96
5 *205:19 *205:29 23.34
6 *205:29 *205:31 148.8
7 *205:31 *205:37 8.185
8 *205:37 *205:43 9.965
9 *205:43 *665:DIODE 6.51
10 *205:43 *11907:A1 12.61
11 *205:37 *666:DIODE 1.6
*END

*D_NET *206 0.0999576
*CONN
*I *668:DIODE I *D sky130_fd_sc_hd__diode_2
*I *11910:A1 I *D sky130_fd_sc_hd__o221a_2
*I *667:DIODE I *D sky130_fd_sc_hd__diode_2
*I *12124:DO[28] O *D CF_SRAM_1024x32
*CAP
1 *668:DIODE 0.000180407
2 *11910:A1 0.00010512
3 *667:DIODE 0
4 *12124:DO[28] 0.000274997
5 *206:54 0.000290617
6 *206:47 0.000798433
7 *206:39 0.00923945
8 *206:37 0.00957741
9 *206:19 0.00197452
10 *206:17 0.000903946
11 *206:11 0.00325211
12 *206:9 0.00346639
13 *11910:A1 *11910:C1 6.02762e-05
14 *11910:A1 *610:20 0.000108042
15 *206:9 *12124:BEN[27] 0
16 *206:9 *12124:DI[28] 0
17 *206:9 *276:15 8.49936e-05
18 *206:11 *12144:DI[10] 0.000116416
19 *206:11 *272:11 0.000439983
20 *206:11 *350:26 3.47757e-05
21 *206:11 *360:76 0.000391597
22 *206:19 *350:26 0.000328464
23 *206:37 *11819:D 0.000159957
24 *206:37 *12124:BEN[15] 0.000120149
25 *206:37 *575:24 0
26 *206:37 *576:14 0.00015829
27 *206:37 *589:14 7.47275e-05
28 *206:39 *230:25 0.000119028
29 *206:39 *233:27 0.000109836
30 *206:47 *11910:C1 4.82919e-05
31 *206:47 *12231:A 0
32 *206:47 *382:18 8.24715e-05
33 *206:47 *609:22 0
34 *206:47 *610:20 2.937e-05
35 *206:54 *11910:C1 4.99619e-05
36 *206:54 *610:20 1.60203e-05
37 *11834:A0 *206:11 0.00056878
38 *11834:A0 *206:17 0.000100134
39 *11862:B2 *206:39 0.000198425
40 *11871:A1 *206:37 2.38557e-05
41 *11910:B1 *668:DIODE 5.53249e-06
42 *11910:B1 *11910:A1 1.12643e-05
43 *11910:B1 *206:47 0
44 *11910:B2 *11910:A1 7.60965e-05
45 *11931:A *206:39 0.000818913
46 *119:18 *206:11 0.0132104
47 *123:16 *206:11 0.00166576
48 *126:16 *206:37 0.000194694
49 *130:26 *206:37 3.60648e-05
50 *132:10 *206:19 0.00387481
51 *134:12 *206:11 0.00094322
52 *134:14 *206:19 0.00445709
53 *141:16 *206:11 0.0131719
54 *142:28 *206:37 0.00146237
55 *144:16 *206:11 0.00276666
56 *161:44 *668:DIODE 0
57 *161:46 *668:DIODE 0
58 *166:14 *11910:A1 0.000207861
59 *182:19 *206:39 0.0169883
60 *182:23 *206:47 0
61 *195:23 *206:11 0.000107684
62 *195:23 *206:37 0.000353483
63 *198:11 *206:11 0.000285949
64 *204:21 *206:11 0.00272126
65 *204:21 *206:19 0.000813572
66 *204:31 *206:39 0.00229748
*RES
1 *12124:DO[28] *206:9 6.53
2 *206:9 *206:11 191.61
3 *206:11 *206:17 5.38
4 *206:17 *206:19 50.2125
5 *206:19 *206:37 28.9934
6 *206:37 *206:39 162.945
7 *206:39 *206:47 16.285
8 *206:47 *667:DIODE 1.6
9 *206:47 *206:54 0.45
10 *206:54 *11910:A1 5.56
11 *206:54 *668:DIODE 7.685
*END

*D_NET *207 0.1036
*CONN
*I *11913:A1 I *D sky130_fd_sc_hd__o221a_2
*I *669:DIODE I *D sky130_fd_sc_hd__diode_2
*I *12124:DO[29] O *D CF_SRAM_1024x32
*CAP
1 *11913:A1 1.17375e-05
2 *669:DIODE 0.000153477
3 *12124:DO[29] 0.00217078
4 *207:23 0.000997652
5 *207:19 0.00297079
6 *207:17 0.00213835
7 *207:15 0.0051726
8 *207:13 0.00734338
9 *669:DIODE *507:14 0
10 *669:DIODE *518:18 0
11 *669:DIODE *612:24 0.000164874
12 *207:13 *1050:DIODE 7.14699e-05
13 *207:13 *11848:A0 0.000120921
14 *207:13 *11848:A1 6.71882e-05
15 *207:13 *12124:DI[29] 1.04275e-05
16 *207:13 *312:42 0.000107825
17 *207:13 *312:49 7.14699e-05
18 *207:13 *312:56 7.14699e-05
19 *207:15 *209:13 0.0227937
20 *207:15 *352:16 8.55749e-05
21 *207:15 *540:18 0.0195084
22 *207:15 *637:27 0.00294471
23 *207:19 *210:17 0.016344
24 *207:19 *227:27 0.00185136
25 *207:19 *228:25 0.000701824
26 *207:23 *209:25 0
27 *207:23 *463:16 0.000129951
28 *207:23 *611:26 3.86607e-05
29 *11913:B2 *207:23 0.000464429
30 *111:16 *207:19 0.0151687
31 *111:46 *11913:A1 4.82919e-05
32 *129:8 *207:13 8.74049e-05
33 *164:24 *669:DIODE 1.7635e-05
34 *164:24 *11913:A1 2.75229e-05
35 *166:14 *669:DIODE 0.000163199
36 *182:63 *669:DIODE 2.0851e-06
37 *182:63 *207:23 3.61388e-06
38 *199:27 *207:19 0.0015749
*RES
1 *12124:DO[29] *207:13 32.9
2 *207:13 *207:15 265.815
3 *207:15 *207:17 2
4 *207:17 *207:19 148.455
5 *207:19 *207:23 17.66
6 *207:23 *669:DIODE 6.72
7 *207:23 *11913:A1 4.05
*END

*D_NET *208 0.0334625
*CONN
*I *11832:A1 I *D sky130_fd_sc_hd__o221a_1
*I *670:DIODE I *D sky130_fd_sc_hd__diode_2
*I *12124:DO[2] O *D CF_SRAM_1024x32
*CAP
1 *11832:A1 0
2 *670:DIODE 8.85199e-05
3 *12124:DO[2] 0.00499357
4 *208:29 0.00508209
5 *670:DIODE *12013:A 1.53463e-05
6 *670:DIODE *12241:A 5.13155e-05
7 *670:DIODE *588:20 2.86975e-05
8 *208:29 *11847:A1 0.000196868
9 *208:29 *11847:A2 0.000140074
10 *208:29 *12013:A 6.41825e-07
11 *208:29 *12124:BEN[2] 0
12 *208:29 *12124:DI[2] 7.16808e-05
13 *208:29 *211:27 2.19868e-05
14 *208:29 *215:29 0.00855676
15 *11832:B2 *208:29 0.00015659
16 *11868:A1 *208:29 0.00012665
17 *11868:B2 *208:29 0.000118136
18 *12090:A *670:DIODE 0.000131874
19 *12090:A *208:29 0.000109007
20 *128:22 *208:29 0.000339406
21 *133:34 *208:29 5.83121e-06
22 *135:34 *208:29 0.00149871
23 *186:29 *208:29 0.0111024
24 *189:34 *208:29 2.3093e-05
25 *193:18 *208:29 1.7635e-05
26 *197:27 *208:29 0.000585609
*RES
1 *12124:DO[2] *208:29 40.9468
2 *208:29 *670:DIODE 5.685
3 *208:29 *11832:A1 3.6
*END

*D_NET *209 0.104733
*CONN
*I *11916:A1 I *D sky130_fd_sc_hd__o221a_2
*I *671:DIODE I *D sky130_fd_sc_hd__diode_2
*I *12124:DO[30] O *D CF_SRAM_1024x32
*CAP
1 *11916:A1 0.000159256
2 *671:DIODE 0
3 *12124:DO[30] 0.00237493
4 *209:25 0.000920753
5 *209:17 0.00365155
6 *209:15 0.00289005
7 *209:13 0.00550077
8 *209:11 0.00787569
9 *11916:A1 *12235:A 4.23404e-05
10 *11916:A1 *210:21 1.07747e-05
11 *11916:A1 *518:18 0.000232214
12 *11916:A1 *613:12 0.000131168
13 *209:11 *12124:DI[30] 2.57979e-05
14 *209:13 *210:13 0.0235833
15 *209:13 *540:18 0.000220062
16 *209:13 *637:27 0.000435006
17 *209:17 *230:25 0.000354859
18 *209:17 *233:27 0.000394787
19 *209:17 *441:14 0.000861843
20 *209:25 *210:21 0
21 *209:25 *518:18 0.000253822
22 *11916:A2 *11916:A1 2.42158e-05
23 *11919:A2 *11916:A1 4.72487e-05
24 *11919:C1 *209:25 0.000125208
25 *111:46 *209:25 1.91597e-05
26 *149:18 *209:13 0.000212463
27 *164:24 *11916:A1 0.000222496
28 *164:24 *209:25 0.000262696
29 *170:12 *209:17 0.000425474
30 *172:14 *209:17 0.000348904
31 *182:19 *209:17 0.0150909
32 *204:31 *209:17 0.00112772
33 *205:31 *209:17 0.014114
34 *207:15 *209:13 0.0227937
35 *207:23 *209:25 0
*RES
1 *12124:DO[30] *209:11 32.165
2 *209:11 *209:13 279.84
3 *209:13 *209:15 2
4 *209:15 *209:17 151.215
5 *209:17 *209:25 17.335
6 *209:25 *671:DIODE 1.6
7 *209:25 *11916:A1 10.43
*END

*D_NET *210 0.105511
*CONN
*I *672:DIODE I *D sky130_fd_sc_hd__diode_2
*I *11919:A1 I *D sky130_fd_sc_hd__o221a_2
*I *673:DIODE I *D sky130_fd_sc_hd__diode_2
*I *12124:DO[31] O *D CF_SRAM_1024x32
*CAP
1 *672:DIODE 1.17375e-05
2 *11919:A1 0.000301868
3 *673:DIODE 0
4 *12124:DO[31] 0.00234999
5 *210:27 0.000509624
6 *210:21 0.0012592
7 *210:17 0.00446674
8 *210:15 0.00342704
9 *210:13 0.00566248
10 *210:11 0.00801247
11 *672:DIODE *610:26 2.75229e-05
12 *672:DIODE *612:24 4.82919e-05
13 *11919:A1 *12235:A 3.998e-05
14 *11919:A1 *612:24 4.99581e-05
15 *210:11 *12124:BEN[30] 0
16 *210:11 *12124:DI[31] 2.79492e-05
17 *210:13 *330:8 0.00192012
18 *210:13 *637:27 0.000265508
19 *210:17 *227:27 0.00281968
20 *210:17 *228:25 0.000269038
21 *210:27 *12235:A 0
22 *210:27 *609:34 5.20968e-05
23 *11916:A1 *210:21 1.07747e-05
24 *11916:A2 *210:21 0.000201407
25 *11919:A2 *210:21 0
26 *11919:B1 *210:21 0.000327265
27 *111:16 *210:17 3.93162e-05
28 *149:18 *210:13 0.0108323
29 *164:24 *210:21 0
30 *168:22 *210:17 0.002857
31 *177:22 *210:13 0.00998884
32 *199:27 *210:17 0.00143654
33 *201:15 *210:17 0.00836936
34 *207:19 *210:17 0.016344
35 *209:13 *210:13 0.0235833
36 *209:25 *210:21 0
*RES
1 *12124:DO[31] *210:11 31.805
2 *210:11 *210:13 283.155
3 *210:13 *210:15 2
4 *210:15 *210:17 155.01
5 *210:17 *210:21 19.445
6 *210:21 *210:27 4.52
7 *210:27 *673:DIODE 1.6
8 *210:27 *11919:A1 9.41
9 *210:21 *672:DIODE 4.05
*END

*D_NET *211 0.0271553
*CONN
*I *11835:A1 I *D sky130_fd_sc_hd__o221a_1
*I *675:DIODE I *D sky130_fd_sc_hd__diode_2
*I *12124:DO[3] O *D CF_SRAM_1024x32
*CAP
1 *11835:A1 0
2 *675:DIODE 0.000227196
3 *12124:DO[3] 0.00712972
4 *211:27 0.00735691
5 *675:DIODE *11835:A2 4.55864e-06
6 *675:DIODE *12013:A 7.19946e-05
7 *675:DIODE *588:20 0.00011964
8 *211:27 *11835:A2 5.02126e-06
9 *211:27 *11847:C1 0.000131881
10 *211:27 *11992:A 6.17964e-05
11 *211:27 *12013:A 0.00014785
12 *211:27 *12124:BEN[2] 0
13 *211:27 *12124:BEN[3] 4.33297e-05
14 *211:27 *12124:DI[3] 3.07153e-05
15 *211:27 *215:29 0.000236108
16 *11835:B2 *211:27 0.000271697
17 *12012:A *675:DIODE 0
18 *128:22 *211:27 0.00017484
19 *193:18 *211:27 1.79483e-05
20 *197:27 *211:27 0.0111021
21 *208:29 *211:27 2.19868e-05
*RES
1 *12124:DO[3] *211:27 41.8594
2 *211:27 *675:DIODE 7.065
3 *211:27 *11835:A1 3.6
*END

*D_NET *212 0.0237228
*CONN
*I *11838:A1 I *D sky130_fd_sc_hd__o221a_1
*I *676:DIODE I *D sky130_fd_sc_hd__diode_2
*I *12124:DO[4] O *D CF_SRAM_1024x32
*CAP
1 *11838:A1 1.59233e-05
2 *676:DIODE 0.000171357
3 *12124:DO[4] 0.00937596
4 *212:27 0.00956324
5 *676:DIODE *11838:A2 3.11927e-05
6 *676:DIODE *12011:A 0.000199922
7 *676:DIODE *12025:A 0.00011507
8 *676:DIODE *588:36 6.50242e-05
9 *676:DIODE *624:12 0
10 *11838:A1 *363:30 1.77665e-05
11 *11838:A1 *621:8 2.68526e-05
12 *212:27 *11838:A2 2.06767e-05
13 *212:27 *12025:A 0.000130386
14 *212:27 *12124:BEN[3] 0
15 *212:27 *12124:DI[4] 0
16 *212:27 *215:29 0
17 *212:27 *217:27 0.000676186
18 *212:27 *620:22 9.03081e-05
19 *212:27 *633:47 0.000296675
20 *11859:B2 *212:27 0.000134256
21 *11868:A1 *212:27 0.001745
22 *11871:B2 *212:27 0.000173043
23 *12010:A *676:DIODE 8.65905e-05
24 *122:36 *212:27 1.68169e-05
25 *135:34 *212:27 0.000291958
26 *187:30 *212:27 0.000460636
27 *193:18 *212:27 1.79536e-05
*RES
1 *12124:DO[4] *212:27 32.4731
2 *212:27 *676:DIODE 7.875
3 *212:27 *11838:A1 4.05
*END

*D_NET *213 0.0265211
*CONN
*I *11841:A1 I *D sky130_fd_sc_hd__o221a_1
*I *677:DIODE I *D sky130_fd_sc_hd__diode_2
*I *12124:DO[5] O *D CF_SRAM_1024x32
*CAP
1 *11841:A1 0.00019143
2 *677:DIODE 9.58398e-06
3 *12124:DO[5] 0.012709
4 *213:25 0.0129101
5 *677:DIODE *628:53 9.5799e-06
6 *11841:A1 *11841:B1 9.86533e-05
7 *11841:A1 *628:47 9.29332e-05
8 *11841:A1 *628:53 3.85065e-05
9 *213:25 *12124:BEN[4] 0
10 *213:25 *12124:DI[5] 0.000143426
11 *213:25 *214:27 4.60968e-05
12 *213:25 *560:82 0
13 *213:25 *633:77 2.94335e-05
14 *213:25 *633:79 1.45026e-05
15 *213:25 *633:81 4.99435e-05
16 *213:25 *633:85 9.22976e-05
17 *132:18 *677:DIODE 9.5799e-06
18 *132:18 *11841:A1 4.07688e-05
19 *133:34 *213:25 1.7635e-05
20 *194:22 *213:25 1.7635e-05
*RES
1 *12124:DO[5] *213:25 34.6252
2 *213:25 *677:DIODE 3.8325
3 *213:25 *11841:A1 7.4925
*END

*D_NET *214 0.0232101
*CONN
*I *11844:A1 I *D sky130_fd_sc_hd__o221a_2
*I *678:DIODE I *D sky130_fd_sc_hd__diode_2
*I *12124:DO[6] O *D CF_SRAM_1024x32
*CAP
1 *11844:A1 1.17375e-05
2 *678:DIODE 0.000232853
3 *12124:DO[6] 0.00739277
4 *214:27 0.00763736
5 *678:DIODE *496:18 7.46313e-05
6 *678:DIODE *588:20 2.75229e-05
7 *678:DIODE *633:104 8.7152e-06
8 *11844:A1 *628:69 4.82919e-05
9 *11844:A1 *631:36 2.75229e-05
10 *214:27 *12124:BEN[5] 0
11 *214:27 *12124:DI[6] 0
12 *214:27 *216:31 0.00734835
13 *214:27 *351:24 1.79536e-05
14 *214:27 *633:104 0.000314683
15 *142:16 *214:27 3.64998e-06
16 *194:30 *214:27 1.79536e-05
17 *213:25 *214:27 4.60968e-05
*RES
1 *12124:DO[6] *214:27 32.9665
2 *214:27 *678:DIODE 6.72
3 *214:27 *11844:A1 4.05
*END

*D_NET *215 0.0270098
*CONN
*I *11847:A1 I *D sky130_fd_sc_hd__o221a_2
*I *679:DIODE I *D sky130_fd_sc_hd__diode_2
*I *12124:DO[7] O *D CF_SRAM_1024x32
*CAP
1 *11847:A1 0.000170817
2 *679:DIODE 0
3 *12124:DO[7] 0.00457628
4 *215:29 0.00474709
5 *11847:A1 *11992:A 0.00019558
6 *215:29 *12124:BEN[6] 0.00011129
7 *215:29 *12124:DI[7] 0
8 *215:29 *217:27 0.00660607
9 *11832:B2 *11847:A1 0.000103788
10 *11840:A0 *215:29 2.38557e-05
11 *128:22 *215:29 0.000122457
12 *135:34 *215:29 0.00125967
13 *193:18 *215:29 0.000103204
14 *197:27 *215:29 0
15 *208:29 *11847:A1 0.000196868
16 *208:29 *215:29 0.00855676
17 *211:27 *215:29 0.000236108
18 *212:27 *215:29 0
*RES
1 *12124:DO[7] *215:29 32.4256
2 *215:29 *679:DIODE 1.6
3 *215:29 *11847:A1 9.83
*END

*D_NET *216 0.0201383
*CONN
*I *11850:A1 I *D sky130_fd_sc_hd__o221a_2
*I *680:DIODE I *D sky130_fd_sc_hd__diode_2
*I *12124:DO[8] O *D CF_SRAM_1024x32
*CAP
1 *11850:A1 8.62099e-05
2 *680:DIODE 0.000481854
3 *12124:DO[8] 0.00570065
4 *216:31 0.00626871
5 *11850:A1 *633:126 0.000153816
6 *216:31 *12124:BEN[8] 0
7 *216:31 *12124:DI[8] 5.30673e-05
8 *216:31 *351:24 8.41015e-06
9 *216:31 *560:30 0
10 *11835:B2 *680:DIODE 0
11 *197:27 *216:31 3.72305e-05
12 *214:27 *216:31 0.00734835
*RES
1 *12124:DO[8] *216:31 24.7141
2 *216:31 *680:DIODE 8.445
3 *216:31 *11850:A1 5.085
*END

*D_NET *217 0.0215255
*CONN
*I *11853:A1 I *D sky130_fd_sc_hd__o221a_2
*I *681:DIODE I *D sky130_fd_sc_hd__diode_2
*I *12124:DO[9] O *D CF_SRAM_1024x32
*CAP
1 *11853:A1 0
2 *681:DIODE 0.000211157
3 *12124:DO[9] 0.00389851
4 *217:27 0.00410967
5 *681:DIODE *12194:A 2.36055e-05
6 *681:DIODE *12244:A 5.86739e-05
7 *681:DIODE *571:12 4.31189e-05
8 *217:27 *12124:BEN[9] 0
9 *217:27 *12124:BEN[15] 0.000128703
10 *217:27 *12124:DI[9] 3.72916e-05
11 *217:27 *12194:A 0.000111207
12 *217:27 *351:24 8.41015e-06
13 *217:27 *633:77 0
14 *12010:A *681:DIODE 0.000111918
15 *109:12 *681:DIODE 5.26518e-05
16 *109:12 *217:27 0.000313119
17 *187:30 *217:27 0.0051352
18 *212:27 *217:27 0.000676186
19 *215:29 *217:27 0.00660607
*RES
1 *12124:DO[9] *217:27 25.7442
2 *217:27 *681:DIODE 7.065
3 *217:27 *11853:A1 3.6
*END

*D_NET *218 0.0603929
*CONN
*I *686:DIODE I *D sky130_fd_sc_hd__diode_2
*I *683:DIODE I *D sky130_fd_sc_hd__diode_2
*I *11824:A1 I *D sky130_fd_sc_hd__mux2_2
*I *682:DIODE I *D sky130_fd_sc_hd__diode_2
*I *684:DIODE I *D sky130_fd_sc_hd__diode_2
*I *687:DIODE I *D sky130_fd_sc_hd__diode_2
*I *688:DIODE I *D sky130_fd_sc_hd__diode_2
*I *12134:DO[0] O *D CF_SRAM_1024x32
*CAP
1 *686:DIODE 0
2 *683:DIODE 0
3 *11824:A1 6.85279e-05
4 *682:DIODE 0
5 *684:DIODE 0
6 *687:DIODE 0
7 *688:DIODE 5.22828e-05
8 *12134:DO[0] 0.00210233
9 *218:49 9.51976e-05
10 *218:47 6.6515e-05
11 *218:45 0.000168065
12 *218:43 0.000364972
13 *218:39 0.000203071
14 *218:37 0.000282924
15 *218:29 0.00843914
16 *218:19 0.0103096
17 *688:DIODE *11926:A 4.66108e-05
18 *218:19 *12134:AD[3] 8.89862e-05
19 *218:19 *12134:ScanInCC 0
20 *218:19 *12134:DI[0] 0.000203826
21 *218:19 *225:42 2.13669e-05
22 *218:19 *228:13 2.13669e-05
23 *218:19 *230:19 0.0043277
24 *218:29 *12134:DI[6] 0
25 *218:29 *226:22 0.000567166
26 *218:29 *229:25 0.00598149
27 *218:29 *245:21 0.0200236
28 *218:29 *246:23 0.0055912
29 *218:29 *396:16 0.000569474
30 *218:37 *11837:S 9.72742e-06
31 *218:37 *625:209 0.000103521
32 *218:45 *389:18 8.40269e-05
33 *11824:A0 *11824:A1 4.0092e-05
34 *11824:A0 *218:37 9.08128e-05
35 *11824:A0 *218:39 4.41506e-05
36 *11824:A0 *218:43 9.09914e-05
37 *113:8 *688:DIODE 0.000118081
38 *113:8 *218:45 0.000108886
39 *113:8 *218:47 3.57349e-05
40 *113:8 *218:49 7.14699e-05
*RES
1 *12134:DO[0] *218:19 13.2161
2 *218:19 *218:29 49.2194
3 *218:29 *218:37 4.365
4 *218:37 *218:39 0.795
5 *218:39 *218:43 2.19
6 *218:43 *218:45 2.52
7 *218:45 *218:47 0.45
8 *218:47 *218:49 0.795
9 *218:49 *688:DIODE 2.74
10 *218:49 *687:DIODE 1.6
11 *218:47 *684:DIODE 1.6
12 *218:45 *682:DIODE 1.6
13 *218:43 *11824:A1 2.665
14 *218:39 *683:DIODE 1.6
15 *218:37 *686:DIODE 1.6
*END

*D_NET *219 0.0610619
*CONN
*I *699:DIODE I *D sky130_fd_sc_hd__diode_2
*I *697:DIODE I *D sky130_fd_sc_hd__diode_2
*I *694:DIODE I *D sky130_fd_sc_hd__diode_2
*I *692:DIODE I *D sky130_fd_sc_hd__diode_2
*I *690:DIODE I *D sky130_fd_sc_hd__diode_2
*I *11855:A1 I *D sky130_fd_sc_hd__mux2_1
*I *689:DIODE I *D sky130_fd_sc_hd__diode_2
*I *691:DIODE I *D sky130_fd_sc_hd__diode_2
*I *693:DIODE I *D sky130_fd_sc_hd__diode_2
*I *695:DIODE I *D sky130_fd_sc_hd__diode_2
*I *698:DIODE I *D sky130_fd_sc_hd__diode_2
*I *700:DIODE I *D sky130_fd_sc_hd__diode_2
*I *12134:DO[10] O *D CF_SRAM_1024x32
*CAP
1 *699:DIODE 0
2 *697:DIODE 0
3 *694:DIODE 0
4 *692:DIODE 0
5 *690:DIODE 0
6 *11855:A1 1.8855e-05
7 *689:DIODE 0
8 *691:DIODE 0
9 *693:DIODE 0
10 *695:DIODE 0
11 *698:DIODE 0
12 *700:DIODE 3.44448e-05
13 *12134:DO[10] 0.000679997
14 *219:49 6.72967e-05
15 *219:47 6.57038e-05
16 *219:45 6.50053e-05
17 *219:43 5.55997e-05
18 *219:41 0.000157218
19 *219:39 0.000296215
20 *219:37 0.000209051
21 *219:35 0.000130924
22 *219:33 0.000130924
23 *219:31 9.87383e-05
24 *219:29 0.00982678
25 *219:13 0.0104735
26 *11855:A1 *11855:S 9.13949e-06
27 *219:13 *12134:BEN[9] 0
28 *219:13 *12134:BEN[8] 0.000344017
29 *219:13 *12134:DI[9] 3.97719e-05
30 *219:13 *12134:DI[10] 0
31 *219:13 *12134:DI[8] 1.79536e-05
32 *219:13 *228:13 0.00028744
33 *219:13 *248:27 3.97748e-05
34 *219:13 *249:32 3.97748e-05
35 *219:13 *382:86 0
36 *219:13 *382:88 0.00168383
37 *219:13 *557:112 0.000108205
38 *219:13 *560:411 2.67006e-05
39 *219:29 *12134:DI[7] 0.00877409
40 *219:29 *245:27 0.006796
41 *219:29 *248:27 0.00117464
42 *219:29 *362:10 1.93834e-05
43 *219:29 *560:411 0.0185365
44 *219:39 *11855:S 2.49909e-05
45 *219:41 *11855:S 6.32751e-05
46 *11829:B2 *219:29 4.3606e-06
47 *11855:A0 *700:DIODE 2.01259e-05
48 *11855:A0 *219:45 1.74678e-05
49 *11855:A0 *219:47 2.01259e-05
50 *11855:A0 *219:49 2.01259e-05
51 *122:24 *219:41 2.86975e-05
52 *122:24 *219:43 4.60123e-05
53 *122:24 *219:45 5.83121e-06
54 *134:12 *700:DIODE 8.23457e-05
55 *134:12 *219:41 3.75126e-05
56 *134:12 *219:43 7.26348e-05
57 *134:12 *219:45 7.14699e-05
58 *134:12 *219:47 7.14699e-05
59 *134:12 *219:49 7.14699e-05
60 *153:16 *219:29 0.000196571
*RES
1 *12134:DO[10] *219:13 25.21
2 *219:13 *219:29 45.7022
3 *219:29 *219:31 0.45
4 *219:31 *219:33 0.795
5 *219:33 *219:35 0.795
6 *219:35 *219:37 0.795
7 *219:37 *219:39 1.83
8 *219:39 *219:41 2.175
9 *219:41 *219:43 0.795
10 *219:43 *219:45 0.795
11 *219:45 *219:47 0.795
12 *219:47 *219:49 0.795
13 *219:49 *700:DIODE 2.395
14 *219:49 *698:DIODE 1.6
15 *219:47 *695:DIODE 1.6
16 *219:45 *693:DIODE 1.6
17 *219:43 *691:DIODE 1.6
18 *219:41 *689:DIODE 1.6
19 *219:39 *11855:A1 1.96
20 *219:37 *690:DIODE 1.6
21 *219:35 *692:DIODE 1.6
22 *219:33 *694:DIODE 1.6
23 *219:31 *697:DIODE 1.6
24 *219:29 *699:DIODE 1.6
*END

*D_NET *220 0.04846
*CONN
*I *712:DIODE I *D sky130_fd_sc_hd__diode_2
*I *709:DIODE I *D sky130_fd_sc_hd__diode_2
*I *708:DIODE I *D sky130_fd_sc_hd__diode_2
*I *711:DIODE I *D sky130_fd_sc_hd__diode_2
*I *706:DIODE I *D sky130_fd_sc_hd__diode_2
*I *705:DIODE I *D sky130_fd_sc_hd__diode_2
*I *702:DIODE I *D sky130_fd_sc_hd__diode_2
*I *11858:A1 I *D sky130_fd_sc_hd__mux2_1
*I *701:DIODE I *D sky130_fd_sc_hd__diode_2
*I *703:DIODE I *D sky130_fd_sc_hd__diode_2
*I *704:DIODE I *D sky130_fd_sc_hd__diode_2
*I *710:DIODE I *D sky130_fd_sc_hd__diode_2
*I *12134:DO[11] O *D CF_SRAM_1024x32
*CAP
1 *712:DIODE 0
2 *709:DIODE 0
3 *708:DIODE 0
4 *711:DIODE 0.00017025
5 *706:DIODE 0
6 *705:DIODE 6.7767e-05
7 *702:DIODE 0
8 *11858:A1 0.000216193
9 *701:DIODE 0
10 *703:DIODE 7.49191e-05
11 *704:DIODE 3.44448e-05
12 *710:DIODE 8.10617e-05
13 *12134:DO[11] 0.0167042
14 *220:135 0.000312798
15 *220:133 0.000115557
16 *220:131 0.000118203
17 *220:129 0.000599273
18 *220:90 0.000248971
19 *220:81 0.000107697
20 *220:79 0.000567541
21 *220:68 0.000134513
22 *220:57 0.00142214
23 *220:51 0.00254472
24 *220:15 0.0179622
25 *710:DIODE *12124:DI[7] 7.27298e-06
26 *711:DIODE *12124:DI[6] 4.11678e-06
27 *220:15 *12134:DI[11] 4.00904e-05
28 *220:15 *228:13 0.000221136
29 *220:15 *371:60 0
30 *220:15 *382:20 0
31 *220:15 *382:74 0
32 *220:15 *557:100 0.00011938
33 *220:51 *841:DIODE 8.23457e-05
34 *220:51 *843:DIODE 4.66108e-05
35 *220:51 *11831:S 8.23457e-05
36 *220:51 *11834:S 1.08758e-05
37 *220:51 *221:40 5.83121e-06
38 *220:51 *240:31 0.000175878
39 *220:51 *240:46 8.35106e-05
40 *220:51 *240:62 3.57349e-05
41 *220:51 *240:64 7.14699e-05
42 *220:51 *246:39 6.07575e-06
43 *220:51 *407:16 0.000531687
44 *220:51 *418:16 0.000173517
45 *220:51 *554:57 0.000262696
46 *220:51 *574:16 0.000509641
47 *220:51 *625:26 0.000645605
48 *220:51 *625:109 0.000227599
49 *220:51 *625:174 0.000200885
50 *220:129 *319:34 1.7635e-05
51 *220:129 *382:46 0.000191284
52 *220:129 *577:28 0.000193679
53 *11840:A0 *220:129 7.33639e-05
54 *11843:A0 *220:57 7.23533e-05
55 *11843:A0 *220:68 0.000195918
56 *11843:A0 *220:79 0.00015212
57 *11849:A0 *703:DIODE 5.83121e-06
58 *11849:A0 *11858:A1 0.000109973
59 *11849:A0 *220:90 2.49909e-05
60 *11855:A0 *704:DIODE 2.01259e-05
61 *11927:A *220:51 2.05661e-05
62 *122:24 *220:57 2.10596e-05
63 *125:20 *705:DIODE 2.49909e-05
64 *125:20 *711:DIODE 5.83121e-06
65 *129:10 *711:DIODE 9.37731e-05
66 *134:12 *704:DIODE 8.23457e-05
67 *135:34 *11858:A1 3.00355e-05
68 *135:34 *220:129 0.000284939
69 *136:12 *703:DIODE 1.74678e-05
70 *147:10 *220:51 0.00124819
71 *180:36 *220:51 1.7902e-05
72 *184:8 *711:DIODE 9.5433e-05
73 *203:11 *220:57 7.06865e-05
74 *203:11 *220:68 0.000204449
75 *203:11 *220:79 0.000158309
*RES
1 *12134:DO[11] *220:15 46.9868
2 *220:15 *220:51 47.2325
3 *220:51 *220:57 15.05
4 *220:57 *710:DIODE 4.395
5 *220:57 *220:68 2.4
6 *220:68 *704:DIODE 4.395
7 *220:68 *220:79 1.89
8 *220:79 *220:81 2
9 *220:81 *703:DIODE 2.395
10 *220:81 *220:90 0.45
11 *220:90 *701:DIODE 1.6
12 *220:90 *11858:A1 4.12
13 *220:81 *702:DIODE 1.6
14 *220:79 *220:129 6.70043
15 *220:129 *220:131 0.795
16 *220:131 *220:133 0.45
17 *220:133 *220:135 0.795
18 *220:135 *705:DIODE 2.395
19 *220:135 *706:DIODE 1.6
20 *220:135 *711:DIODE 8.75
21 *220:133 *708:DIODE 1.6
22 *220:131 *709:DIODE 1.6
23 *220:129 *712:DIODE 1.6
*END

*D_NET *221 0.0569036
*CONN
*I *720:DIODE I *D sky130_fd_sc_hd__diode_2
*I *717:DIODE I *D sky130_fd_sc_hd__diode_2
*I *11861:A1 I *D sky130_fd_sc_hd__mux2_2
*I *713:DIODE I *D sky130_fd_sc_hd__diode_2
*I *714:DIODE I *D sky130_fd_sc_hd__diode_2
*I *716:DIODE I *D sky130_fd_sc_hd__diode_2
*I *719:DIODE I *D sky130_fd_sc_hd__diode_2
*I *715:DIODE I *D sky130_fd_sc_hd__diode_2
*I *12134:DO[12] O *D CF_SRAM_1024x32
*CAP
1 *720:DIODE 0
2 *717:DIODE 0
3 *11861:A1 0
4 *713:DIODE 0.000195973
5 *714:DIODE 0
6 *716:DIODE 0
7 *719:DIODE 5.12312e-05
8 *715:DIODE 0
9 *12134:DO[12] 0.0119152
10 *221:73 0.000100869
11 *221:71 0.000143741
12 *221:69 0.000366323
13 *221:67 0.000252915
14 *221:58 0.000255947
15 *221:56 0.000148133
16 *221:54 0.00207879
17 *221:40 0.00325436
18 *221:20 0.0131597
19 *221:4 0
20 *713:DIODE *319:34 0.000160651
21 *221:20 *12134:DI[12] 4.35557e-05
22 *221:20 *228:13 2.09673e-05
23 *221:20 *369:56 0.0151754
24 *221:20 *557:84 3.97748e-05
25 *221:40 *788:DIODE 0.000125684
26 *221:40 *839:DIODE 0.000247266
27 *221:40 *12036:A 0.000259903
28 *221:40 *229:25 3.79555e-05
29 *221:40 *229:27 9.28053e-05
30 *221:40 *240:27 9.89678e-05
31 *221:40 *240:29 0.000181229
32 *221:40 *240:31 0.000282896
33 *221:40 *245:27 8.1689e-05
34 *221:40 *246:39 6.33103e-05
35 *221:40 *248:27 2.9381e-05
36 *221:40 *248:59 0.000189369
37 *221:40 *418:16 0.000145967
38 *221:40 *554:57 0.00168654
39 *221:40 *564:51 0.00111796
40 *221:40 *578:10 0.000396153
41 *221:40 *625:109 3.09164e-05
42 *221:40 *625:174 0.000107027
43 *221:54 *746:DIODE 7.27298e-06
44 *221:54 *225:76 7.07047e-06
45 *221:54 *365:24 0.000235299
46 *221:54 *554:57 0.000248254
47 *221:67 *11861:S 2.05056e-05
48 *221:69 *11861:S 2.75229e-05
49 *11861:A0 *719:DIODE 8.23457e-05
50 *11861:A0 *221:69 3.57349e-05
51 *11861:A0 *221:71 0.00014294
52 *11861:A0 *221:73 7.14699e-05
53 *11927:A *221:40 0.000101145
54 *115:10 *221:54 0.000248254
55 *147:10 *221:54 0.00131497
56 *180:25 *221:40 0.000655598
57 *180:36 *221:40 0.0011608
58 *220:51 *221:40 5.83121e-06
*RES
1 *12134:DO[12] *221:4 0.133636
2 *12134:DO[12] *221:20 45.2728
3 *221:20 *221:40 49.6226
4 *221:40 *221:54 34.4025
5 *221:54 *221:56 0.795
6 *221:56 *221:58 0.795
7 *221:58 *715:DIODE 1.6
8 *221:58 *221:67 2.61
9 *221:67 *221:69 1.14
10 *221:69 *221:71 1.485
11 *221:71 *221:73 0.795
12 *221:73 *719:DIODE 2.395
13 *221:73 *716:DIODE 1.6
14 *221:71 *714:DIODE 1.6
15 *221:69 *713:DIODE 8.285
16 *221:67 *11861:A1 1.6
17 *221:56 *717:DIODE 1.6
18 *221:54 *720:DIODE 1.6
*END

*D_NET *222 0.0543155
*CONN
*I *733:DIODE I *D sky130_fd_sc_hd__diode_2
*I *732:DIODE I *D sky130_fd_sc_hd__diode_2
*I *730:DIODE I *D sky130_fd_sc_hd__diode_2
*I *727:DIODE I *D sky130_fd_sc_hd__diode_2
*I *725:DIODE I *D sky130_fd_sc_hd__diode_2
*I *11864:A1 I *D sky130_fd_sc_hd__mux2_1
*I *721:DIODE I *D sky130_fd_sc_hd__diode_2
*I *722:DIODE I *D sky130_fd_sc_hd__diode_2
*I *724:DIODE I *D sky130_fd_sc_hd__diode_2
*I *726:DIODE I *D sky130_fd_sc_hd__diode_2
*I *728:DIODE I *D sky130_fd_sc_hd__diode_2
*I *731:DIODE I *D sky130_fd_sc_hd__diode_2
*I *723:DIODE I *D sky130_fd_sc_hd__diode_2
*I *12134:DO[13] O *D CF_SRAM_1024x32
*CAP
1 *733:DIODE 7.68406e-05
2 *732:DIODE 0
3 *730:DIODE 0
4 *727:DIODE 0
5 *725:DIODE 0
6 *11864:A1 1.85694e-05
7 *721:DIODE 9.5148e-05
8 *722:DIODE 0
9 *724:DIODE 0
10 *726:DIODE 0
11 *728:DIODE 0
12 *731:DIODE 3.44448e-05
13 *723:DIODE 0
14 *12134:DO[13] 0.0157283
15 *222:54 6.72967e-05
16 *222:52 6.57038e-05
17 *222:50 6.57038e-05
18 *222:48 0.000102702
19 *222:46 0.000193941
20 *222:44 0.000177002
21 *222:35 0.000202046
22 *222:33 0.000141932
23 *222:31 0.000146804
24 *222:29 0.000117099
25 *222:27 0.00330313
26 *222:15 0.0189149
27 *721:DIODE *11864:S 9.14049e-05
28 *721:DIODE *12124:DI[3] 8.51879e-05
29 *721:DIODE *319:34 9.14049e-05
30 *11864:A1 *11864:S 9.53428e-06
31 *222:15 *12134:DI[13] 2.07526e-05
32 *222:15 *228:19 0.000315455
33 *222:15 *231:13 0.000315455
34 *222:15 *369:56 0
35 *222:27 *12134:DI[3] 0.00169551
36 *222:27 *240:27 0.00374736
37 *222:27 *243:17 0.000500236
38 *222:27 *371:26 1.83975e-05
39 *222:27 *393:16 1.7635e-05
40 *222:27 *581:26 0.00722024
41 *222:44 *11864:S 2.75229e-05
42 *222:44 *395:18 3.57349e-05
43 *222:44 *402:20 2.96334e-05
44 *222:46 *11864:S 2.49909e-05
45 *222:46 *395:18 7.14699e-05
46 *222:46 *402:20 1.19928e-05
47 *222:48 *395:18 8.23457e-05
48 *222:48 *402:20 3.64998e-06
49 *11864:A0 *731:DIODE 2.01259e-05
50 *11864:A0 *222:48 3.49355e-05
51 *11864:A0 *222:50 2.01259e-05
52 *11864:A0 *222:52 2.01259e-05
53 *11864:A0 *222:54 2.01259e-05
54 *140:8 *731:DIODE 8.23457e-05
55 *140:8 *222:48 3.57349e-05
56 *140:8 *222:50 7.14699e-05
57 *140:8 *222:52 7.14699e-05
58 *140:8 *222:54 7.14699e-05
*RES
1 *12134:DO[13] *222:15 45.9147
2 *222:15 *222:27 19.1102
3 *222:27 *222:29 0.45
4 *222:29 *222:31 0.795
5 *222:31 *222:33 0.795
6 *222:33 *222:35 0.795
7 *222:35 *723:DIODE 1.6
8 *222:35 *222:44 2.19
9 *222:44 *222:46 0.795
10 *222:46 *222:48 1.485
11 *222:48 *222:50 0.795
12 *222:50 *222:52 0.795
13 *222:52 *222:54 0.795
14 *222:54 *731:DIODE 2.395
15 *222:54 *728:DIODE 1.6
16 *222:52 *726:DIODE 1.6
17 *222:50 *724:DIODE 1.6
18 *222:48 *722:DIODE 1.6
19 *222:46 *721:DIODE 7.52
20 *222:44 *11864:A1 1.96
21 *222:33 *725:DIODE 1.6
22 *222:31 *727:DIODE 1.6
23 *222:29 *730:DIODE 1.6
24 *222:27 *732:DIODE 1.6
25 *222:27 *733:DIODE 2.395
*END

*D_NET *223 0.0576229
*CONN
*I *738:DIODE I *D sky130_fd_sc_hd__diode_2
*I *741:DIODE I *D sky130_fd_sc_hd__diode_2
*I *739:DIODE I *D sky130_fd_sc_hd__diode_2
*I *11867:A1 I *D sky130_fd_sc_hd__mux2_2
*I *735:DIODE I *D sky130_fd_sc_hd__diode_2
*I *737:DIODE I *D sky130_fd_sc_hd__diode_2
*I *736:DIODE I *D sky130_fd_sc_hd__diode_2
*I *734:DIODE I *D sky130_fd_sc_hd__diode_2
*I *12134:DO[14] O *D CF_SRAM_1024x32
*CAP
1 *738:DIODE 0
2 *741:DIODE 7.39586e-05
3 *739:DIODE 0
4 *11867:A1 2.62168e-05
5 *735:DIODE 0
6 *737:DIODE 2.43262e-05
7 *736:DIODE 0
8 *734:DIODE 0.000391989
9 *12134:DO[14] 0.0118594
10 *223:92 0.000114734
11 *223:71 0.000169679
12 *223:69 0.000300707
13 *223:60 0.00021081
14 *223:58 0.000172715
15 *223:45 0.00165871
16 *223:31 0.00271999
17 *223:15 0.013363
18 *734:DIODE *12124:DI[6] 3.68406e-05
19 *223:15 *12134:DI[14] 0.015225
20 *223:15 *228:19 4.01548e-05
21 *223:15 *231:13 4.01548e-05
22 *223:31 *12058:A 0.00026786
23 *223:31 *574:16 0.00226718
24 *223:31 *625:26 0.000713685
25 *223:45 *12019:A 0.000142739
26 *223:45 *319:34 0.00174822
27 *223:45 *360:12 0.000322607
28 *223:45 *362:32 0.00018048
29 *223:45 *369:30 0.000574311
30 *223:45 *382:46 0.000311335
31 *223:58 *12019:A 6.45317e-05
32 *223:58 *12124:DI[6] 6.03272e-05
33 *223:58 *395:18 1.03592e-05
34 *223:69 *11867:S 0.000119866
35 *11843:A0 *223:45 7.54943e-05
36 *11867:A0 *737:DIODE 8.49205e-05
37 *11867:A0 *223:71 0.00018955
38 *120:16 *223:45 0.000700357
39 *120:18 *223:45 3.72765e-05
40 *122:24 *223:45 0.000457426
41 *122:24 *223:58 0.0001752
42 *124:12 *223:45 0.000405944
43 *124:14 *223:45 0.000437948
44 *142:16 *737:DIODE 3.1835e-05
45 *142:16 *223:71 2.39856e-05
46 *147:10 *223:31 0.000255338
47 *148:12 *223:31 0.00151592
48 *180:25 *223:31 1.97849e-05
*RES
1 *12134:DO[14] *223:15 44.5885
2 *223:15 *223:31 45.2975
3 *223:31 *223:45 41.38
4 *223:45 *734:DIODE 7.5
5 *223:45 *223:58 4.145
6 *223:58 *223:60 0.795
7 *223:60 *736:DIODE 1.6
8 *223:60 *223:69 2.355
9 *223:69 *223:71 2.52
10 *223:71 *737:DIODE 2.395
11 *223:71 *735:DIODE 1.6
12 *223:69 *11867:A1 1.96
13 *223:58 *223:92 0.45
14 *223:92 *739:DIODE 1.6
15 *223:92 *741:DIODE 2.395
16 *223:58 *738:DIODE 1.6
*END

*D_NET *224 0.0617513
*CONN
*I *11870:A1 I *D sky130_fd_sc_hd__mux2_2
*I *742:DIODE I *D sky130_fd_sc_hd__diode_2
*I *743:DIODE I *D sky130_fd_sc_hd__diode_2
*I *12134:DO[15] O *D CF_SRAM_1024x32
*CAP
1 *11870:A1 0.000133653
2 *742:DIODE 0.000100849
3 *743:DIODE 3.76639e-05
4 *12134:DO[15] 0.0123591
5 *224:38 0.000335722
6 *224:25 0.00458986
7 *224:23 0.00563742
8 *224:15 0.0135455
9 *11870:A1 *400:30 6.3124e-06
10 *224:15 *12134:DI[15] 0.0147872
11 *224:15 *228:19 4.13736e-05
12 *224:15 *231:13 4.13736e-05
13 *224:23 *12124:EN 4.14369e-05
14 *224:23 *12124:DI[13] 0.0002049
15 *224:23 *12134:DI[14] 1.7635e-05
16 *224:23 *627:31 2.88529e-05
17 *224:23 *632:48 0.00104166
18 *224:23 *634:8 4.66108e-05
19 *224:23 *634:10 0.000146463
20 *224:23 *634:16 0.000528823
21 *224:25 *577:28 0.00052773
22 *11870:A0 *742:DIODE 6.33103e-05
23 *11870:A0 *11870:A1 4.41506e-05
24 *181:18 *224:25 0.000781842
25 *196:19 *224:25 0.00626437
26 *196:19 *224:38 0.00012711
27 *203:11 *224:25 1.73598e-05
28 *203:17 *224:25 0.000253071
*RES
1 *12134:DO[15] *224:15 45.4775
2 *224:15 *224:23 25.8775
3 *224:23 *224:25 76.095
4 *224:25 *743:DIODE 4.05
5 *224:25 *224:38 3.635
6 *224:38 *742:DIODE 2.74
7 *224:38 *11870:A1 3.085
*END

*D_NET *225 0.0477717
*CONN
*I *11873:A1 I *D sky130_fd_sc_hd__mux2_1
*I *744:DIODE I *D sky130_fd_sc_hd__diode_2
*I *745:DIODE I *D sky130_fd_sc_hd__diode_2
*I *747:DIODE I *D sky130_fd_sc_hd__diode_2
*I *749:DIODE I *D sky130_fd_sc_hd__diode_2
*I *754:DIODE I *D sky130_fd_sc_hd__diode_2
*I *756:DIODE I *D sky130_fd_sc_hd__diode_2
*I *755:DIODE I *D sky130_fd_sc_hd__diode_2
*I *750:DIODE I *D sky130_fd_sc_hd__diode_2
*I *746:DIODE I *D sky130_fd_sc_hd__diode_2
*I *748:DIODE I *D sky130_fd_sc_hd__diode_2
*I *753:DIODE I *D sky130_fd_sc_hd__diode_2
*I *12134:DO[16] O *D CF_SRAM_1024x32
*CAP
1 *11873:A1 0
2 *744:DIODE 0
3 *745:DIODE 0
4 *747:DIODE 0
5 *749:DIODE 0
6 *754:DIODE 0
7 *756:DIODE 4.24276e-05
8 *755:DIODE 0
9 *750:DIODE 0
10 *746:DIODE 8.10617e-05
11 *748:DIODE 8.44579e-05
12 *753:DIODE 0
13 *12134:DO[16] 0.00079858
14 *225:107 0.000139135
15 *225:105 0.0001478
16 *225:103 0.000102185
17 *225:101 0.000102185
18 *225:99 0.000197005
19 *225:97 0.000214202
20 *225:76 0.000155848
21 *225:74 0.000104921
22 *225:70 0.00019032
23 *225:54 0.000674312
24 *225:46 0.0169309
25 *225:42 0.0170285
26 *225:30 0.00138725
27 *225:4 6.9367e-06
28 *756:DIODE *11873:S 5.06989e-05
29 *225:30 *12134:AD[0] 3.97748e-05
30 *225:30 *12134:AD[2] 8.38995e-05
31 *225:30 *12134:ScanInDR 0.000193801
32 *225:30 *12134:AD[6] 7.39642e-05
33 *225:30 *12134:AD[7] 2.07638e-05
34 *225:30 *12134:AD[9] 9.48119e-06
35 *225:30 *12134:ScanInCC 0
36 *225:30 *12134:DI[16] 2.43094e-05
37 *225:30 *226:16 0.000451592
38 *225:30 *228:11 0.000534354
39 *225:30 *228:13 7.80498e-05
40 *225:30 *382:88 0.00158886
41 *225:42 *12134:AD[3] 1.4256e-05
42 *225:42 *12134:AD[6] 6.02792e-05
43 *225:42 *12134:BEN[0] 0.000704994
44 *225:42 *12134:DI[0] 1.56781e-05
45 *225:42 *12134:DI[1] 1.68159e-05
46 *225:42 *12134:DI[2] 1.79536e-05
47 *225:42 *228:13 0.00118253
48 *225:42 *229:19 2.25046e-05
49 *225:42 *240:17 1.79536e-05
50 *225:42 *382:88 0.000425694
51 *225:42 *560:485 0.000499968
52 *225:46 *12134:DI[2] 0
53 *225:46 *243:17 0
54 *225:54 *226:22 0.00102277
55 *225:54 *396:16 0.00102508
56 *225:70 *418:16 0.000249337
57 *225:74 *418:16 9.37731e-05
58 *225:99 *11873:S 9.57985e-05
59 *225:101 *11873:S 4.41506e-05
60 *225:103 *11873:S 4.41506e-05
61 *225:105 *11873:S 4.41506e-05
62 *225:107 *11873:S 8.43255e-05
63 *11873:A0 *225:97 0.000118081
64 *11873:A0 *225:99 4.66108e-05
65 *115:10 *225:70 0.000257869
66 *115:10 *225:74 9.37731e-05
67 *218:19 *225:42 2.13669e-05
68 *221:54 *746:DIODE 7.27298e-06
69 *221:54 *225:76 7.07047e-06
*RES
1 *12134:DO[16] *225:4 0.12
2 *12134:DO[16] *225:30 32.04
3 *225:30 *225:42 25.8125
4 *225:42 *225:46 40.5672
5 *225:46 *225:54 17.2775
6 *225:54 *753:DIODE 1.6
7 *225:54 *748:DIODE 2.395
8 *225:54 *225:70 5.165
9 *225:70 *225:74 3.125
10 *225:74 *225:76 0.795
11 *225:76 *746:DIODE 2.395
12 *225:76 *750:DIODE 1.6
13 *225:74 *755:DIODE 1.6
14 *225:70 *225:97 3.14
15 *225:97 *225:99 2.175
16 *225:99 *225:101 0.795
17 *225:101 *225:103 0.795
18 *225:103 *225:105 0.795
19 *225:105 *225:107 1.485
20 *225:107 *756:DIODE 2.395
21 *225:107 *754:DIODE 1.6
22 *225:105 *749:DIODE 1.6
23 *225:103 *747:DIODE 1.6
24 *225:101 *745:DIODE 1.6
25 *225:99 *744:DIODE 1.6
26 *225:97 *11873:A1 1.6
*END

*D_NET *226 0.0624377
*CONN
*I *766:DIODE I *D sky130_fd_sc_hd__diode_2
*I *762:DIODE I *D sky130_fd_sc_hd__diode_2
*I *768:DIODE I *D sky130_fd_sc_hd__diode_2
*I *765:DIODE I *D sky130_fd_sc_hd__diode_2
*I *760:DIODE I *D sky130_fd_sc_hd__diode_2
*I *757:DIODE I *D sky130_fd_sc_hd__diode_2
*I *758:DIODE I *D sky130_fd_sc_hd__diode_2
*I *759:DIODE I *D sky130_fd_sc_hd__diode_2
*I *761:DIODE I *D sky130_fd_sc_hd__diode_2
*I *764:DIODE I *D sky130_fd_sc_hd__diode_2
*I *767:DIODE I *D sky130_fd_sc_hd__diode_2
*I *769:DIODE I *D sky130_fd_sc_hd__diode_2
*I *11876:A1 I *D sky130_fd_sc_hd__mux2_1
*I *12134:DO[17] O *D CF_SRAM_1024x32
*CAP
1 *766:DIODE 0
2 *762:DIODE 8.44579e-05
3 *768:DIODE 0
4 *765:DIODE 0
5 *760:DIODE 0
6 *757:DIODE 8.44579e-05
7 *758:DIODE 0
8 *759:DIODE 0
9 *761:DIODE 0
10 *764:DIODE 0
11 *767:DIODE 0
12 *769:DIODE 7.06355e-05
13 *11876:A1 0
14 *12134:DO[17] 0.000422497
15 *226:113 0.000330709
16 *226:87 0.00015948
17 *226:85 0.000155356
18 *226:83 0.000354488
19 *226:47 0.000192723
20 *226:45 0.000179083
21 *226:43 0.000114942
22 *226:41 0.000124426
23 *226:39 0.000204314
24 *226:30 0.000313895
25 *226:28 0.000622277
26 *226:22 0.0025399
27 *226:20 0.0158127
28 *226:16 0.0141058
29 *226:4 7.80379e-06
30 *226:16 *12134:WLBI 0.000158066
31 *226:16 *228:11 0.00113988
32 *226:16 *382:88 0.000238318
33 *226:16 *426:16 0
34 *226:16 *426:36 0
35 *226:16 *547:52 8.33742e-05
36 *226:16 *547:64 0.00018445
37 *226:20 *12134:AD[0] 0
38 *226:22 *11837:A1 0.000526823
39 *226:22 *246:39 0.000990378
40 *226:22 *396:16 0.00309277
41 *226:28 *396:16 0.000136151
42 *226:30 *11876:S 4.7242e-05
43 *226:30 *625:26 0.000226961
44 *226:39 *11876:S 2.76811e-05
45 *226:83 *625:26 0
46 *12134:R_WB *226:20 0.00574118
47 *131:20 *226:22 0.00156111
48 *200:11 *226:22 0.0101249
49 *200:11 *226:28 0.000236974
50 *218:29 *226:22 0.000567166
51 *225:30 *226:16 0.000451592
52 *225:54 *226:22 0.00102277
*RES
1 *12134:DO[17] *226:4 0.135
2 *12134:DO[17] *226:16 17.4775
3 *226:16 *226:20 40.5089
4 *226:20 *226:22 114.473
5 *226:22 *226:28 6.83
6 *226:28 *226:30 3.21
7 *226:30 *11876:A1 1.6
8 *226:30 *226:39 1.845
9 *226:39 *226:41 0.795
10 *226:41 *226:43 0.795
11 *226:43 *226:45 0.795
12 *226:45 *226:47 1.485
13 *226:47 *769:DIODE 2.395
14 *226:47 *767:DIODE 1.6
15 *226:45 *764:DIODE 1.6
16 *226:43 *761:DIODE 1.6
17 *226:41 *759:DIODE 1.6
18 *226:39 *758:DIODE 1.6
19 *226:28 *226:83 3.465
20 *226:83 *226:85 0.795
21 *226:85 *226:87 0.795
22 *226:87 *757:DIODE 2.395
23 *226:87 *760:DIODE 1.6
24 *226:85 *765:DIODE 1.6
25 *226:83 *768:DIODE 1.6
26 *226:22 *226:113 5.555
27 *226:113 *762:DIODE 2.395
28 *226:113 *766:DIODE 1.6
*END

*D_NET *227 0.0784035
*CONN
*I *777:DIODE I *D sky130_fd_sc_hd__diode_2
*I *776:DIODE I *D sky130_fd_sc_hd__diode_2
*I *775:DIODE I *D sky130_fd_sc_hd__diode_2
*I *772:DIODE I *D sky130_fd_sc_hd__diode_2
*I *770:DIODE I *D sky130_fd_sc_hd__diode_2
*I *11879:A1 I *D sky130_fd_sc_hd__mux2_1
*I *778:DIODE I *D sky130_fd_sc_hd__diode_2
*I *779:DIODE I *D sky130_fd_sc_hd__diode_2
*I *771:DIODE I *D sky130_fd_sc_hd__diode_2
*I *773:DIODE I *D sky130_fd_sc_hd__diode_2
*I *12134:DO[18] O *D CF_SRAM_1024x32
*CAP
1 *777:DIODE 0
2 *776:DIODE 0
3 *775:DIODE 0
4 *772:DIODE 5.8396e-05
5 *770:DIODE 0
6 *11879:A1 0
7 *778:DIODE 0
8 *779:DIODE 0
9 *771:DIODE 0
10 *773:DIODE 6.02429e-05
11 *12134:DO[18] 0.00739377
12 *227:82 0.000164941
13 *227:75 0.000286374
14 *227:45 0.000144757
15 *227:39 0.000144919
16 *227:37 0.000144387
17 *227:35 0.000348071
18 *227:33 0.000141018
19 *227:31 0.00013864
20 *227:29 0.00139194
21 *227:27 0.0107779
22 *227:19 0.0168617
23 *772:DIODE *625:78 3.04704e-05
24 *773:DIODE *625:65 8.57024e-05
25 *227:19 *12134:DI[18] 0
26 *227:19 *228:11 0.000244794
27 *227:19 *230:19 0.0161667
28 *227:19 *231:13 0.000244794
29 *227:19 *233:19 0
30 *227:27 *228:23 0.000596527
31 *227:27 *230:25 0
32 *227:27 *231:19 0.000167586
33 *227:27 *231:21 0.00112313
34 *227:27 *232:27 0
35 *227:27 *234:27 0
36 *227:27 *235:25 0.00569741
37 *227:27 *441:14 0
38 *227:27 *547:18 5.20496e-06
39 *227:27 *598:20 0.000184566
40 *227:29 *12016:A 0.000234656
41 *227:29 *584:18 0.00084627
42 *227:31 *584:18 6.60042e-05
43 *227:33 *584:18 4.40028e-05
44 *227:35 *584:18 6.50242e-05
45 *227:37 *584:18 6.6564e-05
46 *227:39 *584:18 5.05521e-05
47 *227:75 *625:65 0.000124471
48 *227:82 *625:65 7.50252e-05
49 *227:82 *625:78 3.04704e-05
50 *11880:B2 *227:45 8.53113e-06
51 *12134:CLKin *227:19 0.000174699
52 *111:16 *227:27 0.00032736
53 *149:49 *227:75 7.23533e-05
54 *151:26 *227:27 0.000386527
55 *155:26 *227:27 0.00144744
56 *157:26 *227:27 0.000381347
57 *159:28 *227:27 0.000166206
58 *168:20 *227:27 0.00178872
59 *168:22 *227:27 0.00307574
60 *174:14 *227:27 0.000981656
61 *198:23 *227:45 0.000180682
62 *201:23 *227:27 0
63 *203:27 *227:27 0.000199894
64 *204:31 *227:29 0.000334366
65 *207:19 *227:27 0.00185136
66 *210:17 *227:27 0.00281968
*RES
1 *12134:DO[18] *227:19 37.1818
2 *227:19 *227:27 35.1979
3 *227:27 *227:29 18.045
4 *227:29 *227:31 1.14
5 *227:31 *227:33 0.795
6 *227:33 *227:35 1.14
7 *227:35 *227:37 1.14
8 *227:37 *227:39 0.795
9 *227:39 *227:45 6.145
10 *227:45 *773:DIODE 2.395
11 *227:45 *771:DIODE 1.6
12 *227:39 *779:DIODE 1.6
13 *227:37 *778:DIODE 1.6
14 *227:35 *227:75 7.285
15 *227:75 *11879:A1 1.6
16 *227:75 *227:82 1.485
17 *227:82 *770:DIODE 1.6
18 *227:82 *772:DIODE 2.395
19 *227:33 *775:DIODE 1.6
20 *227:31 *776:DIODE 1.6
21 *227:29 *777:DIODE 1.6
*END

*D_NET *228 0.0663737
*CONN
*I *784:DIODE I *D sky130_fd_sc_hd__diode_2
*I *783:DIODE I *D sky130_fd_sc_hd__diode_2
*I *782:DIODE I *D sky130_fd_sc_hd__diode_2
*I *781:DIODE I *D sky130_fd_sc_hd__diode_2
*I *786:DIODE I *D sky130_fd_sc_hd__diode_2
*I *787:DIODE I *D sky130_fd_sc_hd__diode_2
*I *780:DIODE I *D sky130_fd_sc_hd__diode_2
*I *11882:A1 I *D sky130_fd_sc_hd__mux2_1
*I *12134:DO[19] O *D CF_SRAM_1024x32
*CAP
1 *784:DIODE 0
2 *783:DIODE 0
3 *782:DIODE 0
4 *781:DIODE 0
5 *786:DIODE 0
6 *787:DIODE 5.12312e-05
7 *780:DIODE 0.000114666
8 *11882:A1 0
9 *12134:DO[19] 0.0011756
10 *228:59 0.000123967
11 *228:57 0.000111449
12 *228:43 0.00017543
13 *228:37 0.000142349
14 *228:35 7.80967e-05
15 *228:33 0.00179377
16 *228:25 0.0031563
17 *228:23 0.00209926
18 *228:19 0.00170097
19 *228:13 0.00335322
20 *228:11 0.00352936
21 *780:DIODE *625:78 4.77719e-05
22 *780:DIODE *625:91 4.52072e-05
23 *787:DIODE *12016:A 8.23457e-05
24 *228:11 *12134:AD[0] 3.97748e-05
25 *228:11 *12134:AD[1] 1.31182e-05
26 *228:11 *12134:AD[2] 8.21058e-05
27 *228:11 *12134:AD[4] 1.79536e-05
28 *228:11 *12134:AD[5] 1.31182e-05
29 *228:11 *12134:DI[16] 4.07642e-05
30 *228:11 *231:13 0.00185665
31 *228:11 *426:36 1.79483e-05
32 *228:11 *432:38 1.79483e-05
33 *228:11 *443:24 0
34 *228:11 *443:44 0
35 *228:11 *547:64 0.00019245
36 *228:11 *547:76 0.000382763
37 *228:11 *547:88 0.000178151
38 *228:13 *12134:BEN[8] 0.000714051
39 *228:13 *12134:AD[3] 1.4256e-05
40 *228:13 *12134:AD[6] 1.96564e-05
41 *228:13 *12134:AD[7] 2.07638e-05
42 *228:13 *12134:AD[8] 8.91298e-05
43 *228:13 *12134:AD[9] 3.6138e-05
44 *228:13 *12134:DI[3] 1.90914e-05
45 *228:13 *12134:DI[0] 1.56781e-05
46 *228:13 *12134:DI[4] 7.91692e-05
47 *228:13 *12134:DI[5] 0.000104205
48 *228:13 *12134:DI[1] 1.68159e-05
49 *228:13 *12134:DI[6] 2.25046e-05
50 *228:13 *12134:DI[2] 1.79536e-05
51 *228:13 *12134:DI[7] 8.41703e-06
52 *228:13 *12134:DI[8] 8.41703e-06
53 *228:13 *229:19 2.25046e-05
54 *228:13 *231:13 0.00953496
55 *228:13 *243:17 8.41703e-06
56 *228:13 *244:15 6.82488e-05
57 *228:13 *245:21 0.000190348
58 *228:13 *246:23 8.41703e-06
59 *228:13 *247:29 2.09673e-05
60 *228:13 *248:27 2.09673e-05
61 *228:13 *369:56 2.09673e-05
62 *228:13 *371:60 8.41703e-06
63 *228:13 *557:84 0.000176086
64 *228:13 *557:100 0.000203694
65 *228:13 *557:112 0.000729592
66 *228:13 *560:411 8.24845e-05
67 *228:13 *560:425 0.00023589
68 *228:13 *560:437 0.000285582
69 *228:13 *560:449 0.000132869
70 *228:13 *560:461 0.000233003
71 *228:13 *560:473 0.000275624
72 *228:13 *560:485 3.84048e-05
73 *228:19 *12134:DI[14] 3.97748e-05
74 *228:19 *12134:DI[15] 2.24992e-05
75 *228:19 *12134:DI[13] 3.91191e-05
76 *228:19 *231:13 0.00137426
77 *228:19 *552:16 0
78 *228:19 *557:38 3.30483e-05
79 *228:19 *557:50 0.000394219
80 *228:19 *557:62 0.000308779
81 *228:19 *557:72 0.000360737
82 *228:19 *557:84 0.000125127
83 *228:23 *12134:vpwrac 0.00180087
84 *228:23 *231:19 0.00111065
85 *228:25 *231:21 0.00900385
86 *228:25 *235:25 0.000746564
87 *228:33 *12016:A 0.000393024
88 *228:33 *231:25 0
89 *228:33 *231:64 2.36616e-05
90 *228:33 *231:66 3.83995e-05
91 *228:35 *12016:A 8.696e-05
92 *228:37 *12016:A 8.35106e-05
93 *228:43 *441:14 9.08126e-05
94 *228:57 *12016:A 8.52845e-05
95 *228:59 *12016:A 0.000160314
96 *874:DIODE *228:33 3.23663e-05
97 *12134:CLKin *228:11 3.97748e-05
98 *12134:R_WB *228:11 4.56611e-05
99 *111:16 *228:25 0.0030422
100 *153:119 *228:33 5.81172e-05
101 *153:126 *228:33 2.9972e-05
102 *155:33 *228:33 1.33293e-05
103 *155:37 *228:33 0.000131658
104 *155:41 *228:33 0
105 *168:22 *228:25 0.000204566
106 *174:14 *228:23 0.00448023
107 *174:14 *228:25 0.00216209
108 *207:19 *228:25 0.000701824
109 *210:17 *228:25 0.000269038
110 *218:19 *228:13 2.13669e-05
111 *219:13 *228:13 0.00028744
112 *220:15 *228:13 0.000221136
113 *221:20 *228:13 2.09673e-05
114 *222:15 *228:19 0.000315455
115 *223:15 *228:19 4.01548e-05
116 *224:15 *228:19 4.13736e-05
117 *225:30 *228:11 0.000534354
118 *225:30 *228:13 7.80498e-05
119 *225:42 *228:13 0.00118253
120 *226:16 *228:11 0.00113988
121 *227:19 *228:11 0.000244794
122 *227:27 *228:23 0.000596527
*RES
1 *12134:DO[19] *228:11 46.0325
2 *228:11 *228:13 108.78
3 *228:13 *228:19 35.7125
4 *228:19 *228:23 41.0025
5 *228:23 *228:25 83.0775
6 *228:25 *228:33 31.69
7 *228:33 *228:35 0.795
8 *228:35 *228:37 0.795
9 *228:37 *228:43 5.125
10 *228:43 *11882:A1 1.6
11 *228:43 *780:DIODE 3.085
12 *228:37 *228:57 0.795
13 *228:57 *228:59 1.485
14 *228:59 *787:DIODE 2.395
15 *228:59 *786:DIODE 1.6
16 *228:57 *781:DIODE 1.6
17 *228:37 *782:DIODE 1.6
18 *228:35 *783:DIODE 1.6
19 *228:33 *784:DIODE 1.6
*END

*D_NET *229 0.0503016
*CONN
*I *11828:A1 I *D sky130_fd_sc_hd__mux2_2
*I *789:DIODE I *D sky130_fd_sc_hd__diode_2
*I *788:DIODE I *D sky130_fd_sc_hd__diode_2
*I *12134:DO[1] O *D CF_SRAM_1024x32
*CAP
1 *11828:A1 6.52939e-05
2 *789:DIODE 0.000155316
3 *788:DIODE 0.00022158
4 *12134:DO[1] 0.0114617
5 *229:27 0.000409135
6 *229:25 0.00314366
7 *229:19 0.0145078
8 *788:DIODE *248:31 7.27298e-06
9 *788:DIODE *248:39 7.27298e-06
10 *788:DIODE *418:16 0.000151064
11 *789:DIODE *848:DIODE 0.000153816
12 *789:DIODE *248:46 2.01259e-05
13 *789:DIODE *248:59 2.88598e-05
14 *11828:A1 *625:178 3.57349e-05
15 *11828:A1 *625:180 4.66108e-05
16 *229:19 *12134:BEN[0] 0
17 *229:19 *12134:DI[1] 0.0117278
18 *229:19 *245:21 2.06223e-06
19 *229:25 *12074:A 0.000104095
20 *229:25 *12134:DI[6] 0
21 *229:25 *248:59 4.36573e-06
22 *229:25 *248:76 5.75242e-06
23 *229:25 *418:16 0.000864791
24 *229:27 *418:16 8.24798e-05
25 *115:10 *229:25 0.000812074
26 *218:29 *229:25 0.00598149
27 *221:40 *788:DIODE 0.000125684
28 *221:40 *229:25 3.79555e-05
29 *221:40 *229:27 9.28053e-05
30 *225:42 *229:19 2.25046e-05
31 *228:13 *229:19 2.25046e-05
*RES
1 *12134:DO[1] *229:19 42.2986
2 *229:19 *229:25 20.2421
3 *229:25 *229:27 1.125
4 *229:27 *788:DIODE 6.975
5 *229:27 *789:DIODE 6.12
6 *229:25 *11828:A1 4.395
*END

*D_NET *230 0.0713715
*CONN
*I *790:DIODE I *D sky130_fd_sc_hd__diode_2
*I *11885:A1 I *D sky130_fd_sc_hd__mux2_1
*I *12134:DO[20] O *D CF_SRAM_1024x32
*CAP
1 *790:DIODE 0
2 *11885:A1 0.000185046
3 *12134:DO[20] 0.00764552
4 *230:25 0.00492446
5 *230:19 0.0123849
6 *230:19 *12134:DI[20] 2.27732e-05
7 *230:19 *231:13 0.000348668
8 *230:19 *233:19 0
9 *230:19 *443:44 0
10 *230:19 *547:88 5.05066e-06
11 *230:19 *547:100 0.000142361
12 *230:25 *232:27 0.0108381
13 *230:25 *233:27 0.0107554
14 *230:25 *474:14 0.000129461
15 *230:25 *547:18 0
16 *230:25 *627:35 0.000359493
17 *114:19 *11885:A1 8.43191e-05
18 *153:24 *11885:A1 2.99518e-06
19 *153:24 *230:25 3.16057e-06
20 *153:26 *11885:A1 6.23762e-05
21 *153:28 *11885:A1 6.53508e-05
22 *156:20 *11885:A1 9.94994e-05
23 *159:28 *230:25 5.93515e-05
24 *182:19 *230:25 0.000488543
25 *203:31 *11885:A1 0.000385725
26 *203:31 *230:25 0.000139862
27 *204:31 *230:25 0.000915888
28 *205:31 *230:25 0.000354859
29 *206:39 *230:25 0.000119028
30 *209:17 *230:25 0.000354859
31 *218:19 *230:19 0.0043277
32 *227:19 *230:19 0.0161667
33 *227:27 *230:25 0
*RES
1 *12134:DO[20] *230:19 41.4744
2 *230:19 *230:25 24.1796
3 *230:25 *11885:A1 9.09
4 *230:25 *790:DIODE 3.6
*END

*D_NET *231 0.0589573
*CONN
*I *795:DIODE I *D sky130_fd_sc_hd__diode_2
*I *794:DIODE I *D sky130_fd_sc_hd__diode_2
*I *793:DIODE I *D sky130_fd_sc_hd__diode_2
*I *792:DIODE I *D sky130_fd_sc_hd__diode_2
*I *797:DIODE I *D sky130_fd_sc_hd__diode_2
*I *798:DIODE I *D sky130_fd_sc_hd__diode_2
*I *799:DIODE I *D sky130_fd_sc_hd__diode_2
*I *800:DIODE I *D sky130_fd_sc_hd__diode_2
*I *791:DIODE I *D sky130_fd_sc_hd__diode_2
*I *11888:A1 I *D sky130_fd_sc_hd__mux2_1
*I *12134:DO[21] O *D CF_SRAM_1024x32
*CAP
1 *795:DIODE 0
2 *794:DIODE 0
3 *793:DIODE 0
4 *792:DIODE 0
5 *797:DIODE 0
6 *798:DIODE 0
7 *799:DIODE 5.43981e-05
8 *800:DIODE 0.000167512
9 *791:DIODE 0
10 *11888:A1 0.000161257
11 *12134:DO[21] 0.000204237
12 *231:68 0.000108118
13 *231:66 0.000164751
14 *231:64 0.000173574
15 *231:62 0.000133094
16 *231:60 0.000143385
17 *231:58 7.28348e-05
18 *231:29 0.000302506
19 *231:27 0.000443604
20 *231:25 0.000635475
21 *231:21 0.00343484
22 *231:19 0.00452406
23 *231:13 0.0105011
24 *231:11 0.0091155
25 *800:DIODE *385:16 5.70774e-05
26 *231:11 *12134:DI[21] 0
27 *231:11 *232:15 0.00021329
28 *231:11 *547:116 0.000138201
29 *231:13 *12134:AD[1] 1.31182e-05
30 *231:13 *12134:AD[4] 1.79536e-05
31 *231:13 *12134:AD[5] 1.31182e-05
32 *231:13 *12134:DI[15] 2.24992e-05
33 *231:13 *12134:DI[16] 4.07642e-05
34 *231:13 *12134:DI[20] 2.19304e-05
35 *231:13 *426:36 1.79483e-05
36 *231:13 *432:38 1.79483e-05
37 *231:13 *443:44 1.79483e-05
38 *231:13 *547:88 0
39 *231:13 *547:100 0
40 *231:13 *547:116 0
41 *231:19 *12134:vpwrpc 0.00156783
42 *231:19 *12134:vpwrac 9.1436e-05
43 *231:21 *235:25 0.000685997
44 *1029:DIODE *800:DIODE 4.99619e-05
45 *12134:R_WB *231:13 4.56611e-05
46 *114:19 *11888:A1 0.000159321
47 *155:37 *799:DIODE 8.8266e-05
48 *155:37 *231:66 3.66286e-05
49 *155:37 *231:68 7.66083e-05
50 *155:41 *231:27 0
51 *155:41 *231:29 0
52 *155:43 *231:29 0
53 *155:56 *11888:A1 0
54 *155:56 *231:29 0
55 *157:26 *231:25 0
56 *158:20 *11888:A1 0
57 *222:15 *231:13 0.000315455
58 *223:15 *231:13 4.01548e-05
59 *224:15 *231:13 4.13736e-05
60 *227:19 *231:13 0.000244794
61 *227:27 *231:19 0.000167586
62 *227:27 *231:21 0.00112313
63 *228:11 *231:13 0.00185665
64 *228:13 *231:13 0.00953496
65 *228:19 *231:13 0.00137426
66 *228:23 *231:19 0.00111065
67 *228:25 *231:21 0.00900385
68 *228:33 *231:25 0
69 *228:33 *231:64 2.36616e-05
70 *228:33 *231:66 3.83995e-05
71 *230:19 *231:13 0.000348668
*RES
1 *12134:DO[21] *231:11 6.8075
2 *231:11 *231:13 197.092
3 *231:13 *231:19 42.3125
4 *231:19 *231:21 81.6975
5 *231:21 *231:25 9.5
6 *231:25 *231:27 2.145
7 *231:27 *231:29 2.145
8 *231:29 *11888:A1 6.21
9 *231:29 *791:DIODE 3.6
10 *231:27 *800:DIODE 5.775
11 *231:25 *231:58 2
12 *231:58 *231:60 0.795
13 *231:60 *231:62 0.795
14 *231:62 *231:64 0.795
15 *231:64 *231:66 1.485
16 *231:66 *231:68 0.795
17 *231:68 *799:DIODE 2.395
18 *231:68 *798:DIODE 1.6
19 *231:66 *797:DIODE 1.6
20 *231:64 *792:DIODE 1.6
21 *231:62 *793:DIODE 1.6
22 *231:60 *794:DIODE 1.6
23 *231:58 *795:DIODE 1.6
*END

*D_NET *232 0.0660461
*CONN
*I *805:DIODE I *D sky130_fd_sc_hd__diode_2
*I *804:DIODE I *D sky130_fd_sc_hd__diode_2
*I *803:DIODE I *D sky130_fd_sc_hd__diode_2
*I *802:DIODE I *D sky130_fd_sc_hd__diode_2
*I *810:DIODE I *D sky130_fd_sc_hd__diode_2
*I *11891:A1 I *D sky130_fd_sc_hd__mux2_1
*I *801:DIODE I *D sky130_fd_sc_hd__diode_2
*I *806:DIODE I *D sky130_fd_sc_hd__diode_2
*I *808:DIODE I *D sky130_fd_sc_hd__diode_2
*I *809:DIODE I *D sky130_fd_sc_hd__diode_2
*I *12134:DO[22] O *D CF_SRAM_1024x32
*CAP
1 *805:DIODE 0
2 *804:DIODE 0
3 *803:DIODE 0
4 *802:DIODE 0
5 *810:DIODE 0
6 *11891:A1 2.35055e-05
7 *801:DIODE 1.91773e-05
8 *806:DIODE 0
9 *808:DIODE 0
10 *809:DIODE 6.21999e-05
11 *12134:DO[22] 0.00172336
12 *232:64 0.000170767
13 *232:60 0.000229083
14 *232:39 0.000120638
15 *232:37 0.000143442
16 *232:35 0.000218274
17 *232:33 8.59921e-05
18 *232:31 0.000112159
19 *232:29 0.000113281
20 *232:27 0.00297275
21 *232:19 0.0110524
22 *232:15 0.00985782
23 *232:15 *12134:DI[22] 0
24 *232:15 *12134:DI[20] 0
25 *232:15 *454:30 0
26 *232:15 *547:116 0.000152342
27 *232:15 *547:132 0.000240499
28 *232:19 *235:19 0.0184928
29 *232:19 *449:22 0.000502716
30 *232:27 *234:27 0.00732952
31 *232:27 *627:41 5.9361e-05
32 *232:60 *627:41 0
33 *232:64 *627:41 0
34 *1069:DIODE *232:29 7.66083e-05
35 *1069:DIODE *232:31 7.40446e-05
36 *1069:DIODE *232:33 7.66083e-05
37 *1069:DIODE *232:35 3.74161e-05
38 *1069:DIODE *232:37 8.49205e-05
39 *114:19 *801:DIODE 0.00012306
40 *114:19 *11891:A1 0.000110226
41 *157:37 *809:DIODE 8.40269e-05
42 *157:37 *232:37 3.66286e-05
43 *157:37 *232:39 7.40446e-05
44 *157:43 *232:60 8.68724e-05
45 *157:43 *232:64 5.53249e-06
46 *157:51 *232:64 0.000112105
47 *159:28 *232:27 8.33184e-05
48 *160:12 *801:DIODE 0.000124895
49 *160:12 *11891:A1 0.000122337
50 *204:31 *232:64 0
51 *227:27 *232:27 0
52 *230:25 *232:27 0.0108381
53 *231:11 *232:15 0.00021329
*RES
1 *12134:DO[22] *232:15 17.1964
2 *232:15 *232:19 34.8191
3 *232:19 *232:27 21.096
4 *232:27 *232:29 0.795
5 *232:29 *232:31 0.795
6 *232:31 *232:33 0.795
7 *232:33 *232:35 0.45
8 *232:35 *232:37 1.14
9 *232:37 *232:39 0.795
10 *232:39 *809:DIODE 2.395
11 *232:39 *808:DIODE 1.6
12 *232:37 *806:DIODE 1.6
13 *232:35 *232:60 4.145
14 *232:60 *232:64 4.655
15 *232:64 *801:DIODE 2.74
16 *232:64 *11891:A1 2.74
17 *232:60 *810:DIODE 3.6
18 *232:33 *802:DIODE 1.6
19 *232:31 *803:DIODE 1.6
20 *232:29 *804:DIODE 1.6
21 *232:27 *805:DIODE 1.6
*END

*D_NET *233 0.0617659
*CONN
*I *815:DIODE I *D sky130_fd_sc_hd__diode_2
*I *814:DIODE I *D sky130_fd_sc_hd__diode_2
*I *813:DIODE I *D sky130_fd_sc_hd__diode_2
*I *812:DIODE I *D sky130_fd_sc_hd__diode_2
*I *816:DIODE I *D sky130_fd_sc_hd__diode_2
*I *817:DIODE I *D sky130_fd_sc_hd__diode_2
*I *811:DIODE I *D sky130_fd_sc_hd__diode_2
*I *11894:A1 I *D sky130_fd_sc_hd__mux2_1
*I *12134:DO[23] O *D CF_SRAM_1024x32
*CAP
1 *815:DIODE 0
2 *814:DIODE 0
3 *813:DIODE 0
4 *812:DIODE 0
5 *816:DIODE 0
6 *817:DIODE 3.28405e-05
7 *811:DIODE 0
8 *11894:A1 0.000213582
9 *12134:DO[23] 0.0162882
10 *233:41 0.000343478
11 *233:37 0.000285795
12 *233:33 0.00019542
13 *233:31 0.00014157
14 *233:29 0.00013954
15 *233:27 0.00565257
16 *233:19 0.0218704
17 *233:19 *12134:BEN[23] 0.000215727
18 *233:19 *12134:DI[23] 3.00058e-05
19 *233:19 *462:36 0
20 *233:27 *382:18 4.75958e-06
21 *11907:B2 *233:27 0
22 *159:49 *817:DIODE 8.65905e-05
23 *159:49 *233:37 4.66108e-05
24 *159:53 *233:41 0.000151353
25 *159:55 *11894:A1 0.000110083
26 *159:55 *233:41 0.00018471
27 *161:24 *233:27 6.11227e-05
28 *162:14 *11894:A1 0.000229295
29 *163:28 *233:27 1.81196e-05
30 *165:24 *233:27 0.000300875
31 *170:12 *233:27 0.00174349
32 *172:14 *233:27 0.00174349
33 *182:19 *233:27 0.000152088
34 *205:43 *11894:A1 0.000111308
35 *205:43 *233:41 0.000152814
36 *206:39 *233:27 0.000109836
37 *209:17 *233:27 0.000394787
38 *227:19 *233:19 0
39 *230:19 *233:19 0
40 *230:25 *233:27 0.0107554
*RES
1 *12134:DO[23] *233:19 45.1676
2 *233:19 *233:27 19.9595
3 *233:27 *233:29 0.795
4 *233:29 *233:31 0.795
5 *233:31 *233:33 0.795
6 *233:33 *233:37 1.845
7 *233:37 *233:41 5.93
8 *233:41 *11894:A1 7.155
9 *233:41 *811:DIODE 3.6
10 *233:37 *817:DIODE 2.395
11 *233:37 *816:DIODE 1.6
12 *233:33 *812:DIODE 1.6
13 *233:31 *813:DIODE 1.6
14 *233:29 *814:DIODE 1.6
15 *233:27 *815:DIODE 1.6
*END

*D_NET *234 0.0490351
*CONN
*I *823:DIODE I *D sky130_fd_sc_hd__diode_2
*I *822:DIODE I *D sky130_fd_sc_hd__diode_2
*I *821:DIODE I *D sky130_fd_sc_hd__diode_2
*I *820:DIODE I *D sky130_fd_sc_hd__diode_2
*I *824:DIODE I *D sky130_fd_sc_hd__diode_2
*I *825:DIODE I *D sky130_fd_sc_hd__diode_2
*I *826:DIODE I *D sky130_fd_sc_hd__diode_2
*I *828:DIODE I *D sky130_fd_sc_hd__diode_2
*I *831:DIODE I *D sky130_fd_sc_hd__diode_2
*I *830:DIODE I *D sky130_fd_sc_hd__diode_2
*I *827:DIODE I *D sky130_fd_sc_hd__diode_2
*I *819:DIODE I *D sky130_fd_sc_hd__diode_2
*I *11897:A1 I *D sky130_fd_sc_hd__mux2_1
*I *12134:DO[24] O *D CF_SRAM_1024x32
*CAP
1 *823:DIODE 0
2 *822:DIODE 0
3 *821:DIODE 0
4 *820:DIODE 0
5 *824:DIODE 0
6 *825:DIODE 0
7 *826:DIODE 0
8 *828:DIODE 0
9 *831:DIODE 7.25145e-05
10 *830:DIODE 3.45427e-05
11 *827:DIODE 0
12 *819:DIODE 0.000112487
13 *11897:A1 7.36793e-05
14 *12134:DO[24] 0.0160206
15 *234:81 0.000149429
16 *234:79 0.000147419
17 *234:77 0.00014317
18 *234:75 0.000194083
19 *234:61 3.45427e-05
20 *234:39 0.000249196
21 *234:37 0.000159719
22 *234:33 0.000273986
23 *234:31 0.000109599
24 *234:29 0.000108563
25 *234:27 0.00316075
26 *234:17 0.0191265
27 *11897:A1 *627:61 8.33341e-05
28 *234:17 *12124:DI[24] 0
29 *234:17 *12134:DI[24] 4.26079e-05
30 *234:17 *313:21 0.000159162
31 *234:17 *313:29 3.35456e-05
32 *234:17 *458:12 0.000152474
33 *234:17 *462:36 0
34 *234:17 *467:28 0
35 *11910:B2 *234:27 5.04273e-05
36 *11910:B2 *234:37 0
37 *11910:B2 *234:39 0
38 *111:20 *11897:A1 3.69904e-05
39 *111:20 *234:27 0
40 *111:20 *234:37 9.76522e-05
41 *111:20 *234:39 9.87538e-05
42 *114:39 *819:DIODE 0.000158965
43 *161:32 *830:DIODE 4.82919e-05
44 *161:38 *11897:A1 6.97256e-05
45 *161:38 *234:39 0.000141599
46 *161:102 *830:DIODE 1.16578e-05
47 *161:128 *234:29 7.66083e-05
48 *161:128 *234:31 7.66083e-05
49 *161:128 *234:33 7.57202e-05
50 *161:128 *234:75 0.000120655
51 *227:27 *234:27 0
52 *232:27 *234:27 0.00732952
*RES
1 *12134:DO[24] *234:17 49.7222
2 *234:17 *234:27 16.8038
3 *234:27 *234:29 0.795
4 *234:29 *234:31 0.795
5 *234:31 *234:33 0.795
6 *234:33 *234:37 4.145
7 *234:37 *234:39 2.145
8 *234:39 *11897:A1 5.265
9 *234:39 *819:DIODE 5.085
10 *234:37 *234:61 2
11 *234:61 *827:DIODE 1.6
12 *234:61 *830:DIODE 2.05
13 *234:33 *234:75 1.485
14 *234:75 *234:77 0.795
15 *234:77 *234:79 0.795
16 *234:79 *234:81 0.795
17 *234:81 *831:DIODE 2.395
18 *234:81 *828:DIODE 1.6
19 *234:79 *826:DIODE 1.6
20 *234:77 *825:DIODE 1.6
21 *234:75 *824:DIODE 1.6
22 *234:33 *820:DIODE 1.6
23 *234:31 *821:DIODE 1.6
24 *234:29 *822:DIODE 1.6
25 *234:27 *823:DIODE 1.6
*END

*D_NET *235 0.0576014
*CONN
*I *832:DIODE I *D sky130_fd_sc_hd__diode_2
*I *11900:A1 I *D sky130_fd_sc_hd__mux2_1
*I *833:DIODE I *D sky130_fd_sc_hd__diode_2
*I *12134:DO[25] O *D CF_SRAM_1024x32
*CAP
1 *832:DIODE 0
2 *11900:A1 0
3 *833:DIODE 9.43563e-05
4 *12134:DO[25] 0.0106923
5 *235:31 0.000224979
6 *235:25 0.00286602
7 *235:19 0.0134277
8 *833:DIODE *627:76 0.00026784
9 *235:19 *12134:BEN[25] 0.000312412
10 *235:19 *12134:DI[25] 7.14179e-05
11 *235:19 *449:22 0.00173023
12 *235:19 *471:104 0
13 *235:19 *550:43 0.00199517
14 *235:31 *627:76 4.99619e-05
15 *235:31 *627:83 0.000151541
16 *11900:A0 *833:DIODE 5.05521e-05
17 *163:46 *235:31 0
18 *164:24 *833:DIODE 4.41506e-05
19 *227:27 *235:25 0.00569741
20 *228:25 *235:25 0.000746564
21 *231:21 *235:25 0.000685997
22 *232:19 *235:19 0.0184928
*RES
1 *12134:DO[25] *235:19 49.6021
2 *235:19 *235:25 15.9366
3 *235:25 *235:31 4.7
4 *235:31 *833:DIODE 4.12
5 *235:31 *11900:A1 1.6
6 *235:25 *832:DIODE 3.6
*END

*D_NET *236 0.0613342
*CONN
*I *11903:A1 I *D sky130_fd_sc_hd__mux2_2
*I *834:DIODE I *D sky130_fd_sc_hd__diode_2
*I *12134:DO[26] O *D CF_SRAM_1024x32
*CAP
1 *11903:A1 5.72635e-05
2 *834:DIODE 0.00107337
3 *12134:DO[26] 0.000616037
4 *236:17 0.00463365
5 *236:11 0.0080735
6 *236:9 0.00518652
7 *834:DIODE *11944:A 0.000197822
8 *834:DIODE *12190:A 0
9 *834:DIODE *12238:A 0.000302917
10 *236:9 *12134:DI[26] 1.77298e-05
11 *236:9 *476:20 6.01059e-05
12 *236:11 *239:11 0.000362688
13 *236:11 *239:23 0.000856844
14 *236:11 *443:18 0.00488536
15 *236:11 *462:12 0.00270964
16 *236:11 *471:28 0.000569747
17 *236:11 *471:30 0.00871158
18 *236:11 *484:12 0.000231239
19 *236:11 *563:18 0.000384681
20 *236:11 *568:24 0.0100902
21 *236:11 *570:16 0.000156842
22 *236:11 *572:8 0.0121564
23 *644:DIODE *834:DIODE 0
24 *165:38 *834:DIODE 0
25 *165:40 *834:DIODE 0
*RES
1 *12134:DO[26] *236:9 10.82
2 *236:9 *236:11 249.75
3 *236:11 *236:17 41.365
4 *236:17 *834:DIODE 21.09
5 *236:17 *11903:A1 4.47
*END

*D_NET *237 0.0348659
*CONN
*I *11906:A1 I *D sky130_fd_sc_hd__mux2_2
*I *835:DIODE I *D sky130_fd_sc_hd__diode_2
*I *12134:DO[27] O *D CF_SRAM_1024x32
*CAP
1 *11906:A1 9.40366e-05
2 *835:DIODE 0.000140107
3 *12134:DO[27] 0.000336379
4 *237:33 0.000790604
5 *237:31 0.00259271
6 *237:11 0.00577214
7 *237:9 0.00407227
8 *835:DIODE *567:24 6.11097e-05
9 *835:DIODE *569:22 0.000181376
10 *11906:A1 *627:98 2.8185e-05
11 *237:9 *12134:BEN[26] 0
12 *237:9 *12134:DI[27] 0
13 *237:9 *480:22 0
14 *237:11 *12134:TM 0.000132991
15 *237:11 *353:10 0.00312817
16 *237:11 *354:10 1.25877e-05
17 *237:11 *382:88 0
18 *237:11 *426:10 0.000242204
19 *237:11 *432:14 0.00345271
20 *237:11 *627:150 0.00383329
21 *237:31 *569:22 0.00196012
22 *237:33 *567:24 0.000209178
23 *237:33 *569:22 0.00238588
24 *11906:A0 *11906:A1 4.66108e-05
25 *11918:A0 *237:33 0.000727533
26 *167:16 *237:11 0.00333412
27 *168:10 *835:DIODE 7.06865e-05
28 *176:16 *237:33 0.00126091
*RES
1 *12134:DO[27] *237:9 6.86
2 *237:9 *237:11 137.55
3 *237:11 *237:31 39.77
4 *237:31 *237:33 27.39
5 *237:33 *835:DIODE 6.54
6 *237:33 *11906:A1 4.74
*END

*D_NET *238 0.0362519
*CONN
*I *11909:A1 I *D sky130_fd_sc_hd__mux2_2
*I *836:DIODE I *D sky130_fd_sc_hd__diode_2
*I *12134:DO[28] O *D CF_SRAM_1024x32
*CAP
1 *11909:A1 4.44216e-05
2 *836:DIODE 0.000105281
3 *12134:DO[28] 0.00106459
4 *238:11 0.00449542
5 *238:9 0.00541031
6 *836:DIODE *627:120 5.34923e-05
7 *836:DIODE *627:131 4.0238e-05
8 *11909:A1 *11909:S 3.64998e-06
9 *238:9 *12109:A 2.92221e-05
10 *238:9 *12134:DI[28] 3.37917e-05
11 *238:9 *454:16 0
12 *238:9 *484:18 0.000240865
13 *238:11 *467:8 0.010382
14 *238:11 *627:131 0.000153618
15 *238:11 *627:144 0.000287808
16 *169:16 *836:DIODE 7.20318e-05
17 *169:16 *238:11 0.0138351
*RES
1 *12134:DO[28] *238:9 16.37
2 *238:9 *238:11 164.07
3 *238:11 *836:DIODE 5.745
4 *238:11 *11909:A1 4.05
*END

*D_NET *239 0.0345311
*CONN
*I *11912:A1 I *D sky130_fd_sc_hd__mux2_2
*I *837:DIODE I *D sky130_fd_sc_hd__diode_2
*I *12134:DO[29] O *D CF_SRAM_1024x32
*CAP
1 *11912:A1 0.000247199
2 *837:DIODE 0.00013551
3 *12134:DO[29] 0.000574438
4 *239:23 0.00136693
5 *239:11 0.00395068
6 *239:9 0.0035409
7 *837:DIODE *567:24 0.00018471
8 *837:DIODE *569:22 9.86532e-05
9 *239:9 *12134:DI[29] 4.25256e-05
10 *239:9 *489:14 0.000219268
11 *239:11 *443:18 0.0009155
12 *239:11 *462:56 0.00400709
13 *239:11 *471:30 0.00871158
14 *239:11 *484:14 0.00419418
15 *239:23 *471:28 0.00141946
16 *239:23 *480:16 0.000769671
17 *239:23 *484:12 0.000816076
18 *239:23 *484:14 1.61461e-05
19 *239:23 *489:10 5.39961e-05
20 *239:23 *567:24 0.00116171
21 *239:23 *569:22 0.000450566
22 *239:23 *570:16 0.000206974
23 *11912:A0 *11912:A1 0.00022786
24 *236:11 *239:11 0.000362688
25 *236:11 *239:23 0.000856844
*RES
1 *12134:DO[29] *239:9 11.555
2 *239:9 *239:11 131.812
3 *239:11 *239:23 42.4825
4 *239:23 *837:DIODE 6.54
5 *239:23 *11912:A1 6.465
*END

*D_NET *240 0.0527861
*CONN
*I *838:DIODE I *D sky130_fd_sc_hd__diode_2
*I *844:DIODE I *D sky130_fd_sc_hd__diode_2
*I *842:DIODE I *D sky130_fd_sc_hd__diode_2
*I *841:DIODE I *D sky130_fd_sc_hd__diode_2
*I *11831:A1 I *D sky130_fd_sc_hd__mux2_2
*I *843:DIODE I *D sky130_fd_sc_hd__diode_2
*I *839:DIODE I *D sky130_fd_sc_hd__diode_2
*I *12134:DO[2] O *D CF_SRAM_1024x32
*CAP
1 *838:DIODE 4.78063e-05
2 *844:DIODE 0
3 *842:DIODE 0
4 *841:DIODE 6.52939e-05
5 *11831:A1 0
6 *843:DIODE 0.000523346
7 *839:DIODE 0.000119568
8 *12134:DO[2] 0.0113112
9 *240:64 0.000128995
10 *240:62 9.90669e-05
11 *240:46 0.000613669
12 *240:31 0.000340372
13 *240:29 0.00021649
14 *240:27 0.00294696
15 *240:17 0.0141597
16 *839:DIODE *418:16 5.99925e-05
17 *843:DIODE *11831:S 3.83194e-05
18 *843:DIODE *11846:S 5.9964e-05
19 *843:DIODE *247:42 0.000165519
20 *240:17 *12134:BEN[1] 0
21 *240:17 *12134:DI[2] 0.0146137
22 *240:17 *560:485 1.79536e-05
23 *240:27 *12134:DI[8] 0.0011994
24 *240:27 *560:411 0
25 *240:27 *581:26 0.000506694
26 *240:27 *625:174 9.33176e-05
27 *240:29 *625:174 0.000172698
28 *240:31 *418:16 2.38456e-05
29 *240:31 *625:174 4.9968e-05
30 *11927:A *839:DIODE 0.000138257
31 *118:12 *843:DIODE 2.8585e-06
32 *220:51 *841:DIODE 8.23457e-05
33 *220:51 *843:DIODE 4.66108e-05
34 *220:51 *240:31 0.000175878
35 *220:51 *240:46 8.35106e-05
36 *220:51 *240:62 3.57349e-05
37 *220:51 *240:64 7.14699e-05
38 *221:40 *839:DIODE 0.000247266
39 *221:40 *240:27 9.89678e-05
40 *221:40 *240:29 0.000181229
41 *221:40 *240:31 0.000282896
42 *222:27 *240:27 0.00374736
43 *225:42 *240:17 1.79536e-05
*RES
1 *12134:DO[2] *240:17 43.4847
2 *240:17 *240:27 12.5771
3 *240:27 *240:29 2.145
4 *240:29 *240:31 3.42
5 *240:31 *839:DIODE 6.96
6 *240:31 *240:46 3.14
7 *240:46 *843:DIODE 7.57
8 *240:46 *11831:A1 1.6
9 *240:29 *240:62 2.45
10 *240:62 *240:64 0.795
11 *240:64 *841:DIODE 2.395
12 *240:64 *842:DIODE 1.6
13 *240:62 *844:DIODE 1.6
14 *240:27 *838:DIODE 4.05
*END

*D_NET *241 0.0374852
*CONN
*I *11915:A1 I *D sky130_fd_sc_hd__mux2_2
*I *845:DIODE I *D sky130_fd_sc_hd__diode_2
*I *12134:DO[30] O *D CF_SRAM_1024x32
*CAP
1 *11915:A1 0.000325704
2 *845:DIODE 0.000209947
3 *12134:DO[30] 0.000567291
4 *241:11 0.00314143
5 *241:9 0.00317307
6 *845:DIODE *12122:A 7.83396e-05
7 *845:DIODE *462:12 0.000183745
8 *11915:A1 *627:148 2.39856e-05
9 *241:9 *12134:BEN[29] 0
10 *241:9 *12134:DI[30] 0
11 *241:9 *493:14 0
12 *241:11 *12114:A 0.00316688
13 *241:11 *443:16 0
14 *241:11 *443:18 0.000855805
15 *241:11 *462:12 0.0100785
16 *241:11 *462:54 0.000137791
17 *11915:A0 *11915:A1 0.0003708
18 *171:16 *845:DIODE 8.87553e-05
19 *173:16 *845:DIODE 3.09233e-05
20 *173:16 *241:11 0.0150205
21 *174:8 *845:DIODE 3.1807e-05
*RES
1 *12134:DO[30] *241:9 10.1
2 *241:9 *241:11 167.895
3 *241:11 *845:DIODE 7.92
4 *241:11 *11915:A1 7.845
*END

*D_NET *242 0.0444899
*CONN
*I *846:DIODE I *D sky130_fd_sc_hd__diode_2
*I *11918:A1 I *D sky130_fd_sc_hd__mux2_2
*I *12134:DO[31] O *D CF_SRAM_1024x32
*CAP
1 *846:DIODE 0.000255519
2 *11918:A1 0.000498321
3 *12134:DO[31] 0.000451303
4 *242:15 0.000880459
5 *242:11 0.00335696
6 *242:9 0.00368164
7 *242:9 *12134:DI[31] 0
8 *242:11 *529:20 0.000780206
9 *242:11 *541:16 0
10 *11918:A0 *11918:A1 4.66742e-05
11 *171:16 *242:11 0.0165368
12 *172:10 *242:11 0.000990058
13 *175:10 *242:11 0.0169919
14 *176:16 *11918:A1 2.01259e-05
*RES
1 *12134:DO[31] *242:9 8.57
2 *242:9 *242:11 205.125
3 *242:11 *242:15 3.83
4 *242:15 *11918:A1 7.06
5 *242:15 *846:DIODE 4.12
*END

*D_NET *243 0.0510992
*CONN
*I *847:DIODE I *D sky130_fd_sc_hd__diode_2
*I *11834:A1 I *D sky130_fd_sc_hd__mux2_2
*I *12134:DO[3] O *D CF_SRAM_1024x32
*CAP
1 *847:DIODE 0
2 *11834:A1 0.000215348
3 *12134:DO[3] 0.0120184
4 *243:27 0.00279682
5 *243:17 0.0145999
6 *11834:A1 *362:10 0.000186408
7 *11834:A1 *560:20 0.000181898
8 *243:17 *12134:DI[3] 0.0145115
9 *243:17 *560:473 1.79536e-05
10 *243:27 *12036:A 0.00388529
11 *243:27 *12124:DI[8] 2.38557e-05
12 *243:27 *12134:DI[8] 0.000656878
13 *243:27 *247:29 0.000607521
14 *243:27 *362:10 1.88602e-05
15 *243:27 *560:20 1.05878e-05
16 *243:27 *564:51 0.00024146
17 *243:27 *578:10 0.000425301
18 *11834:A0 *11834:A1 6.58339e-05
19 *11873:A0 *243:27 0.000126782
20 *222:27 *243:17 0.000500236
21 *225:46 *243:17 0
22 *228:13 *243:17 8.41703e-06
*RES
1 *12134:DO[3] *243:17 45.1311
2 *243:17 *243:27 9.5355
3 *243:27 *11834:A1 7.575
4 *243:27 *847:DIODE 3.6
*END

*D_NET *244 0.0482355
*CONN
*I *11837:A1 I *D sky130_fd_sc_hd__mux2_2
*I *12134:DO[4] O *D CF_SRAM_1024x32
*CAP
1 *11837:A1 0.00057618
2 *12134:DO[4] 0.0228702
3 *244:15 0.0234464
4 *11837:A1 *11837:S 0.000153816
5 *11837:A1 *396:16 0.000528726
6 *244:15 *12134:DI[4] 3.0998e-05
7 *244:15 *560:461 3.41543e-05
8 *226:22 *11837:A1 0.000526823
9 *228:13 *244:15 6.82488e-05
*RES
1 *12134:DO[4] *244:15 44.9439
2 *244:15 *11837:A1 16.2225
*END

*D_NET *245 0.0533162
*CONN
*I *11840:A1 I *D sky130_fd_sc_hd__mux2_2
*I *848:DIODE I *D sky130_fd_sc_hd__diode_2
*I *12134:DO[5] O *D CF_SRAM_1024x32
*CAP
1 *11840:A1 0.000227025
2 *848:DIODE 0.000121964
3 *12134:DO[5] 0.00932767
4 *245:27 0.0032913
5 *245:21 0.01227
6 *11840:A1 *11849:S 4.82863e-05
7 *11840:A1 *625:180 0.000178675
8 *245:21 *12134:DI[5] 0.000130929
9 *245:21 *246:23 0
10 *245:21 *560:437 3.97719e-05
11 *245:21 *560:449 0.00032415
12 *245:27 *246:23 0
13 *789:DIODE *848:DIODE 0.000153816
14 *147:10 *11840:A1 7.06865e-05
15 *147:10 *245:27 3.82728e-05
16 *218:29 *245:21 0.0200236
17 *219:29 *245:27 0.006796
18 *221:40 *245:27 8.1689e-05
19 *228:13 *245:21 0.000190348
20 *229:19 *245:21 2.06223e-06
*RES
1 *12134:DO[5] *245:21 42.5268
2 *245:21 *245:27 11.3096
3 *245:27 *848:DIODE 5.085
4 *245:27 *11840:A1 6.645
*END

*D_NET *246 0.0480675
*CONN
*I *855:DIODE I *D sky130_fd_sc_hd__diode_2
*I *853:DIODE I *D sky130_fd_sc_hd__diode_2
*I *850:DIODE I *D sky130_fd_sc_hd__diode_2
*I *11843:A1 I *D sky130_fd_sc_hd__mux2_2
*I *849:DIODE I *D sky130_fd_sc_hd__diode_2
*I *852:DIODE I *D sky130_fd_sc_hd__diode_2
*I *854:DIODE I *D sky130_fd_sc_hd__diode_2
*I *12134:DO[6] O *D CF_SRAM_1024x32
*CAP
1 *855:DIODE 0
2 *853:DIODE 0
3 *850:DIODE 0
4 *11843:A1 0
5 *849:DIODE 0
6 *852:DIODE 0
7 *854:DIODE 6.25048e-05
8 *12134:DO[6] 0.00957477
9 *246:49 0.000121421
10 *246:47 0.000270396
11 *246:45 0.000332898
12 *246:43 0.000185119
13 *246:41 0.000127402
14 *246:39 0.00092144
15 *246:23 0.0104325
16 *246:23 *12134:DI[6] 0.0148347
17 *246:23 *341:10 0.000372654
18 *246:23 *560:437 1.79536e-05
19 *246:39 *11843:S 3.57349e-05
20 *246:39 *396:16 0.000992686
21 *246:39 *564:51 0.00114498
22 *246:39 *625:109 0.000225285
23 *246:39 *625:174 5.83121e-06
24 *246:41 *11843:S 7.14699e-05
25 *246:43 *11843:S 7.14699e-05
26 *246:45 *11843:S 0.000120655
27 *11843:A0 *854:DIODE 8.35106e-05
28 *11843:A0 *246:47 0.000182857
29 *11843:A0 *246:49 7.32549e-05
30 *180:36 *246:39 0.00114665
31 *218:29 *246:23 0.0055912
32 *220:51 *246:39 6.07575e-06
33 *221:40 *246:39 6.33103e-05
34 *226:22 *246:39 0.000990378
35 *228:13 *246:23 8.41703e-06
36 *245:21 *246:23 0
37 *245:27 *246:23 0
*RES
1 *12134:DO[6] *246:23 49.6952
2 *246:23 *246:39 36.1925
3 *246:39 *246:41 0.795
4 *246:41 *246:43 0.795
5 *246:43 *246:45 1.485
6 *246:45 *246:47 2.52
7 *246:47 *246:49 0.795
8 *246:49 *854:DIODE 2.395
9 *246:49 *852:DIODE 1.6
10 *246:47 *849:DIODE 1.6
11 *246:45 *11843:A1 1.6
12 *246:43 *850:DIODE 1.6
13 *246:41 *853:DIODE 1.6
14 *246:39 *855:DIODE 1.6
*END

*D_NET *247 0.0470739
*CONN
*I *856:DIODE I *D sky130_fd_sc_hd__diode_2
*I *857:DIODE I *D sky130_fd_sc_hd__diode_2
*I *858:DIODE I *D sky130_fd_sc_hd__diode_2
*I *859:DIODE I *D sky130_fd_sc_hd__diode_2
*I *860:DIODE I *D sky130_fd_sc_hd__diode_2
*I *861:DIODE I *D sky130_fd_sc_hd__diode_2
*I *11846:A1 I *D sky130_fd_sc_hd__mux2_2
*I *12134:DO[7] O *D CF_SRAM_1024x32
*CAP
1 *856:DIODE 0
2 *857:DIODE 0
3 *858:DIODE 0
4 *859:DIODE 0
5 *860:DIODE 0
6 *861:DIODE 4.61528e-05
7 *11846:A1 0
8 *12134:DO[7] 0.0127094
9 *247:50 8.78028e-05
10 *247:48 8.33001e-05
11 *247:46 8.33001e-05
12 *247:44 7.98776e-05
13 *247:42 0.000190527
14 *247:33 0.000468347
15 *247:29 0.0130255
16 *247:29 *12134:DI[7] 0.0103252
17 *247:29 *12134:DI[8] 0.00785732
18 *247:29 *560:425 3.97748e-05
19 *247:33 *362:10 0.000401913
20 *247:42 *11831:S 0
21 *843:DIODE *247:42 0.000165519
22 *11846:A0 *861:DIODE 8.23457e-05
23 *11846:A0 *247:42 0.000336226
24 *11846:A0 *247:44 8.35106e-05
25 *11846:A0 *247:46 8.23457e-05
26 *11846:A0 *247:48 8.23457e-05
27 *11846:A0 *247:50 8.23457e-05
28 *118:12 *247:42 1.19928e-05
29 *153:16 *247:29 0.000120468
30 *228:13 *247:29 2.09673e-05
31 *243:27 *247:29 0.000607521
*RES
1 *12134:DO[7] *247:29 49.2372
2 *247:29 *247:33 6.8225
3 *247:33 *11846:A1 1.6
4 *247:33 *247:42 3.915
5 *247:42 *247:44 0.795
6 *247:44 *247:46 0.795
7 *247:46 *247:48 0.795
8 *247:48 *247:50 0.795
9 *247:50 *861:DIODE 2.395
10 *247:50 *860:DIODE 1.6
11 *247:48 *859:DIODE 1.6
12 *247:46 *858:DIODE 1.6
13 *247:44 *857:DIODE 1.6
14 *247:42 *856:DIODE 1.6
*END

*D_NET *248 0.0464644
*CONN
*I *866:DIODE I *D sky130_fd_sc_hd__diode_2
*I *868:DIODE I *D sky130_fd_sc_hd__diode_2
*I *867:DIODE I *D sky130_fd_sc_hd__diode_2
*I *869:DIODE I *D sky130_fd_sc_hd__diode_2
*I *11849:A1 I *D sky130_fd_sc_hd__mux2_2
*I *864:DIODE I *D sky130_fd_sc_hd__diode_2
*I *865:DIODE I *D sky130_fd_sc_hd__diode_2
*I *12134:DO[8] O *D CF_SRAM_1024x32
*CAP
1 *866:DIODE 0
2 *868:DIODE 0
3 *867:DIODE 0
4 *869:DIODE 4.78064e-05
5 *11849:A1 0.000338994
6 *864:DIODE 0
7 *865:DIODE 0
8 *12134:DO[8] 0.0116687
9 *248:76 0.000248314
10 *248:59 0.000800661
11 *248:46 0.000336777
12 *248:39 0.000317415
13 *248:31 0.000315828
14 *248:29 7.40309e-05
15 *248:27 0.0116687
16 *11849:A1 *11849:S 0.000407696
17 *11849:A1 *625:178 0.000118081
18 *11849:A1 *625:180 0.000335065
19 *248:27 *12134:DI[7] 0.00199798
20 *248:27 *12134:DI[8] 0.00994315
21 *248:27 *418:16 6.08134e-05
22 *248:27 *560:411 0.00469009
23 *248:59 *554:57 0.000201389
24 *248:76 *11837:S 5.83121e-06
25 *248:76 *554:57 0.000312785
26 *788:DIODE *248:31 7.27298e-06
27 *788:DIODE *248:39 7.27298e-06
28 *789:DIODE *248:46 2.01259e-05
29 *789:DIODE *248:59 2.88598e-05
30 *11828:A0 *11849:A1 0.000118081
31 *11829:B2 *11849:A1 8.49936e-05
32 *11840:A0 *11849:A1 0.00037001
33 *115:10 *248:76 0.000289705
34 *147:10 *248:39 0.00018375
35 *155:16 *248:27 0
36 *219:13 *248:27 3.97748e-05
37 *219:29 *248:27 0.00117464
38 *221:40 *248:27 2.9381e-05
39 *221:40 *248:59 0.000189369
40 *228:13 *248:27 2.09673e-05
41 *229:25 *248:59 4.36573e-06
42 *229:25 *248:76 5.75242e-06
*RES
1 *12134:DO[8] *248:27 48.3003
2 *248:27 *248:29 2
3 *248:29 *248:31 0.795
4 *248:31 *248:39 7.285
5 *248:39 *865:DIODE 1.6
6 *248:39 *248:46 0.795
7 *248:46 *864:DIODE 1.6
8 *248:46 *248:59 6.59
9 *248:59 *11849:A1 12.345
10 *248:59 *248:76 6.815
11 *248:76 *869:DIODE 2.05
12 *248:76 *867:DIODE 1.6
13 *248:31 *868:DIODE 1.6
14 *248:29 *866:DIODE 1.6
*END

*D_NET *249 0.0409396
*CONN
*I *878:DIODE I *D sky130_fd_sc_hd__diode_2
*I *876:DIODE I *D sky130_fd_sc_hd__diode_2
*I *873:DIODE I *D sky130_fd_sc_hd__diode_2
*I *871:DIODE I *D sky130_fd_sc_hd__diode_2
*I *11852:A1 I *D sky130_fd_sc_hd__mux2_1
*I *870:DIODE I *D sky130_fd_sc_hd__diode_2
*I *872:DIODE I *D sky130_fd_sc_hd__diode_2
*I *875:DIODE I *D sky130_fd_sc_hd__diode_2
*I *877:DIODE I *D sky130_fd_sc_hd__diode_2
*I *879:DIODE I *D sky130_fd_sc_hd__diode_2
*I *12134:DO[9] O *D CF_SRAM_1024x32
*CAP
1 *878:DIODE 0
2 *876:DIODE 0
3 *873:DIODE 0
4 *871:DIODE 0
5 *11852:A1 0
6 *870:DIODE 0
7 *872:DIODE 0
8 *875:DIODE 0
9 *877:DIODE 0
10 *879:DIODE 3.44448e-05
11 *12134:DO[9] 0.0135996
12 *249:48 6.72967e-05
13 *249:46 6.57038e-05
14 *249:44 6.57038e-05
15 *249:42 0.000177474
16 *249:40 0.000282243
17 *249:38 0.000188713
18 *249:36 0.000102185
19 *249:34 7.62352e-05
20 *249:32 0.0136174
21 *249:4 7.37025e-06
22 *879:DIODE *12124:DI[9] 2.01259e-05
23 *249:32 *12134:BEN[8] 3.97748e-05
24 *249:32 *12134:DI[9] 0.0118705
25 *249:32 *362:10 1.93834e-05
26 *249:34 *11852:S 2.49909e-05
27 *249:36 *11852:S 4.41506e-05
28 *249:38 *11852:S 4.41506e-05
29 *249:40 *11852:S 8.81641e-05
30 *249:40 *12124:DI[9] 1.33269e-05
31 *249:42 *12124:DI[9] 5.80265e-05
32 *249:44 *12124:DI[9] 2.01259e-05
33 *249:46 *12124:DI[9] 2.01259e-05
34 *249:48 *12124:DI[9] 2.01259e-05
35 *132:8 *879:DIODE 8.23457e-05
36 *132:8 *249:42 3.57349e-05
37 *132:8 *249:44 7.14699e-05
38 *132:8 *249:46 7.14699e-05
39 *132:8 *249:48 7.14699e-05
40 *219:13 *249:32 3.97748e-05
*RES
1 *12134:DO[9] *249:4 0.1275
2 *12134:DO[9] *249:32 49.9442
3 *249:32 *249:34 0.45
4 *249:34 *249:36 0.795
5 *249:36 *249:38 0.795
6 *249:38 *249:40 2.175
7 *249:40 *249:42 2.175
8 *249:42 *249:44 0.795
9 *249:44 *249:46 0.795
10 *249:46 *249:48 0.795
11 *249:48 *879:DIODE 2.395
12 *249:48 *877:DIODE 1.6
13 *249:46 *875:DIODE 1.6
14 *249:44 *872:DIODE 1.6
15 *249:42 *870:DIODE 1.6
16 *249:40 *11852:A1 1.6
17 *249:38 *871:DIODE 1.6
18 *249:36 *873:DIODE 1.6
19 *249:34 *876:DIODE 1.6
20 *249:32 *878:DIODE 1.6
*END

*D_NET *250 0.0469879
*CONN
*I *11823:A1 I *D sky130_fd_sc_hd__mux2_2
*I *880:DIODE I *D sky130_fd_sc_hd__diode_2
*I *12144:DO[0] O *D CF_SRAM_1024x32
*CAP
1 *11823:A1 0.000209689
2 *880:DIODE 0
3 *12144:DO[0] 0.000752162
4 *250:15 0.000676921
5 *250:11 0.00940898
6 *250:9 0.00969391
7 *11823:A1 *282:41 2.49909e-05
8 *11823:A1 *389:52 0.000239914
9 *11823:A1 *517:56 0.000239914
10 *250:9 *12144:ScanInCC 0
11 *250:9 *12144:DI[0] 0
12 *250:11 *257:11 0.0153725
13 *250:11 *257:23 0.00203747
14 *250:11 *312:27 0.00208365
15 *250:11 *312:29 0.000177561
16 *250:11 *312:33 0.000228916
17 *250:11 *369:76 0.00110253
18 *250:11 *438:82 0
19 *250:11 *504:20 0.00170134
20 *250:11 *506:60 0.00141342
21 *250:15 *1044:DIODE 0.00018955
22 *250:15 *261:15 0.000730305
23 *129:10 *250:11 0.000597832
24 *135:34 *250:11 0.000106344
*RES
1 *12144:DO[0] *250:9 12.9633
2 *250:9 *250:11 219.66
3 *250:11 *250:15 10.04
4 *250:15 *880:DIODE 1.6
5 *250:15 *11823:A1 10.1
*END

*D_NET *251 0.0262203
*CONN
*I *11854:A1 I *D sky130_fd_sc_hd__mux2_2
*I *881:DIODE I *D sky130_fd_sc_hd__diode_2
*I *12144:DO[10] O *D CF_SRAM_1024x32
*CAP
1 *11854:A1 6.83082e-05
2 *881:DIODE 4.30163e-05
3 *12144:DO[10] 0.000487317
4 *251:15 0.00026669
5 *251:11 0.00372089
6 *251:9 0.00405284
7 *881:DIODE *275:13 0
8 *881:DIODE *635:69 7.00115e-05
9 *11854:A1 *283:45 3.64998e-06
10 *251:9 *12144:DI[10] 9.29586e-05
11 *251:11 *12144:BEN[15] 1.79536e-05
12 *251:11 *253:11 0.00292178
13 *251:11 *259:11 0.00213797
14 *251:11 *275:13 0.00036286
15 *251:11 *277:11 0.0110155
16 *251:11 *278:23 0.000167071
17 *251:15 *279:19 3.97391e-05
18 *133:14 *11854:A1 1.74678e-05
19 *133:14 *251:15 7.37995e-05
20 *205:11 *251:11 0.000660497
*RES
1 *12144:DO[10] *251:9 9.3125
2 *251:9 *251:11 140.355
3 *251:11 *251:15 4.52
4 *251:15 *881:DIODE 6.47
5 *251:15 *11854:A1 2.395
*END

*D_NET *252 0.0254716
*CONN
*I *11857:A1 I *D sky130_fd_sc_hd__mux2_2
*I *882:DIODE I *D sky130_fd_sc_hd__diode_2
*I *12144:DO[11] O *D CF_SRAM_1024x32
*CAP
1 *11857:A1 0.000145702
2 *882:DIODE 0.000130316
3 *12144:DO[11] 0.000528601
4 *252:14 0.00266297
5 *252:12 0.00290818
6 *252:4 7.37025e-06
7 *882:DIODE *261:11 0.000181898
8 *882:DIODE *635:100 6.73665e-05
9 *882:DIODE *635:109 8.08153e-06
10 *11857:A1 *284:66 3.64998e-06
11 *252:12 *12144:DI[11] 0.000291917
12 *252:14 *11848:A1 0.000299128
13 *252:14 *261:11 0.00912672
14 *252:14 *280:11 0.00908723
15 *252:14 *635:109 2.25161e-05
*RES
1 *12144:DO[11] *252:4 0.1275
2 *12144:DO[11] *252:12 10.385
3 *252:12 *252:14 108.99
4 *252:14 *882:DIODE 6.54
5 *252:14 *11857:A1 5.085
*END

*D_NET *253 0.0185157
*CONN
*I *883:DIODE I *D sky130_fd_sc_hd__diode_2
*I *11860:A1 I *D sky130_fd_sc_hd__mux2_2
*I *12144:DO[12] O *D CF_SRAM_1024x32
*CAP
1 *883:DIODE 0
2 *11860:A1 0.000135322
3 *12144:DO[12] 0.000366062
4 *253:19 0.00281552
5 *253:11 0.00422629
6 *253:9 0.00191216
7 *11860:A1 *285:41 4.82919e-05
8 *11860:A1 *286:19 4.82919e-05
9 *253:9 *12144:DI[12] 0.000257651
10 *253:9 *355:18 0.000153816
11 *253:11 *12144:BEN[15] 1.79536e-05
12 *253:11 *259:11 0.00529567
13 *253:19 *287:30 0.00031693
14 *137:14 *11860:A1 0
15 *251:11 *253:11 0.00292178
*RES
1 *12144:DO[12] *253:9 8.5925
2 *253:9 *253:11 62.325
3 *253:11 *253:19 40.34
4 *253:19 *11860:A1 7.94
5 *253:19 *883:DIODE 1.6
*END

*D_NET *254 0.0123859
*CONN
*I *11863:A1 I *D sky130_fd_sc_hd__mux2_2
*I *12144:DO[13] O *D CF_SRAM_1024x32
*CAP
1 *11863:A1 0.00611288
2 *12144:DO[13] 0.00611288
3 *254:4 0
4 *11863:A1 *11869:A1 0.000106409
5 *11863:A1 *12144:DI[13] 3.57275e-05
6 *11863:A1 *281:11 1.79483e-05
7 *11863:A1 *557:425 0
*RES
1 *12144:DO[13] *254:4 0.113077
2 *12144:DO[13] *11863:A1 35.0291
*END

*D_NET *255 0.0157552
*CONN
*I *11866:A1 I *D sky130_fd_sc_hd__mux2_2
*I *12144:DO[14] O *D CF_SRAM_1024x32
*CAP
1 *11866:A1 0.00232592
2 *12144:DO[14] 3.76056e-05
3 *255:11 0.00423188
4 *255:7 0.00194357
5 *11866:A1 *11866:A0 0.000136853
6 *11866:A1 *287:30 0.000699024
7 *11866:A1 *635:124 0.00103111
8 *255:7 *12144:BEN[13] 0
9 *255:7 *12144:DI[14] 2.50766e-05
10 *255:11 *281:11 0.0041955
11 *255:11 *638:156 0.00112864
*RES
1 *12144:DO[14] *255:7 2.7425
2 *255:7 *255:11 49.82
3 *255:11 *11866:A1 32.065
*END

*D_NET *256 0.0135512
*CONN
*I *11869:A1 I *D sky130_fd_sc_hd__mux2_4
*I *12144:DO[15] O *D CF_SRAM_1024x32
*CAP
1 *11869:A1 0.00595868
2 *12144:DO[15] 0.00595868
3 *256:4 0
4 *11869:A1 *12144:BEN[14] 0
5 *11869:A1 *12144:DI[15] 0
6 *11869:A1 *272:11 1.79483e-05
7 *11869:A1 *278:11 1.79483e-05
8 *11869:A1 *285:25 0.00146771
9 *11869:A1 *288:32 0
10 *11869:A1 *360:98 2.38557e-05
11 *11869:A1 *557:263 0
12 *11863:A1 *11869:A1 0.000106409
13 *143:12 *11869:A1 0
*RES
1 *12144:DO[15] *256:4 0.163333
2 *12144:DO[15] *11869:A1 40.7284
*END

*D_NET *257 0.052342
*CONN
*I *11872:A1 I *D sky130_fd_sc_hd__mux2_2
*I *884:DIODE I *D sky130_fd_sc_hd__diode_2
*I *12144:DO[16] O *D CF_SRAM_1024x32
*CAP
1 *11872:A1 0.000257965
2 *884:DIODE 0.000266333
3 *12144:DO[16] 0.000360833
4 *257:23 0.00207092
5 *257:11 0.00703636
6 *257:9 0.00585057
7 *884:DIODE *371:70 0.000175109
8 *884:DIODE *417:16 4.8256e-05
9 *884:DIODE *636:47 9.21008e-05
10 *884:DIODE *636:68 9.26053e-05
11 *11872:A1 *957:DIODE 1.91597e-05
12 *11872:A1 *289:46 6.33103e-05
13 *11872:A1 *289:48 4.41506e-05
14 *11872:A1 *289:50 4.41506e-05
15 *257:9 *12144:ScanInDR 0.000555385
16 *257:9 *12144:DI[16] 0.000694975
17 *257:11 *12144:AD[2] 2.06083e-05
18 *257:11 *12144:AD[4] 1.03833e-05
19 *257:11 *12144:DI[12] 8.41015e-06
20 *257:11 *273:11 0.00200452
21 *257:11 *280:11 0
22 *257:11 *284:30 0.000396873
23 *257:11 *355:8 0.00984246
24 *257:11 *369:76 0.00103542
25 *257:11 *504:20 0.00123526
26 *257:11 *635:120 0.000179069
27 *257:23 *906:DIODE 8.23457e-05
28 *257:23 *957:DIODE 2.49909e-05
29 *257:23 *284:30 0.00164406
30 *129:10 *257:23 0.000775446
31 *250:11 *257:11 0.0153725
32 *250:11 *257:23 0.00203747
*RES
1 *12144:DO[16] *257:9 13.175
2 *257:9 *257:11 203.738
3 *257:11 *257:23 41.2625
4 *257:23 *884:DIODE 9.92
5 *257:23 *11872:A1 4.465
*END

*D_NET *258 0.0601673
*CONN
*I *11875:A1 I *D sky130_fd_sc_hd__mux2_2
*I *886:DIODE I *D sky130_fd_sc_hd__diode_2
*I *12144:DO[17] O *D CF_SRAM_1024x32
*CAP
1 *11875:A1 0.000292395
2 *886:DIODE 0
3 *12144:DO[17] 0.00024756
4 *258:23 0.00182819
5 *258:21 0.00234
6 *258:11 0.00680585
7 *258:9 0.0062492
8 *11875:A1 *290:76 4.66108e-05
9 *258:9 *12144:WLBI 0
10 *258:9 *12144:TM 0.000457691
11 *258:9 *12144:DI[17] 7.55432e-05
12 *258:9 *426:85 1.14169e-05
13 *258:11 *259:11 0.00117307
14 *258:11 *264:11 0.00704261
15 *258:11 *266:11 8.09021e-06
16 *258:11 *267:11 0
17 *258:11 *270:11 0.0152639
18 *258:11 *271:11 0
19 *258:11 *272:11 0
20 *258:11 *355:18 0.0030324
21 *258:21 *12124:DI[25] 1.79536e-05
22 *258:21 *278:23 0.000161961
23 *258:21 *279:19 0.0011885
24 *258:21 *281:27 0.000368433
25 *258:21 *360:76 0.00328221
26 *258:23 *11972:A 0.000196056
27 *258:23 *502:8 0.000123642
28 *117:14 *11875:A1 4.85242e-05
29 *123:16 *258:21 0
30 *123:18 *258:21 0.0014448
31 *137:16 *258:11 3.50033e-05
32 *139:16 *258:11 0.00357342
33 *143:18 *258:11 0.0036836
34 *147:10 *11875:A1 0.000182627
35 *201:9 *11875:A1 2.76356e-05
36 *201:9 *258:23 0.000507663
37 *204:21 *258:21 0.000450735
*RES
1 *12144:DO[17] *258:9 7.64
2 *258:9 *258:11 245.415
3 *258:11 *258:21 45.945
4 *258:21 *258:23 19.425
5 *258:23 *886:DIODE 1.6
6 *258:23 *11875:A1 10.01
*END

*D_NET *259 0.049543
*CONN
*I *887:DIODE I *D sky130_fd_sc_hd__diode_2
*I *11878:A1 I *D sky130_fd_sc_hd__mux2_4
*I *12144:DO[18] O *D CF_SRAM_1024x32
*CAP
1 *887:DIODE 3.45813e-05
2 *11878:A1 0.000157635
3 *12144:DO[18] 0.000420657
4 *259:23 0.00165191
5 *259:11 0.00951496
6 *259:9 0.00847592
7 *887:DIODE *293:25 3.62614e-05
8 *11878:A1 *970:DIODE 5.16211e-05
9 *11878:A1 *11878:A0 8.52137e-06
10 *11878:A1 *11878:S 0.000218213
11 *11878:A1 *291:25 1.19928e-05
12 *11878:A1 *389:52 8.53307e-05
13 *11878:A1 *517:56 8.53307e-05
14 *259:9 *12144:DI[18] 0
15 *259:11 *270:11 0.0158264
16 *259:11 *277:11 0
17 *259:11 *636:89 0
18 *259:23 *1035:DIODE 2.3054e-05
19 *259:23 *277:15 0
20 *259:23 *278:23 5.83121e-06
21 *259:23 *293:25 0.000190539
22 *259:23 *417:16 0.000256128
23 *259:23 *509:68 0.000344315
24 *259:23 *636:47 4.85687e-05
25 *139:16 *259:11 0.0034885
26 *251:11 *259:11 0.00213797
27 *253:11 *259:11 0.00529567
28 *258:11 *259:11 0.00117307
*RES
1 *12144:DO[18] *259:9 8.57
2 *259:9 *259:11 251.025
3 *259:11 *259:23 24.54
4 *259:23 *11878:A1 9.17
5 *259:23 *887:DIODE 2.05
*END

*D_NET *260 0.0503215
*CONN
*I *888:DIODE I *D sky130_fd_sc_hd__diode_2
*I *11881:A1 I *D sky130_fd_sc_hd__mux2_4
*I *12144:DO[19] O *D CF_SRAM_1024x32
*CAP
1 *888:DIODE 0
2 *11881:A1 0.000171945
3 *12144:DO[19] 0.00221485
4 *260:19 0.00184602
5 *260:17 0.00235699
6 *260:11 0.00761035
7 *260:9 0.00914229
8 *11881:A1 *11881:A0 8.65961e-05
9 *11881:A1 *636:72 0.00038879
10 *260:9 *12144:DI[19] 1.04275e-05
11 *260:9 *443:80 0.000151979
12 *260:11 *262:11 0.0167543
13 *260:17 *262:15 0.00474007
14 *260:17 *267:15 0.00484682
15 *260:19 *292:25 0
*RES
1 *12144:DO[19] *260:9 33.32
2 *260:9 *260:11 188.295
3 *260:11 *260:17 47.92
4 *260:17 *260:19 25.095
5 *260:19 *11881:A1 7.77
6 *260:19 *888:DIODE 3.6
*END

*D_NET *261 0.0446486
*CONN
*I *889:DIODE I *D sky130_fd_sc_hd__diode_2
*I *11827:A1 I *D sky130_fd_sc_hd__mux2_2
*I *12144:DO[1] O *D CF_SRAM_1024x32
*CAP
1 *889:DIODE 0
2 *11827:A1 0.000180298
3 *12144:DO[1] 0.000494788
4 *261:15 0.000754282
5 *261:11 0.00602638
6 *261:9 0.00594718
7 *11827:A1 *293:29 0.000294924
8 *11827:A1 *293:55 4.77719e-05
9 *11827:A1 *293:69 4.66108e-05
10 *11827:A1 *417:16 0.000296213
11 *261:9 *12144:BEN[0] 0
12 *261:9 *12144:DI[1] 9.25469e-05
13 *261:11 *275:13 0.0167012
14 *261:11 *280:11 0.00112902
15 *261:11 *356:8 0.00177261
16 *261:11 *635:78 0
17 *261:11 *635:100 0
18 *261:11 *636:89 0.00081022
19 *261:15 *927:DIODE 1.56428e-05
20 *882:DIODE *261:11 0.000181898
21 *250:15 *261:15 0.000730305
22 *252:14 *261:11 0.00912672
*RES
1 *12144:DO[1] *261:9 10.1736
2 *261:9 *261:11 211.755
3 *261:11 *261:15 11.765
4 *261:15 *11827:A1 10.07
5 *261:15 *889:DIODE 1.6
*END

*D_NET *262 0.0657249
*CONN
*I *11884:A1 I *D sky130_fd_sc_hd__mux2_4
*I *890:DIODE I *D sky130_fd_sc_hd__diode_2
*I *12144:DO[20] O *D CF_SRAM_1024x32
*CAP
1 *11884:A1 0.00015119
2 *890:DIODE 3.42662e-05
3 *12144:DO[20] 0.00217383
4 *262:19 0.00129636
5 *262:15 0.00233789
6 *262:13 0.00122699
7 *262:11 0.00329321
8 *262:9 0.00546704
9 *890:DIODE *637:39 6.00413e-05
10 *11884:A1 *11884:A0 4.77757e-05
11 *11884:A1 *11884:S 2.95082e-05
12 *262:9 *12144:DI[20] 1.04275e-05
13 *262:9 *449:88 0.000151979
14 *262:11 *263:11 0.0175084
15 *262:15 *267:15 0.00132092
16 *262:15 *274:18 0.00704606
17 *262:19 *294:25 0.00173664
18 *262:19 *294:29 0.000217008
19 *262:19 *637:39 1.00889e-05
20 *3:41 *11884:A1 8.87899e-05
21 *177:16 *11884:A1 2.20014e-05
22 *260:11 *262:11 0.0167543
23 *260:17 *262:15 0.00474007
*RES
1 *12144:DO[20] *262:9 32.96
2 *262:9 *262:11 196.71
3 *262:11 *262:13 2
4 *262:13 *262:15 65.31
5 *262:15 *262:19 26.2025
6 *262:19 *890:DIODE 4.3425
7 *262:19 *11884:A1 6.0375
*END

*D_NET *263 0.0689498
*CONN
*I *11887:A1 I *D sky130_fd_sc_hd__mux2_4
*I *891:DIODE I *D sky130_fd_sc_hd__diode_2
*I *12144:DO[21] O *D CF_SRAM_1024x32
*CAP
1 *11887:A1 0.000158206
2 *891:DIODE 0
3 *12144:DO[21] 0.00214586
4 *263:23 0.00214664
5 *263:15 0.00528927
6 *263:13 0.00330084
7 *263:11 0.00393054
8 *263:9 0.0060764
9 *11887:A1 *984:DIODE 4.82919e-05
10 *11887:A1 *11887:S 1.85674e-05
11 *11887:A1 *637:64 0.000106752
12 *263:9 *12144:DI[21] 1.04275e-05
13 *263:9 *454:76 0.000151979
14 *263:11 *265:11 0.0180073
15 *263:15 *268:15 0.00837816
16 *263:15 *285:25 0.00137175
17 *263:23 *637:64 0.000190712
18 *3:41 *11887:A1 8.65961e-05
19 *177:16 *11887:A1 2.30292e-05
20 *262:11 *263:11 0.0175084
*RES
1 *12144:DO[21] *263:9 32.6
2 *263:9 *263:11 209.715
3 *263:11 *263:13 2
4 *263:13 *263:15 76.35
5 *263:15 *263:23 25.825
6 *263:23 *891:DIODE 1.6
7 *263:23 *11887:A1 8.675
*END

*D_NET *264 0.0663106
*CONN
*I *11890:A1 I *D sky130_fd_sc_hd__mux2_4
*I *892:DIODE I *D sky130_fd_sc_hd__diode_2
*I *12144:DO[22] O *D CF_SRAM_1024x32
*CAP
1 *11890:A1 0
2 *892:DIODE 0.000190164
3 *12144:DO[22] 0.000354107
4 *264:19 0.00146656
5 *264:15 0.00585493
6 *264:13 0.00457853
7 *264:11 0.00389167
8 *264:9 0.00424578
9 *892:DIODE *265:35 0.000125264
10 *892:DIODE *296:31 2.56752e-06
11 *264:9 *12144:BEN[21] 0
12 *264:9 *12144:DI[22] 0
13 *264:11 *12144:DI[10] 0.000965505
14 *264:11 *266:11 0.0187821
15 *264:11 *270:11 0.00146201
16 *264:11 *355:18 0.00303407
17 *264:15 *266:15 0.01279
18 *264:15 *292:23 0.000466186
19 *264:15 *294:25 0.000591487
20 *264:19 *296:27 0.000390426
21 *264:19 *296:31 7.66463e-05
22 *157:14 *892:DIODE 0
23 *258:11 *264:11 0.00704261
*RES
1 *12144:DO[22] *264:9 7.505
2 *264:9 *264:11 210.735
3 *264:11 *264:13 2
4 *264:13 *264:15 117.06
5 *264:15 *264:19 24.29
6 *264:19 *892:DIODE 6.375
7 *264:19 *11890:A1 3.6
*END

*D_NET *265 0.0759808
*CONN
*I *11893:A1 I *D sky130_fd_sc_hd__mux2_4
*I *893:DIODE I *D sky130_fd_sc_hd__diode_2
*I *12144:DO[23] O *D CF_SRAM_1024x32
*CAP
1 *11893:A1 0.000193256
2 *893:DIODE 0
3 *12144:DO[23] 0.00211005
4 *265:35 0.00277544
5 *265:15 0.005576
6 *265:13 0.00299382
7 *265:11 0.00552659
8 *265:9 0.00763664
9 *11893:A1 *269:28 0.000153217
10 *11893:A1 *297:36 8.53113e-06
11 *265:9 *12144:BEN[22] 0
12 *265:9 *12144:DI[23] 2.80029e-05
13 *265:9 *462:88 0.000151979
14 *265:11 *268:11 0.0194308
15 *265:11 *269:14 0.000793868
16 *265:15 *269:18 0.00639818
17 *265:35 *269:28 0.00137339
18 *265:35 *295:33 0
19 *892:DIODE *265:35 0.000125264
20 *11923:A *11893:A1 0
21 *159:14 *11893:A1 0
22 *185:22 *265:35 0.00269847
23 *263:11 *265:11 0.0180073
*RES
1 *12144:DO[23] *265:9 32.225
2 *265:9 *265:11 244.14
3 *265:11 *265:13 2
4 *265:13 *265:15 58.41
5 *265:15 *265:35 48.275
6 *265:35 *893:DIODE 1.6
7 *265:35 *11893:A1 8.975
*END

*D_NET *266 0.0865377
*CONN
*I *11896:A1 I *D sky130_fd_sc_hd__mux2_4
*I *894:DIODE I *D sky130_fd_sc_hd__diode_2
*I *895:DIODE I *D sky130_fd_sc_hd__diode_2
*I *12144:DO[24] O *D CF_SRAM_1024x32
*CAP
1 *11896:A1 5.93803e-05
2 *894:DIODE 0
3 *895:DIODE 0.00018032
4 *12144:DO[24] 0.000319265
5 *266:32 5.93803e-05
6 *266:19 0.00131139
7 *266:15 0.00364735
8 *266:13 0.00251628
9 *266:11 0.00394525
10 *266:9 0.00426451
11 *895:DIODE *269:32 8.65961e-05
12 *895:DIODE *298:29 1.0183e-05
13 *11896:A1 *991:DIODE 0.000123225
14 *11896:A1 *11896:A0 8.65961e-05
15 *11896:A1 *286:15 0.000237249
16 *11896:A1 *637:109 2.84447e-05
17 *266:9 *12144:DI[24] 0
18 *266:11 *12144:DI[10] 0.000944084
19 *266:11 *267:11 0.0202469
20 *266:11 *270:11 0
21 *266:15 *267:15 0.0146134
22 *266:15 *292:23 0.00157482
23 *266:19 *298:25 0.000621096
24 *266:19 *298:29 8.18011e-05
25 *11924:A *266:19 0
26 *258:11 *266:11 8.09021e-06
27 *264:11 *266:11 0.0187821
28 *264:15 *266:15 0.01279
*RES
1 *12144:DO[24] *266:9 7.19
2 *266:9 *266:11 227.31
3 *266:11 *266:13 2
4 *266:13 *266:15 133.62
5 *266:15 *266:19 23.78
6 *266:19 *895:DIODE 6.54
7 *266:19 *266:32 2
8 *266:32 *894:DIODE 1.6
9 *266:32 *11896:A1 4.135
*END

*D_NET *267 0.0889296
*CONN
*I *11899:A1 I *D sky130_fd_sc_hd__mux2_4
*I *897:DIODE I *D sky130_fd_sc_hd__diode_2
*I *12144:DO[25] O *D CF_SRAM_1024x32
*CAP
1 *11899:A1 9.37621e-05
2 *897:DIODE 0.000172932
3 *12144:DO[25] 0.000293032
4 *267:19 0.00205198
5 *267:15 0.00616282
6 *267:13 0.00437753
7 *267:11 0.0039096
8 *267:9 0.00420263
9 *897:DIODE *269:34 4.77719e-05
10 *11899:A1 *11899:A0 2.49909e-05
11 *11899:A1 *637:122 0.00018955
12 *267:9 *12144:DI[25] 0
13 *267:11 *12144:DI[10] 0.000949367
14 *267:11 *270:11 0
15 *267:11 *271:11 0.0209962
16 *267:15 *271:15 0.000233595
17 *267:15 *274:18 0.00241281
18 *267:15 *292:23 0.00178293
19 *258:11 *267:11 0
20 *260:17 *267:15 0.00484682
21 *262:15 *267:15 0.00132092
22 *266:11 *267:11 0.0202469
23 *266:15 *267:15 0.0146134
*RES
1 *12144:DO[25] *267:9 6.86
2 *267:9 *267:11 235.725
3 *267:11 *267:13 2
4 *267:13 *267:15 149.49
5 *267:15 *267:19 23.78
6 *267:19 *897:DIODE 5.685
7 *267:19 *11899:A1 5.43
*END

*D_NET *268 0.0935252
*CONN
*I *11902:A1 I *D sky130_fd_sc_hd__mux2_4
*I *898:DIODE I *D sky130_fd_sc_hd__diode_2
*I *12144:DO[26] O *D CF_SRAM_1024x32
*CAP
1 *11902:A1 0
2 *898:DIODE 0.000201799
3 *12144:DO[26] 0.00205537
4 *268:19 0.00125451
5 *268:15 0.00492187
6 *268:13 0.00386915
7 *268:11 0.00523886
8 *268:9 0.00729423
9 *898:DIODE *11902:A0 2.97004e-06
10 *898:DIODE *269:34 0.000126054
11 *268:9 *12144:DI[26] 0.000179982
12 *268:11 *269:14 0.0215383
13 *268:15 *270:15 0.0158092
14 *268:15 *285:25 0.00163255
15 *268:15 *296:27 0.00101397
16 *268:19 *11902:A0 6.66148e-05
17 *268:19 *300:25 6.63219e-06
18 *11924:A *268:15 0.000504257
19 *163:16 *898:DIODE 0
20 *263:15 *268:15 0.00837816
21 *265:11 *268:11 0.0194308
*RES
1 *12144:DO[26] *268:9 31.9587
2 *268:9 *268:11 250.77
3 *268:11 *268:13 2
4 *268:13 *268:15 144.315
5 *268:15 *268:19 18.17
6 *268:19 *898:DIODE 6.375
7 *268:19 *11902:A1 3.6
*END

*D_NET *269 0.0953399
*CONN
*I *11905:A1 I *D sky130_fd_sc_hd__mux2_4
*I *899:DIODE I *D sky130_fd_sc_hd__diode_2
*I *12144:DO[27] O *D CF_SRAM_1024x32
*CAP
1 *11905:A1 0.000230542
2 *899:DIODE 0
3 *12144:DO[27] 0.00210692
4 *269:34 0.00269823
5 *269:32 0.00411341
6 *269:28 0.00343292
7 *269:18 0.00276018
8 *269:16 0.000972978
9 *269:14 0.00604302
10 *269:12 0.00814994
11 *269:4 0
12 *11905:A1 *11905:A0 2.56752e-06
13 *269:12 *12144:DI[27] 2.47221e-05
14 *269:14 *274:14 0.0218258
15 *269:14 *365:74 0
16 *269:14 *365:78 0
17 *269:18 *287:30 0.000638986
18 *269:34 *12087:A 0.000425236
19 *895:DIODE *269:32 8.65961e-05
20 *897:DIODE *269:34 4.77719e-05
21 *898:DIODE *269:34 0.000126054
22 *11893:A1 *269:28 0.000153217
23 *159:14 *269:32 0.000236455
24 *167:10 *11905:A1 0
25 *177:8 *269:28 0.00023744
26 *177:8 *269:32 0.000113282
27 *177:16 *269:28 0.00377899
28 *177:18 *269:18 0.00654981
29 *177:18 *269:28 0.000407159
30 *185:18 *269:14 7.3916e-05
31 *265:11 *269:14 0.000793868
32 *265:15 *269:18 0.00639818
33 *265:35 *269:28 0.00137339
34 *268:11 *269:14 0.0215383
*RES
1 *12144:DO[27] *269:4 0.18375
2 *12144:DO[27] *269:12 31.43
3 *269:12 *269:14 277.035
4 *269:14 *269:16 2
5 *269:16 *269:18 59.79
6 *269:18 *269:28 45.015
7 *269:28 *269:32 18.5775
8 *269:32 *269:34 34.0875
9 *269:34 *899:DIODE 1.6
10 *269:34 *11905:A1 8.975
*END

*D_NET *270 0.100427
*CONN
*I *11908:A1 I *D sky130_fd_sc_hd__mux2_4
*I *900:DIODE I *D sky130_fd_sc_hd__diode_2
*I *12144:DO[28] O *D CF_SRAM_1024x32
*CAP
1 *11908:A1 0
2 *900:DIODE 0.000220009
3 *12144:DO[28] 0.000388147
4 *270:19 0.00128118
5 *270:15 0.00556364
6 *270:13 0.00450247
7 *270:11 0.00785023
8 *270:9 0.00823838
9 *900:DIODE *11908:A0 2.56752e-06
10 *270:11 *271:11 0
11 *270:15 *273:15 0.0204919
12 *270:15 *285:25 0.00349386
13 *270:19 *998:DIODE 6.16226e-06
14 *270:19 *11908:A0 2.70983e-05
15 *258:11 *270:11 0.0152639
16 *259:11 *270:11 0.0158264
17 *264:11 *270:11 0.00146201
18 *266:11 *270:11 0
19 *267:11 *270:11 0
20 *268:15 *270:15 0.0158092
*RES
1 *12144:DO[28] *270:9 8.12
2 *270:9 *270:11 266.58
3 *270:11 *270:13 2
4 *270:13 *270:15 191.925
5 *270:15 *270:19 17.915
6 *270:19 *900:DIODE 6.375
7 *270:19 *11908:A1 3.6
*END

*D_NET *271 0.0901881
*CONN
*I *11911:A1 I *D sky130_fd_sc_hd__mux2_4
*I *901:DIODE I *D sky130_fd_sc_hd__diode_2
*I *12144:DO[29] O *D CF_SRAM_1024x32
*CAP
1 *11911:A1 0
2 *901:DIODE 0.000196617
3 *12144:DO[29] 0.000261531
4 *271:19 0.00152161
5 *271:15 0.0102938
6 *271:13 0.00896882
7 *271:11 0.00818915
8 *271:9 0.00845068
9 *901:DIODE *1000:DIODE 5.21627e-05
10 *901:DIODE *303:35 2.97004e-06
11 *271:9 *12144:DI[29] 0
12 *271:11 *12144:BEN[23] 0
13 *271:11 *12144:TM 0
14 *271:11 *12144:BEN[0] 0
15 *271:11 *12144:DI[10] 0.00106748
16 *271:11 *272:11 0.0108184
17 *271:11 *560:234 0
18 *271:11 *638:325 0
19 *271:11 *638:337 0
20 *271:11 *638:349 0
21 *271:11 *639:379 0
22 *271:15 *274:18 0.0190587
23 *271:19 *303:33 6.15576e-06
24 *271:19 *303:35 7.03227e-05
25 *171:10 *901:DIODE 0
26 *258:11 *271:11 0
27 *267:11 *271:11 0.0209962
28 *267:15 *271:15 0.000233595
29 *270:11 *271:11 0
*RES
1 *12144:DO[29] *271:9 6.32
2 *271:9 *271:11 269.64
3 *271:11 *271:13 2
4 *271:13 *271:15 202.62
5 *271:15 *271:19 22.76
6 *271:19 *901:DIODE 6.375
7 *271:19 *11911:A1 3.6
*END

*D_NET *272 0.0440919
*CONN
*I *11830:A1 I *D sky130_fd_sc_hd__mux2_2
*I *902:DIODE I *D sky130_fd_sc_hd__diode_2
*I *12144:DO[2] O *D CF_SRAM_1024x32
*CAP
1 *11830:A1 5.85613e-05
2 *902:DIODE 8.54564e-05
3 *12144:DO[2] 0.000207608
4 *272:27 0.00151334
5 *272:11 0.00633264
6 *272:9 0.00517092
7 *902:DIODE *293:35 0.000260612
8 *902:DIODE *371:70 0.000259194
9 *11830:A1 *11830:S 2.49909e-05
10 *11830:A1 *304:54 8.73389e-06
11 *272:9 *12144:DI[2] 0
12 *272:11 *12144:BEN[14] 1.79483e-05
13 *272:11 *12144:DI[10] 0.00101841
14 *272:11 *276:11 0.000617794
15 *272:11 *278:11 0.00372768
16 *272:11 *360:76 0.00772712
17 *272:11 *360:98 8.63143e-05
18 *272:11 *560:210 0
19 *272:11 *560:222 0
20 *272:11 *560:234 0
21 *272:11 *638:156 0.000635939
22 *272:27 *1008:DIODE 8.23457e-05
23 *272:27 *11830:S 0.000118081
24 *272:27 *11833:S 2.01259e-05
25 *272:27 *12144:DI[10] 0.000137349
26 *272:27 *293:35 6.29494e-05
27 *272:27 *304:54 7.14699e-05
28 *272:27 *304:56 7.14699e-05
29 *272:27 *371:70 7.06347e-05
30 *11869:A1 *272:11 1.79483e-05
31 *119:16 *272:27 0
32 *123:16 *272:27 6.33103e-05
33 *127:8 *272:27 3.3098e-05
34 *137:16 *272:11 0
35 *137:16 *272:27 0.00123252
36 *141:16 *272:11 0.00186484
37 *141:16 *272:27 0.00123418
38 *206:11 *272:11 0.000439983
39 *258:11 *272:11 0
40 *271:11 *272:11 0.0108184
*RES
1 *12144:DO[2] *272:9 5.3825
2 *272:9 *272:11 194.925
3 *272:11 *272:27 38.39
4 *272:27 *902:DIODE 6.765
5 *272:27 *11830:A1 4.395
*END

*D_NET *273 0.102338
*CONN
*I *11914:A1 I *D sky130_fd_sc_hd__mux2_4
*I *903:DIODE I *D sky130_fd_sc_hd__diode_2
*I *12144:DO[30] O *D CF_SRAM_1024x32
*CAP
1 *11914:A1 0
2 *903:DIODE 0.000179251
3 *12144:DO[30] 0.000674822
4 *273:19 0.00117953
5 *273:15 0.0158046
6 *273:13 0.0148043
7 *273:11 0.0114047
8 *273:9 0.0120795
9 *903:DIODE *1010:DIODE 5.21627e-05
10 *903:DIODE *305:27 2.97004e-06
11 *903:DIODE *432:8 7.35813e-05
12 *273:9 *12144:DI[30] 0
13 *273:11 *12144:DI[12] 1.93765e-05
14 *273:11 *280:11 0.000481559
15 *273:11 *355:8 0.00550392
16 *273:11 *356:8 0.0127904
17 *273:11 *504:20 0.00123614
18 *273:15 *285:25 0.00347283
19 *273:19 *305:25 6.15576e-06
20 *273:19 *305:27 7.61153e-05
21 *173:10 *903:DIODE 0
22 *257:11 *273:11 0.00200452
23 *270:15 *273:15 0.0204919
*RES
1 *12144:DO[30] *273:9 12.545
2 *273:9 *273:11 282.9
3 *273:11 *273:13 2
4 *273:13 *273:15 203.31
5 *273:15 *273:19 17.66
6 *273:19 *903:DIODE 6.375
7 *273:19 *11914:A1 3.6
*END

*D_NET *274 0.0937468
*CONN
*I *11917:A1 I *D sky130_fd_sc_hd__mux2_4
*I *904:DIODE I *D sky130_fd_sc_hd__diode_2
*I *12144:DO[31] O *D CF_SRAM_1024x32
*CAP
1 *11917:A1 6.75488e-05
2 *904:DIODE 7.69458e-05
3 *12144:DO[31] 0.00201372
4 *274:22 0.0015936
5 *274:18 0.00726419
6 *274:16 0.00581508
7 *274:14 0.0117604
8 *274:12 0.0137672
9 *274:4 6.9367e-06
10 *904:DIODE *1012:DIODE 0.000117407
11 *904:DIODE *306:35 2.14129e-05
12 *11917:A1 *11917:A0 8.65961e-05
13 *11917:A1 *432:8 0
14 *11917:A1 *432:12 0.000160635
15 *274:12 *12144:DI[31] 0.000457734
16 *274:14 *309:19 0
17 *274:14 *365:78 0
18 *274:22 *306:33 3.17722e-05
19 *274:22 *306:35 0.000162325
20 *262:15 *274:18 0.00704606
21 *267:15 *274:18 0.00241281
22 *269:14 *274:14 0.0218258
23 *271:15 *274:18 0.0190587
*RES
1 *12144:DO[31] *274:4 0.12
2 *12144:DO[31] *274:12 31.43
3 *274:12 *274:14 286.725
4 *274:14 *274:16 2
5 *274:16 *274:18 195.03
6 *274:18 *274:22 25.055
7 *274:22 *904:DIODE 5.235
8 *274:22 *11917:A1 5.445
*END

*D_NET *275 0.0443501
*CONN
*I *11833:A1 I *D sky130_fd_sc_hd__mux2_2
*I *905:DIODE I *D sky130_fd_sc_hd__diode_2
*I *12144:DO[3] O *D CF_SRAM_1024x32
*CAP
1 *11833:A1 5.72266e-05
2 *905:DIODE 9.28802e-05
3 *12144:DO[3] 0.000440162
4 *275:21 0.000440038
5 *275:13 0.00459691
6 *275:11 0.00474714
7 *905:DIODE *1013:DIODE 9.20976e-05
8 *905:DIODE *395:58 0.00013757
9 *905:DIODE *415:58 5.83121e-06
10 *905:DIODE *438:76 2.23407e-05
11 *11833:A1 *11833:S 4.77719e-05
12 *11833:A1 *307:49 4.84937e-05
13 *11833:A1 *307:64 4.77757e-05
14 *275:11 *12144:DI[3] 0.000284698
15 *275:13 *277:11 0.00239777
16 *275:13 *635:78 0
17 *275:13 *636:89 0.0116776
18 *275:21 *11833:S 9.47454e-05
19 *275:21 *279:19 0.000111605
20 *275:21 *395:58 0.000328021
21 *275:21 *438:76 0.000133445
22 *275:21 *635:63 0.000178675
23 *275:21 *635:69 0.000447502
24 *881:DIODE *275:13 0
25 *119:16 *11833:A1 3.93162e-05
26 *127:8 *275:21 0.000816392
27 *205:11 *275:13 0
28 *251:11 *275:13 0.00036286
29 *261:11 *275:13 0.0167012
*RES
1 *12144:DO[3] *275:11 10.0475
2 *275:11 *275:13 199.515
3 *275:13 *275:21 15.625
4 *275:21 *905:DIODE 5.685
5 *275:21 *11833:A1 5.1
*END

*D_NET *276 0.0393526
*CONN
*I *11836:A1 I *D sky130_fd_sc_hd__mux2_2
*I *906:DIODE I *D sky130_fd_sc_hd__diode_2
*I *12144:DO[4] O *D CF_SRAM_1024x32
*CAP
1 *11836:A1 0.000133554
2 *906:DIODE 0.000114264
3 *12144:DO[4] 0.000125305
4 *276:15 0.00116149
5 *276:11 0.00398472
6 *276:9 0.00319635
7 *906:DIODE *409:14 9.14049e-05
8 *11836:A1 *11836:S 3.96284e-05
9 *11836:A1 *308:31 3.1562e-06
10 *276:9 *12144:DI[4] 0.000189397
11 *276:11 *278:11 0.0138877
12 *276:11 *279:11 0.0131993
13 *276:11 *560:174 9.87163e-05
14 *276:11 *560:186 0.000319442
15 *276:11 *560:198 0.000319442
16 *276:11 *560:210 0.000179354
17 *276:11 *638:156 0.00138448
18 *276:15 *11836:S 0.00013977
19 *206:9 *276:15 8.49936e-05
20 *257:23 *906:DIODE 8.23457e-05
21 *272:11 *276:11 0.000617794
*RES
1 *12144:DO[4] *276:9 4.5725
2 *276:9 *276:11 172.995
3 *276:11 *276:15 13.49
4 *276:15 *906:DIODE 7.52
5 *276:15 *11836:A1 3.085
*END

*D_NET *277 0.0360197
*CONN
*I *11839:A1 I *D sky130_fd_sc_hd__mux2_2
*I *908:DIODE I *D sky130_fd_sc_hd__diode_2
*I *12144:DO[5] O *D CF_SRAM_1024x32
*CAP
1 *11839:A1 9.2036e-05
2 *908:DIODE 0.000192318
3 *12144:DO[5] 0.00036141
4 *277:15 0.00078095
5 *277:11 0.00481147
6 *277:9 0.00467628
7 *908:DIODE *409:14 0.0001699
8 *11839:A1 *309:33 0.000107205
9 *277:9 *12144:DI[5] 0.000735299
10 *277:11 *636:89 0.0102393
11 *277:15 *1034:DIODE 8.23457e-05
12 *277:15 *11839:S 0.000102529
13 *277:15 *309:33 4.66108e-05
14 *277:15 *309:35 4.66108e-05
15 *277:15 *309:37 8.23457e-05
16 *123:16 *277:15 7.98134e-05
17 *251:11 *277:11 0.0110155
18 *259:11 *277:11 0
19 *259:23 *277:15 0
20 *275:13 *277:11 0.00239777
*RES
1 *12144:DO[5] *277:9 9.7325
2 *277:9 *277:11 169.68
3 *277:11 *277:15 8.315
4 *277:15 *908:DIODE 8.195
5 *277:15 *11839:A1 2.74
*END

*D_NET *278 0.0401216
*CONN
*I *11842:A1 I *D sky130_fd_sc_hd__mux2_2
*I *909:DIODE I *D sky130_fd_sc_hd__diode_2
*I *12144:DO[6] O *D CF_SRAM_1024x32
*CAP
1 *11842:A1 1.20605e-05
2 *909:DIODE 5.65053e-05
3 *12144:DO[6] 0.000135581
4 *278:23 0.00140489
5 *278:11 0.00420422
6 *278:9 0.00300348
7 *909:DIODE *438:76 0.000152634
8 *909:DIODE *509:68 0.000152634
9 *11842:A1 *310:42 4.66108e-05
10 *11842:A1 *637:25 3.57349e-05
11 *278:9 *12144:DI[6] 0.000221951
12 *278:11 *12144:BEN[14] 1.79483e-05
13 *278:11 *12144:DI[10] 1.93834e-05
14 *278:11 *279:11 0.00015977
15 *278:11 *279:19 2.10433e-05
16 *278:11 *360:76 0.00754553
17 *278:11 *360:98 8.00915e-05
18 *278:11 *638:156 0.00117384
19 *278:23 *1042:DIODE 8.23457e-05
20 *278:23 *310:42 7.14699e-05
21 *278:23 *310:44 7.14699e-05
22 *278:23 *637:25 0.000254389
23 *11869:A1 *278:11 1.79483e-05
24 *11936:A *278:23 0.00029854
25 *123:16 *278:23 0
26 *125:8 *278:23 0.000163969
27 *139:16 *278:23 0.00189524
28 *203:9 *278:23 7.28804e-05
29 *205:11 *278:23 0.00079914
30 *251:11 *278:23 0.000167071
31 *258:21 *278:23 0.000161961
32 *259:23 *278:23 5.83121e-06
33 *272:11 *278:11 0.00372768
34 *276:11 *278:11 0.0138877
*RES
1 *12144:DO[6] *278:9 4.8875
2 *278:9 *278:11 159.99
3 *278:11 *278:23 42.645
4 *278:23 *909:DIODE 7.49
5 *278:23 *11842:A1 2.05
*END

*D_NET *279 0.0388673
*CONN
*I *11845:A1 I *D sky130_fd_sc_hd__mux2_2
*I *910:DIODE I *D sky130_fd_sc_hd__diode_2
*I *12144:DO[7] O *D CF_SRAM_1024x32
*CAP
1 *11845:A1 5.12312e-05
2 *910:DIODE 0.000118046
3 *12144:DO[7] 8.42341e-05
4 *279:19 0.00115598
5 *279:11 0.00376439
6 *279:9 0.00286192
7 *910:DIODE *409:14 0.000157595
8 *11845:A1 *635:63 4.66108e-05
9 *11845:A1 *635:69 3.57349e-05
10 *279:9 *12144:BEN[6] 0
11 *279:9 *12144:DI[7] 5.65429e-05
12 *279:11 *12144:BEN[8] 0.00014055
13 *279:11 *281:11 0.0119975
14 *279:11 *560:162 8.41015e-06
15 *279:11 *560:174 0.000239551
16 *279:11 *638:156 0.00165741
17 *279:19 *281:11 2.13396e-05
18 *279:19 *281:27 0.00120876
19 *279:19 *360:76 2.13396e-05
20 *279:19 *635:69 0.000410098
21 *127:8 *279:19 0.00011006
22 *133:14 *279:19 0
23 *251:15 *279:19 3.97391e-05
24 *258:21 *279:19 0.0011885
25 *275:21 *279:19 0.000111605
26 *276:11 *279:11 0.0131993
27 *278:11 *279:11 0.00015977
28 *278:11 *279:19 2.10433e-05
*RES
1 *12144:DO[7] *279:9 3.6725
2 *279:9 *279:11 152.212
3 *279:11 *279:19 28.1975
4 *279:19 *910:DIODE 7.49
5 *279:19 *11845:A1 2.395
*END

*D_NET *280 0.0273888
*CONN
*I *911:DIODE I *D sky130_fd_sc_hd__diode_2
*I *11848:A1 I *D sky130_fd_sc_hd__mux2_2
*I *12144:DO[8] O *D CF_SRAM_1024x32
*CAP
1 *911:DIODE 4.43379e-05
2 *11848:A1 0.0001746
3 *12144:DO[8] 0.000537642
4 *280:11 0.00354088
5 *280:9 0.00385959
6 *11848:A1 *635:109 4.13249e-05
7 *11848:A1 *635:120 0.000122749
8 *280:9 *12144:DI[8] 0.00030354
9 *280:11 *356:8 0.00588067
10 *280:11 *369:76 0.000287201
11 *280:11 *635:120 0.00153213
12 *207:13 *11848:A1 6.71882e-05
13 *252:14 *11848:A1 0.000299128
14 *252:14 *280:11 0.00908723
15 *257:11 *280:11 0
16 *261:11 *280:11 0.00112902
17 *273:11 *280:11 0.000481559
*RES
1 *12144:DO[8] *280:9 10.9025
2 *280:9 *280:11 129.39
3 *280:11 *11848:A1 8.16
4 *280:11 *911:DIODE 4.05
*END

*D_NET *281 0.0375262
*CONN
*I *11851:A1 I *D sky130_fd_sc_hd__mux2_2
*I *912:DIODE I *D sky130_fd_sc_hd__diode_2
*I *12144:DO[9] O *D CF_SRAM_1024x32
*CAP
1 *11851:A1 6.32979e-05
2 *912:DIODE 2.36145e-05
3 *12144:DO[9] 9.06217e-05
4 *281:27 0.00198292
5 *281:11 0.00555286
6 *281:9 0.00374747
7 *912:DIODE *395:58 7.23533e-05
8 *912:DIODE *400:80 7.23533e-05
9 *11851:A1 *313:46 4.41506e-05
10 *281:9 *12144:DI[9] 0.000121019
11 *281:11 *12124:BEN[27] 1.79536e-05
12 *281:11 *12124:BEN[28] 1.73848e-05
13 *281:11 *12124:BEN[29] 1.6247e-05
14 *281:11 *12124:BEN[30] 4.01548e-05
15 *281:11 *12124:BEN[31] 8.14501e-05
16 *281:11 *12124:DI[28] 1.79536e-05
17 *281:11 *12124:DI[29] 1.79536e-05
18 *281:11 *12124:DI[30] 1.79536e-05
19 *281:11 *12124:DI[31] 1.79536e-05
20 *281:11 *12144:BEN[13] 1.79483e-05
21 *281:11 *12144:BEN[8] 0.000257693
22 *281:11 *557:425 3.91137e-05
23 *281:11 *557:437 0.00067943
24 *281:11 *557:449 0.000786179
25 *281:11 *557:461 0.000740019
26 *281:11 *638:156 0.00178554
27 *281:27 *1058:DIODE 8.35106e-05
28 *281:27 *11935:A 4.60061e-05
29 *281:27 *12124:BEN[26] 8.41703e-06
30 *281:27 *12124:DI[27] 8.41703e-06
31 *281:27 *12124:DI[25] 1.93834e-05
32 *281:27 *313:46 1.91597e-05
33 *281:27 *313:48 7.20899e-05
34 *281:27 *636:8 4.85657e-05
35 *11863:A1 *281:11 1.79483e-05
36 *123:18 *281:27 0.00108406
37 *133:14 *281:27 0.00190287
38 *204:21 *281:27 0.000102616
39 *255:11 *281:11 0.0041955
40 *258:21 *281:27 0.000368433
41 *279:11 *281:11 0.0119975
42 *279:19 *281:11 2.13396e-05
43 *279:19 *281:27 0.00120876
*RES
1 *12144:DO[9] *281:9 3.8075
2 *281:9 *281:11 135.893
3 *281:11 *281:27 49.7225
4 *281:27 *912:DIODE 6.47
5 *281:27 *11851:A1 2.395
*END

*D_NET *282 0.0992968
*CONN
*I *917:DIODE I *D sky130_fd_sc_hd__diode_2
*I *915:DIODE I *D sky130_fd_sc_hd__diode_2
*I *914:DIODE I *D sky130_fd_sc_hd__diode_2
*I *11823:A0 I *D sky130_fd_sc_hd__mux2_2
*I *913:DIODE I *D sky130_fd_sc_hd__diode_2
*I *916:DIODE I *D sky130_fd_sc_hd__diode_2
*I *919:DIODE I *D sky130_fd_sc_hd__diode_2
*I *920:DIODE I *D sky130_fd_sc_hd__diode_2
*I *12154:DO[0] O *D CF_SRAM_1024x32
*CAP
1 *917:DIODE 0
2 *915:DIODE 0
3 *914:DIODE 0
4 *11823:A0 0
5 *913:DIODE 0
6 *916:DIODE 0
7 *919:DIODE 0
8 *920:DIODE 6.65395e-05
9 *12154:DO[0] 0.00568514
10 *282:45 0.00011777
11 *282:43 0.000122374
12 *282:41 0.000169135
13 *282:39 0.000365261
14 *282:33 0.00032721
15 *282:31 9.38317e-05
16 *282:29 3.38914e-05
17 *282:27 0.00864282
18 *282:25 0.014328
19 *282:25 *12154:AD[3] 0.00045747
20 *282:25 *12154:ScanInCC 0
21 *282:25 *12154:DI[0] 0.00167261
22 *282:25 *12154:DI[1] 0.0253203
23 *282:25 *289:21 0.000464497
24 *282:25 *293:17 0.0253204
25 *282:25 *432:54 1.31816e-05
26 *282:25 *480:58 3.97719e-05
27 *282:27 *12144:DI[14] 1.7635e-05
28 *282:27 *290:27 0.00588954
29 *282:27 *291:19 0.00506391
30 *282:27 *304:33 0.00159666
31 *282:27 *362:80 0.00117197
32 *282:27 *389:52 0
33 *282:27 *513:54 0.000552307
34 *282:41 *11823:S 3.83194e-05
35 *282:43 *11823:S 5.74791e-05
36 *282:45 *11823:S 2.49909e-05
37 *11823:A1 *282:41 2.49909e-05
38 *112:8 *282:31 3.67233e-05
39 *112:8 *282:33 7.29847e-05
40 *112:8 *282:39 0.000118081
41 *121:16 *282:27 0.00139103
*RES
1 *12154:DO[0] *282:25 48.2981
2 *282:25 *282:27 212.902
3 *282:27 *282:29 2
4 *282:29 *282:31 0.45
5 *282:31 *282:33 0.795
6 *282:33 *282:39 3.24
7 *282:39 *282:41 1.485
8 *282:41 *282:43 1.14
9 *282:43 *282:45 0.795
10 *282:45 *920:DIODE 2.395
11 *282:45 *919:DIODE 1.6
12 *282:43 *916:DIODE 1.6
13 *282:41 *913:DIODE 1.6
14 *282:39 *11823:A0 1.6
15 *282:33 *914:DIODE 1.6
16 *282:31 *915:DIODE 1.6
17 *282:29 *917:DIODE 1.6
*END

*D_NET *283 0.0902686
*CONN
*I *926:DIODE I *D sky130_fd_sc_hd__diode_2
*I *924:DIODE I *D sky130_fd_sc_hd__diode_2
*I *922:DIODE I *D sky130_fd_sc_hd__diode_2
*I *921:DIODE I *D sky130_fd_sc_hd__diode_2
*I *11854:A0 I *D sky130_fd_sc_hd__mux2_2
*I *925:DIODE I *D sky130_fd_sc_hd__diode_2
*I *927:DIODE I *D sky130_fd_sc_hd__diode_2
*I *923:DIODE I *D sky130_fd_sc_hd__diode_2
*I *12154:DO[10] O *D CF_SRAM_1024x32
*CAP
1 *926:DIODE 0
2 *924:DIODE 0
3 *922:DIODE 0
4 *921:DIODE 0
5 *11854:A0 0
6 *925:DIODE 0
7 *927:DIODE 4.16082e-05
8 *923:DIODE 5.26439e-05
9 *12154:DO[10] 0.0081606
10 *283:58 9.31619e-05
11 *283:45 0.000127783
12 *283:41 0.000223368
13 *283:37 0.000277976
14 *283:35 0.000156334
15 *283:33 0.000158474
16 *283:31 0.000195031
17 *283:27 0.00126538
18 *283:25 0.00627556
19 *283:21 0.0132855
20 *923:DIODE *635:69 0.000132915
21 *923:DIODE *635:78 8.7152e-06
22 *283:21 *12154:DI[10] 4.1457e-05
23 *283:21 *304:21 0
24 *283:21 *313:21 0
25 *283:21 *480:58 6.18018e-05
26 *283:21 *557:353 6.18018e-05
27 *283:25 *284:28 0.0252409
28 *283:25 *287:30 0
29 *283:25 *304:25 0
30 *283:25 *311:25 0.023671
31 *283:27 *11845:A0 0.000175672
32 *283:27 *311:27 0.00446738
33 *283:27 *424:70 0.000690473
34 *283:27 *438:76 0.00151437
35 *283:27 *506:62 0.00308776
36 *283:27 *509:68 1.44177e-05
37 *283:58 *635:78 9.8887e-05
38 *11854:A1 *283:45 3.64998e-06
39 *129:10 *923:DIODE 0.000131565
40 *129:10 *283:58 0.000106377
41 *133:14 *283:41 0.000156837
42 *133:14 *283:45 4.66108e-05
43 *167:12 *283:25 0.000226891
44 *261:15 *927:DIODE 1.56428e-05
*RES
1 *12154:DO[10] *283:21 24.7454
2 *283:21 *283:25 38.4987
3 *283:25 *283:27 53.7825
4 *283:27 *283:31 3.14
5 *283:31 *283:33 0.795
6 *283:33 *283:35 0.795
7 *283:35 *283:37 0.795
8 *283:37 *283:41 3.135
9 *283:41 *283:45 2.45
10 *283:45 *923:DIODE 5.235
11 *283:45 *283:58 3.38
12 *283:58 *927:DIODE 2.05
13 *283:58 *925:DIODE 1.6
14 *283:41 *11854:A0 1.6
15 *283:37 *921:DIODE 1.6
16 *283:35 *922:DIODE 1.6
17 *283:33 *924:DIODE 1.6
18 *283:31 *926:DIODE 1.6
*END

*D_NET *284 0.0877963
*CONN
*I *934:DIODE I *D sky130_fd_sc_hd__diode_2
*I *932:DIODE I *D sky130_fd_sc_hd__diode_2
*I *930:DIODE I *D sky130_fd_sc_hd__diode_2
*I *928:DIODE I *D sky130_fd_sc_hd__diode_2
*I *11857:A0 I *D sky130_fd_sc_hd__mux2_2
*I *933:DIODE I *D sky130_fd_sc_hd__diode_2
*I *931:DIODE I *D sky130_fd_sc_hd__diode_2
*I *935:DIODE I *D sky130_fd_sc_hd__diode_2
*I *12154:DO[11] O *D CF_SRAM_1024x32
*CAP
1 *934:DIODE 6.20368e-05
2 *932:DIODE 0
3 *930:DIODE 0
4 *928:DIODE 0
5 *11857:A0 0
6 *933:DIODE 8.44579e-05
7 *931:DIODE 0
8 *935:DIODE 9.40405e-05
9 *12154:DO[11] 0.00423686
10 *284:80 0.000124074
11 *284:73 0.000124074
12 *284:66 0.000258661
13 *284:59 0.000196625
14 *284:45 8.44579e-05
15 *284:32 0.000123722
16 *284:30 0.000739465
17 *284:28 0.0063107
18 *284:24 0.00982995
19 *284:4 7.82721e-06
20 *935:DIODE *635:100 0.000183936
21 *284:24 *12154:DI[11] 0.00175315
22 *284:24 *288:24 0.000318424
23 *284:24 *289:21 0.00523605
24 *284:24 *290:21 0.000381433
25 *284:24 *301:19 4.43699e-05
26 *284:24 *449:22 0.000121111
27 *284:24 *480:58 1.79483e-05
28 *284:24 *557:341 1.79483e-05
29 *284:28 *311:25 1.57264e-05
30 *284:28 *312:25 0.0266198
31 *284:28 *449:22 2.253e-05
32 *284:30 *369:76 0.000109931
33 *284:30 *635:100 4.61595e-05
34 *284:30 *635:109 0.000159269
35 *284:30 *635:120 0.00253982
36 *284:32 *635:100 0.000110683
37 *11857:A1 *284:66 3.64998e-06
38 *3:23 *284:28 7.38936e-05
39 *129:10 *935:DIODE 0.000182269
40 *129:10 *284:30 0.000137571
41 *129:10 *284:32 0.000116853
42 *135:34 *284:66 2.49909e-05
43 *257:11 *284:30 0.000396873
44 *257:23 *284:30 0.00164406
45 *283:25 *284:28 0.0252409
*RES
1 *12154:DO[11] *284:4 0.1275
2 *12154:DO[11] *284:24 21.0648
3 *284:24 *284:28 40.8877
4 *284:28 *284:30 31.5975
5 *284:30 *284:32 1.38
6 *284:32 *935:DIODE 6.195
7 *284:32 *284:45 2
8 *284:45 *931:DIODE 1.6
9 *284:45 *933:DIODE 2.395
10 *284:30 *284:59 2
11 *284:59 *11857:A0 1.6
12 *284:59 *284:66 2.52
13 *284:66 *928:DIODE 1.6
14 *284:66 *284:73 0.795
15 *284:73 *930:DIODE 1.6
16 *284:73 *284:80 0.795
17 *284:80 *932:DIODE 1.6
18 *284:80 *934:DIODE 2.395
*END

*D_NET *285 0.0830559
*CONN
*I *946:DIODE I *D sky130_fd_sc_hd__diode_2
*I *944:DIODE I *D sky130_fd_sc_hd__diode_2
*I *942:DIODE I *D sky130_fd_sc_hd__diode_2
*I *939:DIODE I *D sky130_fd_sc_hd__diode_2
*I *937:DIODE I *D sky130_fd_sc_hd__diode_2
*I *11860:A0 I *D sky130_fd_sc_hd__mux2_2
*I *936:DIODE I *D sky130_fd_sc_hd__diode_2
*I *938:DIODE I *D sky130_fd_sc_hd__diode_2
*I *941:DIODE I *D sky130_fd_sc_hd__diode_2
*I *943:DIODE I *D sky130_fd_sc_hd__diode_2
*I *945:DIODE I *D sky130_fd_sc_hd__diode_2
*I *12154:DO[12] O *D CF_SRAM_1024x32
*CAP
1 *946:DIODE 0.000484203
2 *944:DIODE 0
3 *942:DIODE 0
4 *939:DIODE 0
5 *937:DIODE 0
6 *11860:A0 2.08101e-05
7 *936:DIODE 0
8 *938:DIODE 0
9 *941:DIODE 0
10 *943:DIODE 0
11 *945:DIODE 6.04177e-05
12 *12154:DO[12] 0.00324286
13 *285:47 0.000128489
14 *285:45 0.000132216
15 *285:43 0.000119695
16 *285:41 0.000186911
17 *285:39 0.000307397
18 *285:37 0.000211984
19 *285:35 0.000113519
20 *285:33 0.000114619
21 *285:31 0.000123337
22 *285:27 0.00147619
23 *285:25 0.0194964
24 *285:21 0.0218127
25 *945:DIODE *286:19 5.05437e-05
26 *285:21 *12154:DI[12] 0.00215003
27 *285:21 *301:19 0.00416407
28 *285:21 *480:58 1.79483e-05
29 *285:21 *557:329 1.79483e-05
30 *285:25 *289:25 0.00519458
31 *285:25 *296:27 0.0114257
32 *285:33 *286:19 4.40028e-05
33 *285:35 *286:19 4.40028e-05
34 *285:37 *286:19 4.40028e-05
35 *285:39 *286:19 0.000135449
36 *285:41 *286:19 8.3762e-05
37 *285:43 *286:19 4.60584e-05
38 *285:45 *286:19 4.08514e-05
39 *285:47 *286:19 3.83194e-05
40 *11860:A1 *285:41 4.82919e-05
41 *11869:A1 *285:25 0.00146771
42 *179:18 *285:25 3.99991e-05
43 *263:15 *285:25 0.00137175
44 *268:15 *285:25 0.00163255
45 *270:15 *285:25 0.00349386
46 *273:15 *285:25 0.00347283
*RES
1 *12154:DO[12] *285:21 16.5851
2 *285:21 *285:25 46.3647
3 *285:25 *285:27 14.2575
4 *285:27 *285:31 2.87
5 *285:31 *285:33 0.795
6 *285:33 *285:35 0.795
7 *285:35 *285:37 0.795
8 *285:37 *285:39 2.175
9 *285:39 *285:41 1.83
10 *285:41 *285:43 0.795
11 *285:43 *285:45 0.795
12 *285:45 *285:47 0.795
13 *285:47 *945:DIODE 2.395
14 *285:47 *943:DIODE 1.6
15 *285:45 *941:DIODE 1.6
16 *285:43 *938:DIODE 1.6
17 *285:41 *936:DIODE 1.6
18 *285:39 *11860:A0 1.96
19 *285:37 *937:DIODE 1.6
20 *285:35 *939:DIODE 1.6
21 *285:33 *942:DIODE 1.6
22 *285:31 *944:DIODE 1.6
23 *285:27 *946:DIODE 8.88
*END

*D_NET *286 0.0755796
*CONN
*I *947:DIODE I *D sky130_fd_sc_hd__diode_2
*I *11863:A0 I *D sky130_fd_sc_hd__mux2_2
*I *12154:DO[13] O *D CF_SRAM_1024x32
*CAP
1 *947:DIODE 0
2 *11863:A0 9.15337e-05
3 *12154:DO[13] 0.000495398
4 *286:19 0.00274044
5 *286:15 0.0227581
6 *286:13 0.0201092
7 *286:11 0.00193077
8 *286:9 0.00242617
9 *11863:A0 *635:134 0.000238594
10 *286:9 *12154:DI[13] 0.000154977
11 *286:11 *297:11 0.00455255
12 *286:11 *426:52 0
13 *286:15 *986:DIODE 8.6076e-05
14 *286:15 *987:DIODE 2.10152e-05
15 *286:15 *991:DIODE 2.16833e-05
16 *286:15 *297:15 0.011047
17 *286:15 *301:25 0.00045833
18 *286:15 *302:23 0.000314586
19 *286:15 *555:16 0.000118081
20 *286:15 *637:85 0.00023389
21 *286:15 *637:96 0.000698569
22 *286:15 *637:109 0.000491563
23 *286:15 *637:122 0.00111875
24 *286:15 *637:133 0.000876993
25 *286:19 *11860:S 0.000495995
26 *286:19 *635:134 7.49327e-05
27 *945:DIODE *286:19 5.05437e-05
28 *11860:A1 *286:19 4.82919e-05
29 *11896:A1 *286:15 0.000237249
30 *185:22 *286:15 0.00321182
31 *285:33 *286:19 4.40028e-05
32 *285:35 *286:19 4.40028e-05
33 *285:37 *286:19 4.40028e-05
34 *285:39 *286:19 0.000135449
35 *285:41 *286:19 8.3762e-05
36 *285:43 *286:19 4.60584e-05
37 *285:45 *286:19 4.08514e-05
38 *285:47 *286:19 3.83194e-05
*RES
1 *12154:DO[13] *286:9 9.9575
2 *286:9 *286:11 51.36
3 *286:11 *286:13 2
4 *286:13 *286:15 264.203
5 *286:15 *286:19 42.9825
6 *286:19 *11863:A0 3.775
7 *286:19 *947:DIODE 1.6
*END

*D_NET *287 0.074872
*CONN
*I *948:DIODE I *D sky130_fd_sc_hd__diode_2
*I *11866:A0 I *D sky130_fd_sc_hd__mux2_2
*I *12154:DO[14] O *D CF_SRAM_1024x32
*CAP
1 *948:DIODE 0
2 *11866:A0 4.91437e-05
3 *12154:DO[14] 0.00163347
4 *287:32 4.91437e-05
5 *287:30 0.0185319
6 *287:24 0.0201654
7 *287:4 0
8 *11866:A0 *635:124 0.000138705
9 *287:24 *12154:DI[14] 0.000370766
10 *287:24 *312:21 0.00445378
11 *287:24 *476:56 0.00259286
12 *287:24 *480:58 3.97748e-05
13 *287:24 *557:305 3.97748e-05
14 *287:30 *12083:A 0.00293303
15 *287:30 *12087:A 0.000607817
16 *287:30 *304:25 0.00713074
17 *287:30 *311:25 0
18 *287:30 *426:6 0.000901192
19 *287:30 *449:10 0.000451726
20 *287:30 *449:22 0
21 *287:30 *635:124 0.000646235
22 *287:30 *636:72 0.000828096
23 *287:30 *637:31 0.00104221
24 *287:30 *637:64 0.000214198
25 *11866:A1 *11866:A0 0.000136853
26 *11866:A1 *287:30 0.000699024
27 *3:25 *287:30 0.000768476
28 *137:14 *287:30 0
29 *153:14 *287:30 3.1187e-05
30 *155:14 *287:30 3.1187e-05
31 *157:14 *287:30 0.000663695
32 *159:14 *287:30 0.000331702
33 *161:14 *287:30 0.00141194
34 *163:16 *287:30 0.000484863
35 *165:14 *287:30 0.00548305
36 *175:8 *287:30 0.000404969
37 *177:18 *287:30 0.000649239
38 *253:19 *287:30 0.00031693
39 *269:18 *287:30 0.000638986
40 *283:25 *287:30 0
*RES
1 *12154:DO[14] *287:4 0.133636
2 *12154:DO[14] *287:24 14.6926
3 *287:24 *287:30 48.9279
4 *287:30 *287:32 2
5 *287:32 *11866:A0 3.775
6 *287:32 *948:DIODE 1.6
*END

*D_NET *288 0.0621961
*CONN
*I *949:DIODE I *D sky130_fd_sc_hd__diode_2
*I *11869:A0 I *D sky130_fd_sc_hd__mux2_4
*I *950:DIODE I *D sky130_fd_sc_hd__diode_2
*I *12154:DO[15] O *D CF_SRAM_1024x32
*CAP
1 *949:DIODE 0
2 *11869:A0 0
3 *950:DIODE 0.000122873
4 *12154:DO[15] 0.00251947
5 *288:36 0.000338951
6 *288:32 0.000954946
7 *288:26 0.0272632
8 *288:24 0.0290438
9 *288:4 0
10 *288:24 *12154:DI[15] 3.95221e-05
11 *288:24 *360:98 0.00137388
12 *288:24 *480:58 1.79483e-05
13 *288:24 *557:293 1.79483e-05
14 *288:36 *11869:S 0.000136829
15 *11869:A1 *288:32 0
16 *143:12 *288:36 4.82919e-05
17 *284:24 *288:24 0.000318424
*RES
1 *12154:DO[15] *288:4 0.163333
2 *12154:DO[15] *288:24 11.7269
3 *288:24 *288:26 50.1182
4 *288:26 *288:32 14.4625
5 *288:32 *288:36 4.17
6 *288:36 *950:DIODE 3.43
7 *288:36 *11869:A0 1.6
8 *288:32 *949:DIODE 1.6
*END

*D_NET *289 0.0921926
*CONN
*I *958:DIODE I *D sky130_fd_sc_hd__diode_2
*I *954:DIODE I *D sky130_fd_sc_hd__diode_2
*I *952:DIODE I *D sky130_fd_sc_hd__diode_2
*I *953:DIODE I *D sky130_fd_sc_hd__diode_2
*I *955:DIODE I *D sky130_fd_sc_hd__diode_2
*I *956:DIODE I *D sky130_fd_sc_hd__diode_2
*I *957:DIODE I *D sky130_fd_sc_hd__diode_2
*I *11872:A0 I *D sky130_fd_sc_hd__mux2_2
*I *12154:DO[16] O *D CF_SRAM_1024x32
*CAP
1 *958:DIODE 3.03798e-05
2 *954:DIODE 0
3 *952:DIODE 0.000272474
4 *953:DIODE 0
5 *955:DIODE 0
6 *956:DIODE 0
7 *957:DIODE 3.41908e-05
8 *11872:A0 0
9 *12154:DO[16] 0.00651811
10 *289:50 6.61237e-05
11 *289:48 6.38658e-05
12 *289:46 0.000137479
13 *289:37 0.000195735
14 *289:35 0.000454025
15 *289:33 0.000112983
16 *289:31 0.000215529
17 *289:27 0.00162014
18 *289:25 0.0201603
19 *289:21 0.0252218
20 *952:DIODE *304:33 0.000139933
21 *957:DIODE *11872:S 4.41506e-05
22 *958:DIODE *290:27 0.00011852
23 *958:DIODE *291:19 0.00011852
24 *289:21 *12154:EN 0
25 *289:21 *12154:ScanInDR 0.000156142
26 *289:21 *12154:DI[16] 0.000507168
27 *289:21 *290:21 0.0160341
28 *289:21 *432:54 4.61701e-06
29 *289:21 *480:58 1.7635e-05
30 *289:27 *309:19 0.00547308
31 *289:27 *365:74 0.00225476
32 *289:46 *11872:S 4.24661e-05
33 *289:48 *11872:S 3.83194e-05
34 *289:50 *11872:S 3.83194e-05
35 *11872:A1 *957:DIODE 1.91597e-05
36 *11872:A1 *289:46 6.33103e-05
37 *11872:A1 *289:48 4.41506e-05
38 *11872:A1 *289:50 4.41506e-05
39 *121:16 *952:DIODE 4.63276e-05
40 *145:8 *289:31 0.000118081
41 *145:8 *289:33 4.66108e-05
42 *145:8 *289:35 0.000111089
43 *179:18 *289:25 1.52249e-05
44 *181:51 *289:27 0.000673406
45 *257:23 *957:DIODE 2.49909e-05
46 *282:25 *289:21 0.000464497
47 *284:24 *289:21 0.00523605
48 *285:25 *289:25 0.00519458
*RES
1 *12154:DO[16] *289:21 37.6037
2 *289:21 *289:25 37.9743
3 *289:25 *289:27 62.1975
4 *289:27 *289:31 4.52
5 *289:31 *289:33 0.45
6 *289:33 *289:35 1.485
7 *289:35 *289:37 1.14
8 *289:37 *11872:A0 1.6
9 *289:37 *289:46 1.845
10 *289:46 *289:48 0.795
11 *289:48 *289:50 0.795
12 *289:50 *957:DIODE 2.395
13 *289:50 *956:DIODE 1.6
14 *289:48 *955:DIODE 1.6
15 *289:46 *953:DIODE 1.6
16 *289:35 *952:DIODE 9.065
17 *289:33 *954:DIODE 1.6
18 *289:31 *958:DIODE 6.98
*END

*D_NET *290 0.105622
*CONN
*I *967:DIODE I *D sky130_fd_sc_hd__diode_2
*I *963:DIODE I *D sky130_fd_sc_hd__diode_2
*I *959:DIODE I *D sky130_fd_sc_hd__diode_2
*I *11875:A0 I *D sky130_fd_sc_hd__mux2_2
*I *960:DIODE I *D sky130_fd_sc_hd__diode_2
*I *961:DIODE I *D sky130_fd_sc_hd__diode_2
*I *964:DIODE I *D sky130_fd_sc_hd__diode_2
*I *965:DIODE I *D sky130_fd_sc_hd__diode_2
*I *966:DIODE I *D sky130_fd_sc_hd__diode_2
*I *968:DIODE I *D sky130_fd_sc_hd__diode_2
*I *12154:DO[17] O *D CF_SRAM_1024x32
*CAP
1 *967:DIODE 0.000184035
2 *963:DIODE 3.53659e-05
3 *959:DIODE 0.000141766
4 *11875:A0 0
5 *960:DIODE 0
6 *961:DIODE 0
7 *964:DIODE 3.44213e-05
8 *965:DIODE 3.98087e-05
9 *966:DIODE 0.000152979
10 *968:DIODE 0.000249769
11 *12154:DO[17] 0.00458686
12 *290:102 0.000177132
13 *290:78 7.46435e-05
14 *290:76 0.000168776
15 *290:72 0.000186062
16 *290:39 0.000447693
17 *290:37 0.000133222
18 *290:35 0.00016234
19 *290:33 8.15065e-05
20 *290:31 0.000294962
21 *290:27 0.00237575
22 *290:25 0.0220943
23 *290:21 0.0243912
24 *964:DIODE *11875:S 8.65905e-05
25 *966:DIODE *11978:A 3.83194e-05
26 *966:DIODE *550:18 0.000118081
27 *968:DIODE *330:16 0.000179032
28 *290:21 *12154:WLBI 0.00014356
29 *290:21 *12154:DI[16] 0
30 *290:21 *12154:DI[17] 1.43409e-05
31 *290:21 *295:23 0.0156201
32 *290:21 *301:19 0.000901589
33 *290:21 *432:54 1.4548e-05
34 *290:21 *480:58 0.000252921
35 *290:21 *639:162 0.00195938
36 *290:21 *639:174 0.000126694
37 *290:25 *300:25 0
38 *290:25 *301:25 0
39 *290:25 *303:33 5.2007e-06
40 *290:25 *305:25 8.77649e-05
41 *290:27 *12074:A 0.000283853
42 *290:27 *291:19 0.00273292
43 *290:27 *293:19 5.5043e-05
44 *290:27 *362:80 0.000716143
45 *290:31 *330:16 0.000229897
46 *290:33 *330:16 7.06865e-05
47 *290:35 *330:16 0.000202995
48 *290:37 *330:16 0.000157908
49 *290:39 *330:16 0.000183738
50 *290:76 *11875:S 8.23457e-05
51 *290:78 *11875:S 8.23457e-05
52 *958:DIODE *290:27 0.00011852
53 *11875:A1 *290:76 4.66108e-05
54 *112:10 *290:27 8.77142e-05
55 *115:10 *290:27 0.000295336
56 *117:12 *290:27 0.000123245
57 *117:14 *968:DIODE 0.000179032
58 *117:14 *290:27 2.36689e-05
59 *117:14 *290:31 0.000255298
60 *117:14 *290:33 6.21553e-05
61 *117:14 *290:35 0.000194463
62 *117:14 *290:37 0.000150072
63 *117:14 *290:39 0.000176873
64 *121:16 *290:27 0.00058581
65 *121:18 *290:27 0.000370569
66 *121:18 *290:31 1.38481e-05
67 *131:8 *959:DIODE 0.000193113
68 *131:8 *963:DIODE 3.57349e-05
69 *145:10 *290:27 0
70 *147:8 *290:72 1.74678e-05
71 *147:8 *290:76 3.64998e-06
72 *201:9 *965:DIODE 2.49909e-05
73 *282:27 *290:27 0.00588954
74 *284:24 *290:21 0.000381433
75 *289:21 *290:21 0.0160341
*RES
1 *12154:DO[17] *290:21 43.2936
2 *290:21 *290:25 38.3239
3 *290:25 *290:27 84.765
4 *290:27 *290:31 3.4875
5 *290:31 *290:33 0.87
6 *290:33 *290:35 2.4
7 *290:35 *290:37 1.89
8 *290:37 *290:39 2.145
9 *290:39 *968:DIODE 7.575
10 *290:39 *966:DIODE 5.43
11 *290:37 *965:DIODE 4.05
12 *290:35 *290:72 2.795
13 *290:72 *290:76 2.19
14 *290:76 *290:78 0.795
15 *290:78 *964:DIODE 2.395
16 *290:78 *961:DIODE 1.6
17 *290:76 *960:DIODE 1.6
18 *290:72 *11875:A0 1.6
19 *290:33 *290:102 2
20 *290:102 *959:DIODE 3.43
21 *290:102 *963:DIODE 2.05
22 *290:31 *967:DIODE 5.43
*END

*D_NET *291 0.0868767
*CONN
*I *969:DIODE I *D sky130_fd_sc_hd__diode_2
*I *11878:A0 I *D sky130_fd_sc_hd__mux2_4
*I *970:DIODE I *D sky130_fd_sc_hd__diode_2
*I *12154:DO[18] O *D CF_SRAM_1024x32
*CAP
1 *969:DIODE 0.000336698
2 *11878:A0 2.60225e-05
3 *970:DIODE 5.84386e-05
4 *12154:DO[18] 0.0126119
5 *291:25 0.000147676
6 *291:23 0.000478209
7 *291:19 0.00846375
8 *291:17 0.0209973
9 *969:DIODE *304:35 0.000324689
10 *970:DIODE *309:23 0.000155491
11 *291:17 *12154:DI[18] 0.000120407
12 *291:17 *432:58 3.6355e-05
13 *291:17 *432:78 0.0153356
14 *291:17 *480:64 1.7635e-05
15 *291:17 *484:55 7.96104e-06
16 *291:19 *12144:DI[14] 7.96104e-06
17 *291:19 *293:19 0.0176617
18 *291:19 *362:80 0.000603849
19 *291:23 *309:23 0.000192125
20 *291:25 *11878:S 2.17185e-05
21 *291:25 *309:23 0.000153816
22 *958:DIODE *291:19 0.00011852
23 *11878:A1 *970:DIODE 5.16211e-05
24 *11878:A1 *11878:A0 8.52137e-06
25 *11878:A1 *291:25 1.19928e-05
26 *121:16 *969:DIODE 0.000326632
27 *149:8 *291:23 3.00381e-05
28 *181:51 *291:19 0.000773226
29 *282:27 *291:19 0.00506391
30 *290:27 *291:19 0.00273292
*RES
1 *12154:DO[18] *291:17 45.4308
2 *291:17 *291:19 254.467
3 *291:19 *291:23 3.83
4 *291:23 *291:25 1.485
5 *291:25 *970:DIODE 3.085
6 *291:25 *11878:A0 1.96
7 *291:23 *969:DIODE 11.705
*END

*D_NET *292 0.0880528
*CONN
*I *972:DIODE I *D sky130_fd_sc_hd__diode_2
*I *971:DIODE I *D sky130_fd_sc_hd__diode_2
*I *11881:A0 I *D sky130_fd_sc_hd__mux2_4
*I *12154:DO[19] O *D CF_SRAM_1024x32
*CAP
1 *972:DIODE 0
2 *971:DIODE 5.74818e-05
3 *11881:A0 0.000107051
4 *12154:DO[19] 0.00746978
5 *292:27 0.000320888
6 *292:25 0.00173393
7 *292:23 0.0161697
8 *292:19 0.0220619
9 *971:DIODE *636:72 8.65905e-05
10 *292:19 *12154:DI[19] 8.42653e-05
11 *292:19 *307:25 0.0105584
12 *292:19 *312:21 0.00672288
13 *292:19 *432:78 0.000203005
14 *292:19 *476:56 0.00137368
15 *292:19 *480:64 4.81484e-06
16 *292:19 *484:55 0.000426898
17 *292:19 *639:206 0.000407304
18 *292:23 *294:25 0.0156809
19 *292:23 *295:29 0.000672866
20 *11881:A1 *11881:A0 8.65961e-05
21 *260:19 *292:25 0
22 *264:15 *292:23 0.000466186
23 *266:15 *292:23 0.00157482
24 *267:15 *292:23 0.00178293
*RES
1 *12154:DO[19] *292:19 41.6866
2 *292:19 *292:23 30.8658
3 *292:23 *292:25 23.1825
4 *292:25 *292:27 2.145
5 *292:27 *11881:A0 5.265
6 *292:27 *971:DIODE 4.395
7 *292:25 *972:DIODE 3.6
*END

*D_NET *293 0.0954111
*CONN
*I *980:DIODE I *D sky130_fd_sc_hd__diode_2
*I *978:DIODE I *D sky130_fd_sc_hd__diode_2
*I *976:DIODE I *D sky130_fd_sc_hd__diode_2
*I *11827:A0 I *D sky130_fd_sc_hd__mux2_2
*I *975:DIODE I *D sky130_fd_sc_hd__diode_2
*I *977:DIODE I *D sky130_fd_sc_hd__diode_2
*I *979:DIODE I *D sky130_fd_sc_hd__diode_2
*I *981:DIODE I *D sky130_fd_sc_hd__diode_2
*I *12154:DO[1] O *D CF_SRAM_1024x32
*CAP
1 *980:DIODE 4.93538e-05
2 *978:DIODE 0
3 *976:DIODE 0.000141433
4 *11827:A0 0
5 *975:DIODE 0
6 *977:DIODE 5.28241e-05
7 *979:DIODE 0
8 *981:DIODE 9.40308e-05
9 *12154:DO[1] 0.0109047
10 *293:69 0.00022204
11 *293:55 8.29487e-05
12 *293:53 0.000110731
13 *293:35 0.000552601
14 *293:29 0.000699635
15 *293:27 0.000294418
16 *293:25 0.000601372
17 *293:19 0.00583796
18 *293:17 0.016244
19 *977:DIODE *11827:S 4.66108e-05
20 *977:DIODE *635:63 4.66108e-05
21 *980:DIODE *371:70 8.65612e-05
22 *980:DIODE *417:16 3.72071e-05
23 *981:DIODE *513:10 0.000132456
24 *981:DIODE *515:10 0.000234951
25 *981:DIODE *517:10 5.30143e-05
26 *293:17 *12154:BEN[0] 1.79536e-05
27 *293:17 *12154:DI[1] 0.000928364
28 *293:17 *480:58 1.79536e-05
29 *293:19 *308:19 0.0083336
30 *293:19 *310:19 8.98487e-05
31 *293:27 *371:70 0.000156871
32 *293:27 *417:16 8.05178e-05
33 *293:29 *371:70 0.00070427
34 *293:29 *417:16 0.000219975
35 *293:35 *371:70 0.000292438
36 *293:35 *417:16 0.000572547
37 *293:35 *509:68 2.55941e-05
38 *293:35 *515:10 0.00024345
39 *293:35 *515:64 1.10474e-05
40 *293:35 *517:10 4.81295e-05
41 *293:35 *635:37 0.000117481
42 *293:35 *635:48 7.63834e-05
43 *293:55 *11827:S 7.26348e-05
44 *887:DIODE *293:25 3.62614e-05
45 *902:DIODE *293:35 0.000260612
46 *11827:A1 *293:29 0.000294924
47 *11827:A1 *293:55 4.77719e-05
48 *11827:A1 *293:69 4.66108e-05
49 *115:8 *976:DIODE 2.76356e-05
50 *145:10 *293:19 0.000504694
51 *181:51 *293:19 0.00236736
52 *259:23 *293:25 0.000190539
53 *272:27 *293:35 6.29494e-05
54 *282:25 *293:17 0.0253204
55 *290:27 *293:19 5.5043e-05
56 *291:19 *293:19 0.0176617
*RES
1 *12154:DO[1] *293:17 45.3262
2 *293:17 *293:19 205.508
3 *293:19 *293:25 10.66
4 *293:25 *293:27 1.89
5 *293:27 *293:29 8.52
6 *293:29 *293:35 13.92
7 *293:35 *981:DIODE 6.51
8 *293:35 *979:DIODE 3.6
9 *293:29 *293:53 2
10 *293:53 *293:55 0.795
11 *293:55 *977:DIODE 2.395
12 *293:55 *975:DIODE 1.6
13 *293:53 *293:69 1.14
14 *293:69 *11827:A0 1.6
15 *293:69 *976:DIODE 3.43
16 *293:27 *978:DIODE 3.6
17 *293:25 *980:DIODE 4.725
*END

*D_NET *294 0.0775851
*CONN
*I *983:DIODE I *D sky130_fd_sc_hd__diode_2
*I *11884:A0 I *D sky130_fd_sc_hd__mux2_4
*I *982:DIODE I *D sky130_fd_sc_hd__diode_2
*I *12154:DO[20] O *D CF_SRAM_1024x32
*CAP
1 *983:DIODE 0
2 *11884:A0 1.6809e-05
3 *982:DIODE 1.90749e-05
4 *12154:DO[20] 0.00999056
5 *294:29 0.000164035
6 *294:25 0.00433066
7 *294:19 0.0141931
8 *294:19 *12154:DI[20] 8.79393e-05
9 *294:19 *304:21 0.00311191
10 *294:19 *306:23 0.00654854
11 *294:19 *313:21 0.00595226
12 *294:19 *443:80 0
13 *294:19 *449:88 0
14 *294:19 *484:55 0.000214508
15 *294:19 *639:218 0.000206834
16 *294:25 *295:29 0.0142074
17 *11884:A1 *11884:A0 4.77757e-05
18 *3:25 *982:DIODE 8.46717e-05
19 *3:41 *11884:A0 1.43191e-05
20 *177:16 *982:DIODE 8.35068e-05
21 *177:16 *11884:A0 8.52883e-05
22 *262:19 *294:25 0.00173664
23 *262:19 *294:29 0.000217008
24 *264:15 *294:25 0.000591487
25 *292:23 *294:25 0.0156809
*RES
1 *12154:DO[20] *294:19 44.4868
2 *294:19 *294:25 45.9561
3 *294:25 *294:29 4.655
4 *294:29 *982:DIODE 2.395
5 *294:29 *11884:A0 2.395
6 *294:25 *983:DIODE 3.6
*END

*D_NET *295 0.08331
*CONN
*I *986:DIODE I *D sky130_fd_sc_hd__diode_2
*I *11887:A0 I *D sky130_fd_sc_hd__mux2_4
*I *984:DIODE I *D sky130_fd_sc_hd__diode_2
*I *12154:DO[21] O *D CF_SRAM_1024x32
*CAP
1 *986:DIODE 1.98741e-05
2 *11887:A0 0
3 *984:DIODE 3.96664e-05
4 *12154:DO[21] 0.00548537
5 *295:33 0.000222738
6 *295:29 0.00583525
7 *295:23 0.0111177
8 *295:23 *12154:DI[21] 0.000110439
9 *295:23 *301:19 0.0189899
10 *295:23 *303:23 0
11 *295:23 *454:76 0.00077036
12 *295:23 *480:64 1.79483e-05
13 *295:23 *639:234 1.79483e-05
14 *295:29 *298:25 0.00979063
15 *11887:A1 *984:DIODE 4.82919e-05
16 *3:41 *984:DIODE 6.53761e-05
17 *177:16 *984:DIODE 0.00015817
18 *185:22 *986:DIODE 3.39426e-05
19 *265:35 *295:33 0
20 *286:15 *986:DIODE 8.6076e-05
21 *290:21 *295:23 0.0156201
22 *292:23 *295:29 0.000672866
23 *294:25 *295:29 0.0142074
*RES
1 *12154:DO[21] *295:23 42.847
2 *295:23 *295:29 46.1165
3 *295:29 *295:33 4.655
4 *295:33 *984:DIODE 3.085
5 *295:33 *11887:A0 1.6
6 *295:29 *986:DIODE 4.395
*END

*D_NET *296 0.0782639
*CONN
*I *988:DIODE I *D sky130_fd_sc_hd__diode_2
*I *11890:A0 I *D sky130_fd_sc_hd__mux2_4
*I *987:DIODE I *D sky130_fd_sc_hd__diode_2
*I *12154:DO[22] O *D CF_SRAM_1024x32
*CAP
1 *988:DIODE 0
2 *11890:A0 1.45598e-05
3 *987:DIODE 2.40643e-05
4 *12154:DO[22] 0.00880697
5 *296:31 0.000167603
6 *296:27 0.00478984
7 *296:21 0.0134678
8 *987:DIODE *637:85 4.66108e-05
9 *11890:A0 *637:85 8.58063e-05
10 *296:21 *12154:DI[22] 0.000154977
11 *296:21 *298:19 0.0198022
12 *296:21 *306:33 0.000364512
13 *296:21 *311:21 0.00805658
14 *296:21 *458:70 0.00239864
15 *296:21 *480:64 1.7635e-05
16 *296:21 *639:252 1.7635e-05
17 *296:27 *299:25 0
18 *296:27 *555:16 0.0068805
19 *296:31 *637:85 2.84864e-05
20 *892:DIODE *296:31 2.56752e-06
21 *11924:A *296:27 0.000116624
22 *185:22 *987:DIODE 4.78678e-05
23 *185:22 *11890:A0 4.46754e-05
24 *264:19 *296:27 0.000390426
25 *264:19 *296:31 7.66463e-05
26 *268:15 *296:27 0.00101397
27 *285:25 *296:27 0.0114257
28 *286:15 *987:DIODE 2.10152e-05
*RES
1 *12154:DO[22] *296:21 48.717
2 *296:21 *296:27 31.8892
3 *296:27 *296:31 4.655
4 *296:31 *987:DIODE 2.395
5 *296:31 *11890:A0 2.395
6 *296:27 *988:DIODE 3.6
*END

*D_NET *297 0.0708267
*CONN
*I *11893:A0 I *D sky130_fd_sc_hd__mux2_4
*I *989:DIODE I *D sky130_fd_sc_hd__diode_2
*I *990:DIODE I *D sky130_fd_sc_hd__diode_2
*I *12154:DO[23] O *D CF_SRAM_1024x32
*CAP
1 *11893:A0 0
2 *989:DIODE 2.50715e-05
3 *990:DIODE 6.10483e-05
4 *12154:DO[23] 0.000553199
5 *297:36 0.000137645
6 *297:23 0.00331916
7 *297:15 0.00593661
8 *297:13 0.00279108
9 *297:11 0.00810303
10 *297:9 0.00865623
11 *989:DIODE *637:96 0.000163199
12 *297:9 *12154:DI[23] 0
13 *297:9 *462:68 0
14 *297:11 *426:52 0
15 *297:11 *449:64 0.0194723
16 *297:11 *462:60 0
17 *297:11 *462:68 0
18 *297:15 *11902:A0 8.65961e-05
19 *297:15 *11905:A0 8.52883e-05
20 *297:15 *11908:A0 8.52883e-05
21 *297:15 *11911:A0 8.65961e-05
22 *297:15 *11914:A0 8.65961e-05
23 *297:15 *11917:S 0.00140689
24 *297:15 *301:25 0.000253181
25 *297:15 *302:23 0.000290008
26 *297:15 *637:133 0.000376458
27 *297:15 *637:146 0.000527165
28 *297:15 *637:159 0.00106477
29 *297:15 *637:172 0.000808648
30 *297:15 *637:185 0.000599202
31 *297:23 *994:DIODE 0.000144238
32 *11893:A1 *297:36 8.53113e-06
33 *11923:A *297:36 0
34 *185:22 *989:DIODE 9.91257e-05
35 *286:11 *297:11 0.00455255
36 *286:15 *297:15 0.011047
*RES
1 *12154:DO[23] *297:9 10.97
2 *297:9 *297:11 240.825
3 *297:11 *297:13 2
4 *297:13 *297:15 101.535
5 *297:15 *297:23 47.23
6 *297:23 *990:DIODE 2.395
7 *297:23 *297:36 5.635
8 *297:36 *989:DIODE 3.085
9 *297:36 *11893:A0 1.6
*END

*D_NET *298 0.0722696
*CONN
*I *992:DIODE I *D sky130_fd_sc_hd__diode_2
*I *11896:A0 I *D sky130_fd_sc_hd__mux2_4
*I *991:DIODE I *D sky130_fd_sc_hd__diode_2
*I *12154:DO[24] O *D CF_SRAM_1024x32
*CAP
1 *992:DIODE 0
2 *11896:A0 1.15414e-05
3 *991:DIODE 2.84914e-05
4 *12154:DO[24] 0.00864149
5 *298:29 0.000176366
6 *298:25 0.00507897
7 *298:19 0.0135841
8 *991:DIODE *637:109 0.000162311
9 *11896:A0 *637:109 7.66083e-05
10 *298:19 *12144:DI[24] 0.00225143
11 *298:19 *12154:DI[24] 0.00020748
12 *298:19 *306:33 0.0114718
13 *298:19 *480:66 2.0798e-05
14 *298:19 *484:55 2.0798e-05
15 *895:DIODE *298:29 1.0183e-05
16 *11896:A1 *991:DIODE 0.000123225
17 *11896:A1 *11896:A0 8.65961e-05
18 *266:19 *298:25 0.000621096
19 *266:19 *298:29 8.18011e-05
20 *286:15 *991:DIODE 2.16833e-05
21 *295:29 *298:25 0.00979063
22 *296:21 *298:19 0.0198022
*RES
1 *12154:DO[24] *298:19 49.8457
2 *298:19 *298:25 35.8246
3 *298:25 *298:29 4.655
4 *298:29 *991:DIODE 3.085
5 *298:29 *11896:A0 2.395
6 *298:25 *992:DIODE 3.6
*END

*D_NET *299 0.0634219
*CONN
*I *994:DIODE I *D sky130_fd_sc_hd__diode_2
*I *993:DIODE I *D sky130_fd_sc_hd__diode_2
*I *11899:A0 I *D sky130_fd_sc_hd__mux2_4
*I *12154:DO[25] O *D CF_SRAM_1024x32
*CAP
1 *994:DIODE 0.00034681
2 *993:DIODE 0
3 *11899:A0 0.00028274
4 *12154:DO[25] 0.00247627
5 *299:27 0.000434957
6 *299:25 0.00592574
7 *299:19 0.0149149
8 *299:15 0.0119645
9 *11899:A0 *637:122 2.59926e-05
10 *11899:A0 *637:133 0.000115146
11 *299:15 *12144:DI[25] 0.00299941
12 *299:15 *12154:BEN[24] 0
13 *299:15 *12154:DI[25] 1.72047e-05
14 *299:15 *300:15 0
15 *299:15 *480:66 1.96602e-05
16 *299:15 *484:55 1.96602e-05
17 *299:15 *484:71 2.40721e-05
18 *299:15 *638:184 0
19 *299:19 *302:19 0.0224426
20 *299:25 *555:16 0.00115643
21 *11899:A1 *11899:A0 2.49909e-05
22 *163:16 *11899:A0 8.65905e-05
23 *296:27 *299:25 0
24 *297:23 *994:DIODE 0.000144238
*RES
1 *12154:DO[25] *299:15 12.3922
2 *299:15 *299:19 41.0207
3 *299:19 *299:25 26.9667
4 *299:25 *299:27 2.4
5 *299:27 *11899:A0 8.385
6 *299:27 *993:DIODE 3.6
7 *299:25 *994:DIODE 7.845
*END

*D_NET *300 0.0590757
*CONN
*I *995:DIODE I *D sky130_fd_sc_hd__diode_2
*I *11902:A0 I *D sky130_fd_sc_hd__mux2_4
*I *12154:DO[26] O *D CF_SRAM_1024x32
*CAP
1 *995:DIODE 0
2 *11902:A0 0.000126101
3 *12154:DO[26] 0.00417523
4 *300:25 0.00196631
5 *300:19 0.0144476
6 *300:15 0.0167826
7 *11902:A0 *637:133 5.30673e-05
8 *300:15 *12144:DI[25] 0
9 *300:15 *12144:DI[26] 0
10 *300:15 *12154:DI[26] 0.000114414
11 *300:15 *480:66 0.000259564
12 *300:15 *484:71 0.00026941
13 *300:19 *12154:EN 0.0152619
14 *300:19 *303:33 0.00305963
15 *300:25 *12087:A 0
16 *300:25 *301:25 0.00235384
17 *300:25 *303:33 4.32417e-05
18 *898:DIODE *11902:A0 2.97004e-06
19 *268:19 *11902:A0 6.66148e-05
20 *268:19 *300:25 6.63219e-06
21 *290:25 *300:25 0
22 *297:15 *11902:A0 8.65961e-05
23 *299:15 *300:15 0
*RES
1 *12154:DO[26] *300:15 16.9152
2 *300:15 *300:19 44.7244
3 *300:19 *300:25 6.33497
4 *300:25 *11902:A0 6.54
5 *300:25 *995:DIODE 3.6
*END

*D_NET *301 0.0651295
*CONN
*I *997:DIODE I *D sky130_fd_sc_hd__diode_2
*I *11905:A0 I *D sky130_fd_sc_hd__mux2_4
*I *12154:DO[27] O *D CF_SRAM_1024x32
*CAP
1 *997:DIODE 0
2 *11905:A0 0.000127887
3 *12154:DO[27] 0.00103558
4 *301:25 0.00388254
5 *301:19 0.0148561
6 *301:15 0.012137
7 *11905:A0 *637:146 5.06989e-05
8 *301:15 *12144:DI[26] 0.00158083
9 *301:15 *12154:DI[27] 6.47772e-05
10 *301:15 *12154:DI[26] 0.000452359
11 *301:15 *480:66 0.000650729
12 *301:15 *484:71 0.000672081
13 *301:25 *12087:A 0
14 *301:25 *302:23 0.00212223
15 *301:25 *305:25 0.000231525
16 *301:25 *306:33 1.19249e-05
17 *11905:A1 *11905:A0 2.56752e-06
18 *165:14 *301:25 0
19 *284:24 *301:19 4.43699e-05
20 *285:21 *301:19 0.00416407
21 *286:15 *301:25 0.00045833
22 *290:21 *301:19 0.000901589
23 *290:25 *301:25 0
24 *295:23 *301:19 0.0189899
25 *297:15 *11905:A0 8.52883e-05
26 *297:15 *301:25 0.000253181
27 *300:25 *301:25 0.00235384
*RES
1 *12154:DO[27] *301:15 14.7612
2 *301:15 *301:19 45.4135
3 *301:19 *301:25 11.0546
4 *301:25 *11905:A0 6.03
5 *301:25 *997:DIODE 3.6
*END

*D_NET *302 0.0730263
*CONN
*I *998:DIODE I *D sky130_fd_sc_hd__diode_2
*I *11908:A0 I *D sky130_fd_sc_hd__mux2_4
*I *12154:DO[28] O *D CF_SRAM_1024x32
*CAP
1 *998:DIODE 1.38865e-05
2 *11908:A0 0.000100753
3 *12154:DO[28] 0.00350632
4 *302:23 0.00135746
5 *302:19 0.0070337
6 *302:15 0.00929721
7 *11908:A0 *637:159 8.64421e-05
8 *302:15 *12144:DI[27] 0
9 *302:15 *12154:DI[28] 2.36305e-05
10 *302:15 *484:71 0.000353931
11 *302:19 *305:19 0.0258227
12 *302:23 *12087:A 0
13 *302:23 *637:172 0.000139722
14 *900:DIODE *11908:A0 2.56752e-06
15 *165:14 *302:23 0
16 *270:19 *998:DIODE 6.16226e-06
17 *270:19 *11908:A0 2.70983e-05
18 *286:15 *302:23 0.000314586
19 *297:15 *11908:A0 8.52883e-05
20 *297:15 *302:23 0.000290008
21 *299:19 *302:19 0.0224426
22 *301:25 *302:23 0.00212223
*RES
1 *12154:DO[28] *302:15 15.9304
2 *302:15 *302:19 47.4807
3 *302:19 *302:23 3.83007
4 *302:23 *11908:A0 5.6475
5 *302:23 *998:DIODE 3.8325
*END

*D_NET *303 0.0557004
*CONN
*I *999:DIODE I *D sky130_fd_sc_hd__diode_2
*I *11911:A0 I *D sky130_fd_sc_hd__mux2_4
*I *1000:DIODE I *D sky130_fd_sc_hd__diode_2
*I *12154:DO[29] O *D CF_SRAM_1024x32
*CAP
1 *999:DIODE 0
2 *11911:A0 1.41735e-05
3 *1000:DIODE 0.000224539
4 *12154:DO[29] 0.00903427
5 *303:35 0.000395756
6 *303:33 0.00913493
7 *303:23 0.0180122
8 *1000:DIODE *12087:A 4.18147e-05
9 *11911:A0 *637:172 8.65961e-05
10 *303:23 *12144:DI[28] 0
11 *303:23 *12144:DI[29] 0
12 *303:23 *12154:DI[29] 2.66619e-05
13 *303:23 *449:88 0
14 *303:23 *454:76 0
15 *303:23 *476:56 0
16 *303:23 *498:47 0
17 *303:23 *638:245 0.000136455
18 *303:33 *12154:EN 0.0152668
19 *901:DIODE *1000:DIODE 5.21627e-05
20 *901:DIODE *303:35 2.97004e-06
21 *171:10 *1000:DIODE 0
22 *271:19 *303:33 6.15576e-06
23 *271:19 *303:35 7.03227e-05
24 *290:25 *303:33 5.2007e-06
25 *295:23 *303:23 0
26 *297:15 *11911:A0 8.65961e-05
27 *300:19 *303:33 0.00305963
28 *300:25 *303:33 4.32417e-05
*RES
1 *12154:DO[29] *303:23 29.401
2 *303:23 *303:33 38.4611
3 *303:33 *303:35 2.655
4 *303:35 *1000:DIODE 7.275
5 *303:35 *11911:A0 4.395
6 *303:33 *999:DIODE 3.6
*END

*D_NET *304 0.0802442
*CONN
*I *1006:DIODE I *D sky130_fd_sc_hd__diode_2
*I *1004:DIODE I *D sky130_fd_sc_hd__diode_2
*I *1002:DIODE I *D sky130_fd_sc_hd__diode_2
*I *11830:A0 I *D sky130_fd_sc_hd__mux2_2
*I *1003:DIODE I *D sky130_fd_sc_hd__diode_2
*I *1005:DIODE I *D sky130_fd_sc_hd__diode_2
*I *1008:DIODE I *D sky130_fd_sc_hd__diode_2
*I *1001:DIODE I *D sky130_fd_sc_hd__diode_2
*I *12154:DO[2] O *D CF_SRAM_1024x32
*CAP
1 *1006:DIODE 7.03276e-05
2 *1004:DIODE 0
3 *1002:DIODE 0
4 *11830:A0 3.58421e-05
5 *1003:DIODE 0
6 *1005:DIODE 0
7 *1008:DIODE 6.52939e-05
8 *1001:DIODE 0.000838757
9 *12154:DO[2] 0.00749893
10 *304:56 0.000128995
11 *304:54 0.000225699
12 *304:52 0.000428639
13 *304:50 0.0002945
14 *304:48 0.000134029
15 *304:35 0.00176615
16 *304:33 0.00366504
17 *304:25 0.0132966
18 *304:21 0.0180579
19 *1001:DIODE *12216:A 9.59423e-05
20 *1001:DIODE *515:8 6.33103e-05
21 *304:21 *12154:DI[2] 3.95221e-05
22 *304:21 *313:21 0.00845047
23 *304:21 *415:84 0.00301753
24 *304:21 *480:58 3.97719e-05
25 *304:21 *560:346 3.97719e-05
26 *304:25 *12083:A 0.000971586
27 *304:25 *12098:A 0.000245661
28 *304:25 *12105:A 0.00046072
29 *304:25 *311:25 0
30 *304:33 *362:80 0.000385179
31 *304:35 *362:80 0.000107219
32 *304:54 *11830:S 1.91597e-05
33 *952:DIODE *304:33 0.000139933
34 *969:DIODE *304:35 0.000324689
35 *11830:A1 *304:54 8.73389e-06
36 *117:12 *1001:DIODE 0.000690898
37 *117:12 *1006:DIODE 3.57349e-05
38 *117:12 *304:50 7.14699e-05
39 *117:12 *304:52 0.000118081
40 *121:16 *1001:DIODE 1.07797e-05
41 *121:16 *304:33 0.000507782
42 *121:16 *304:35 0.00048988
43 *151:14 *304:25 0.000331865
44 *161:14 *304:25 0.00279323
45 *163:16 *304:25 0.00221389
46 *272:27 *1008:DIODE 8.23457e-05
47 *272:27 *304:54 7.14699e-05
48 *272:27 *304:56 7.14699e-05
49 *282:27 *304:33 0.00159666
50 *283:21 *304:21 0
51 *283:25 *304:25 0
52 *287:30 *304:25 0.00713074
53 *294:19 *304:21 0.00311191
*RES
1 *12154:DO[2] *304:21 35.128
2 *304:21 *304:25 36.809
3 *304:25 *304:33 48.03
4 *304:33 *304:35 14.5125
5 *304:35 *1001:DIODE 15.765
6 *304:35 *304:48 2
7 *304:48 *304:50 0.795
8 *304:50 *304:52 2.52
9 *304:52 *304:54 1.83
10 *304:54 *304:56 0.795
11 *304:56 *1008:DIODE 2.395
12 *304:56 *1005:DIODE 1.6
13 *304:54 *1003:DIODE 1.6
14 *304:52 *11830:A0 2.215
15 *304:50 *1002:DIODE 1.6
16 *304:48 *1004:DIODE 1.6
17 *304:48 *1006:DIODE 2.395
*END

*D_NET *305 0.0586938
*CONN
*I *1009:DIODE I *D sky130_fd_sc_hd__diode_2
*I *11914:A0 I *D sky130_fd_sc_hd__mux2_4
*I *1010:DIODE I *D sky130_fd_sc_hd__diode_2
*I *12154:DO[30] O *D CF_SRAM_1024x32
*CAP
1 *1009:DIODE 0
2 *11914:A0 1.41735e-05
3 *1010:DIODE 0.000216979
4 *12154:DO[30] 0.00300883
5 *305:27 0.000379371
6 *305:25 0.000280257
7 *305:19 0.012028
8 *305:15 0.0149048
9 *11914:A0 *637:185 8.65961e-05
10 *305:15 *12144:DI[29] 0.0011811
11 *305:15 *12144:DI[30] 0
12 *305:15 *12154:BEN[30] 0.000177544
13 *305:15 *12154:DI[29] 2.3062e-05
14 *305:15 *12154:DI[30] 2.6958e-05
15 *903:DIODE *1010:DIODE 5.21627e-05
16 *903:DIODE *305:27 2.97004e-06
17 *171:10 *1010:DIODE 0
18 *173:10 *1010:DIODE 0
19 *273:19 *305:25 6.15576e-06
20 *273:19 *305:27 7.61153e-05
21 *290:25 *305:25 8.77649e-05
22 *297:15 *11914:A0 8.65961e-05
23 *301:25 *305:25 0.000231525
24 *302:19 *305:19 0.0258227
*RES
1 *12154:DO[30] *305:15 16.587
2 *305:15 *305:19 49.8924
3 *305:19 *305:25 1.32403
4 *305:25 *305:27 2.655
5 *305:27 *1010:DIODE 7.275
6 *305:27 *11914:A0 4.395
7 *305:25 *1009:DIODE 3.6
*END

*D_NET *306 0.0549578
*CONN
*I *1011:DIODE I *D sky130_fd_sc_hd__diode_2
*I *11917:A0 I *D sky130_fd_sc_hd__mux2_4
*I *1012:DIODE I *D sky130_fd_sc_hd__diode_2
*I *12154:DO[31] O *D CF_SRAM_1024x32
*CAP
1 *1011:DIODE 0
2 *11917:A0 3.65525e-05
3 *1012:DIODE 0.000117018
4 *12154:DO[31] 0.0111864
5 *306:35 0.000247458
6 *306:33 0.00619694
7 *306:23 0.0172894
8 *1012:DIODE *12105:A 7.9642e-06
9 *1012:DIODE *426:6 8.65905e-05
10 *1012:DIODE *443:12 5.30673e-05
11 *306:23 *12144:DI[30] 0
12 *306:23 *12144:DI[31] 0
13 *306:23 *12154:BEN[31] 0.000329293
14 *306:23 *12154:DI[1] 0
15 *306:23 *12154:DI[30] 0
16 *306:23 *12154:DI[31] 2.74511e-05
17 *306:23 *415:84 0
18 *306:33 *11917:S 0
19 *306:33 *311:21 0.000563364
20 *306:35 *11917:S 0
21 *904:DIODE *1012:DIODE 0.000117407
22 *904:DIODE *306:35 2.14129e-05
23 *11917:A1 *11917:A0 8.65961e-05
24 *165:14 *306:33 0
25 *274:22 *306:33 3.17722e-05
26 *274:22 *306:35 0.000162325
27 *294:19 *306:23 0.00654854
28 *296:21 *306:33 0.000364512
29 *298:19 *306:33 0.0114718
30 *301:25 *306:33 1.19249e-05
*RES
1 *12154:DO[31] *306:23 42.7478
2 *306:23 *306:33 26.0545
3 *306:33 *306:35 2.145
4 *306:35 *1012:DIODE 6.285
5 *306:35 *11917:A0 4.395
6 *306:33 *1011:DIODE 3.6
*END

*D_NET *307 0.087282
*CONN
*I *1020:DIODE I *D sky130_fd_sc_hd__diode_2
*I *1017:DIODE I *D sky130_fd_sc_hd__diode_2
*I *1015:DIODE I *D sky130_fd_sc_hd__diode_2
*I *11833:A0 I *D sky130_fd_sc_hd__mux2_2
*I *1014:DIODE I *D sky130_fd_sc_hd__diode_2
*I *1016:DIODE I *D sky130_fd_sc_hd__diode_2
*I *1019:DIODE I *D sky130_fd_sc_hd__diode_2
*I *1013:DIODE I *D sky130_fd_sc_hd__diode_2
*I *12154:DO[3] O *D CF_SRAM_1024x32
*CAP
1 *1020:DIODE 3.23007e-05
2 *1017:DIODE 0
3 *1015:DIODE 0
4 *11833:A0 0
5 *1014:DIODE 0
6 *1016:DIODE 0
7 *1019:DIODE 3.07736e-05
8 *1013:DIODE 0.000177211
9 *12154:DO[3] 0.012586
10 *307:66 8.06377e-05
11 *307:64 0.000103882
12 *307:49 0.000357177
13 *307:41 0.000279326
14 *307:39 0.000213605
15 *307:37 0.0102637
16 *307:25 0.0227572
17 *1013:DIODE *395:58 2.05661e-05
18 *1013:DIODE *415:58 0.00048927
19 *1013:DIODE *438:76 0.000614975
20 *307:25 *12154:DI[3] 8.54048e-05
21 *307:25 *312:21 0.00171194
22 *307:25 *409:36 0.000879323
23 *307:25 *467:52 0
24 *307:25 *471:104 0.000799194
25 *307:25 *476:56 0
26 *307:25 *480:58 1.79536e-05
27 *307:37 *389:52 1.79536e-05
28 *307:37 *471:104 0.0248564
29 *307:37 *517:56 1.93834e-05
30 *905:DIODE *1013:DIODE 9.20976e-05
31 *11833:A1 *307:49 4.84937e-05
32 *11833:A1 *307:64 4.77757e-05
33 *119:16 *1019:DIODE 1.56428e-05
34 *119:16 *307:41 6.53929e-05
35 *119:16 *307:49 2.03356e-05
36 *119:16 *307:64 1.19928e-05
37 *119:16 *307:66 2.76356e-05
38 *292:19 *307:25 0.0105584
*RES
1 *12154:DO[3] *307:25 43.3439
2 *307:25 *307:37 40.7768
3 *307:37 *307:39 0.795
4 *307:39 *307:41 2.175
5 *307:41 *307:49 2.31
6 *307:49 *1013:DIODE 12.845
7 *307:49 *307:64 1.155
8 *307:64 *307:66 0.795
9 *307:66 *1019:DIODE 2.05
10 *307:66 *1016:DIODE 1.6
11 *307:64 *1014:DIODE 1.6
12 *307:41 *11833:A0 1.6
13 *307:39 *1015:DIODE 1.6
14 *307:37 *1017:DIODE 1.6
15 *307:37 *1020:DIODE 2.05
*END

*D_NET *308 0.0734764
*CONN
*I *1026:DIODE I *D sky130_fd_sc_hd__diode_2
*I *1024:DIODE I *D sky130_fd_sc_hd__diode_2
*I *1022:DIODE I *D sky130_fd_sc_hd__diode_2
*I *11836:A0 I *D sky130_fd_sc_hd__mux2_2
*I *1021:DIODE I *D sky130_fd_sc_hd__diode_2
*I *1027:DIODE I *D sky130_fd_sc_hd__diode_2
*I *1023:DIODE I *D sky130_fd_sc_hd__diode_2
*I *1025:DIODE I *D sky130_fd_sc_hd__diode_2
*I *12154:DO[4] O *D CF_SRAM_1024x32
*CAP
1 *1026:DIODE 0
2 *1024:DIODE 0
3 *1022:DIODE 0
4 *11836:A0 5.87553e-05
5 *1021:DIODE 0
6 *1027:DIODE 0.000129696
7 *1023:DIODE 0
8 *1025:DIODE 7.03287e-05
9 *12154:DO[4] 0.0183178
10 *308:35 0.000105449
11 *308:33 0.000201074
12 *308:31 0.000199974
13 *308:29 0.000410287
14 *308:27 0.000273583
15 *308:25 0.000149469
16 *308:23 0.000616127
17 *308:19 0.00454428
18 *308:17 0.0223097
19 *1025:DIODE *11836:S 4.41506e-05
20 *1027:DIODE *409:14 6.83447e-05
21 *1027:DIODE *438:80 4.41506e-05
22 *308:17 *12154:DI[4] 3.72676e-05
23 *308:17 *480:58 1.79536e-05
24 *308:17 *560:314 1.79536e-05
25 *308:19 *309:19 0.00042523
26 *308:19 *310:19 0.0138537
27 *308:31 *11836:S 3.83194e-05
28 *308:33 *11836:S 2.01504e-05
29 *308:35 *11836:S 2.10214e-05
30 *11836:A1 *308:31 3.1562e-06
31 *121:16 *308:23 0.000394869
32 *121:16 *308:25 7.14699e-05
33 *121:16 *308:27 0.00010961
34 *121:16 *308:29 0.000122184
35 *181:51 *308:19 0.00246673
36 *293:19 *308:19 0.0083336
*RES
1 *12154:DO[4] *308:17 45.2035
2 *308:17 *308:19 172.613
3 *308:19 *308:23 8.315
4 *308:23 *308:25 0.795
5 *308:25 *308:27 1.14
6 *308:27 *308:29 2.175
7 *308:29 *308:31 1.83
8 *308:31 *308:33 0.45
9 *308:33 *308:35 0.45
10 *308:35 *1025:DIODE 2.395
11 *308:35 *1023:DIODE 1.6
12 *308:33 *1027:DIODE 7.265
13 *308:31 *1021:DIODE 1.6
14 *308:29 *11836:A0 2.665
15 *308:27 *1022:DIODE 1.6
16 *308:25 *1024:DIODE 1.6
17 *308:23 *1026:DIODE 1.6
*END

*D_NET *309 0.0761735
*CONN
*I *1033:DIODE I *D sky130_fd_sc_hd__diode_2
*I *1030:DIODE I *D sky130_fd_sc_hd__diode_2
*I *1035:DIODE I *D sky130_fd_sc_hd__diode_2
*I *11839:A0 I *D sky130_fd_sc_hd__mux2_2
*I *1028:DIODE I *D sky130_fd_sc_hd__diode_2
*I *1031:DIODE I *D sky130_fd_sc_hd__diode_2
*I *1032:DIODE I *D sky130_fd_sc_hd__diode_2
*I *1034:DIODE I *D sky130_fd_sc_hd__diode_2
*I *12154:DO[5] O *D CF_SRAM_1024x32
*CAP
1 *1033:DIODE 0
2 *1030:DIODE 0
3 *1035:DIODE 0.000286319
4 *11839:A0 0
5 *1028:DIODE 0
6 *1031:DIODE 0
7 *1032:DIODE 0
8 *1034:DIODE 2.4121e-05
9 *12154:DO[5] 0.011836
10 *309:37 4.66491e-05
11 *309:35 3.45886e-05
12 *309:33 0.000106305
13 *309:31 0.000256812
14 *309:27 0.000521547
15 *309:25 0.000240488
16 *309:23 0.00077212
17 *309:19 0.00508525
18 *309:17 0.016317
19 *1034:DIODE *11839:S 8.23457e-05
20 *1035:DIODE *438:76 6.88421e-05
21 *1035:DIODE *509:68 6.88421e-05
22 *309:17 *12154:DI[5] 3.59657e-05
23 *309:17 *400:109 0.015176
24 *309:17 *402:76 0
25 *309:17 *480:58 1.79536e-05
26 *309:17 *560:302 1.79536e-05
27 *309:19 *12154:DI[13] 5.94456e-06
28 *309:19 *310:19 0.014403
29 *309:19 *365:74 0
30 *309:19 *365:78 0.00170417
31 *309:23 *11878:S 1.96634e-05
32 *309:25 *11878:S 3.18249e-05
33 *309:25 *636:43 1.74678e-05
34 *309:27 *636:43 1.74678e-05
35 *309:31 *636:43 2.65814e-06
36 *309:33 *11839:S 0.000107205
37 *309:35 *11839:S 3.57349e-05
38 *309:37 *11839:S 7.14699e-05
39 *970:DIODE *309:23 0.000155491
40 *11839:A1 *309:33 0.000107205
41 *123:16 *309:31 2.62017e-05
42 *123:16 *309:33 3.59784e-05
43 *149:8 *309:23 3.74359e-05
44 *181:51 *309:19 0.00187429
45 *259:23 *1035:DIODE 2.3054e-05
46 *274:14 *309:19 0
47 *277:15 *1034:DIODE 8.23457e-05
48 *277:15 *309:33 4.66108e-05
49 *277:15 *309:35 4.66108e-05
50 *277:15 *309:37 8.23457e-05
51 *289:27 *309:19 0.00547308
52 *291:23 *309:23 0.000192125
53 *291:25 *309:23 0.000153816
54 *308:19 *309:19 0.00042523
*RES
1 *12154:DO[5] *309:17 45.102
2 *309:17 *309:19 170.572
3 *309:19 *309:23 9.35
4 *309:23 *309:25 1.83
5 *309:25 *309:27 0.795
6 *309:27 *309:31 1.845
7 *309:31 *309:33 2.175
8 *309:33 *309:35 0.45
9 *309:35 *309:37 0.795
10 *309:37 *1034:DIODE 2.395
11 *309:37 *1032:DIODE 1.6
12 *309:35 *1031:DIODE 1.6
13 *309:33 *1028:DIODE 1.6
14 *309:31 *11839:A0 1.6
15 *309:27 *1035:DIODE 8.99
16 *309:25 *1030:DIODE 1.6
17 *309:23 *1033:DIODE 1.6
*END

*D_NET *310 0.0844274
*CONN
*I *1043:DIODE I *D sky130_fd_sc_hd__diode_2
*I *1041:DIODE I *D sky130_fd_sc_hd__diode_2
*I *1038:DIODE I *D sky130_fd_sc_hd__diode_2
*I *11842:A0 I *D sky130_fd_sc_hd__mux2_2
*I *1037:DIODE I *D sky130_fd_sc_hd__diode_2
*I *1039:DIODE I *D sky130_fd_sc_hd__diode_2
*I *1042:DIODE I *D sky130_fd_sc_hd__diode_2
*I *1036:DIODE I *D sky130_fd_sc_hd__diode_2
*I *12154:DO[6] O *D CF_SRAM_1024x32
*CAP
1 *1043:DIODE 0
2 *1041:DIODE 0
3 *1038:DIODE 0
4 *11842:A0 2.09808e-05
5 *1037:DIODE 0
6 *1039:DIODE 0
7 *1042:DIODE 6.52939e-05
8 *1036:DIODE 0.000990136
9 *12154:DO[6] 0.0118696
10 *310:44 0.000128995
11 *310:42 0.000213146
12 *310:40 0.000352771
13 *310:38 0.000250416
14 *310:36 0.000136142
15 *310:34 0.00048059
16 *310:19 0.0049035
17 *310:17 0.0153704
18 *1036:DIODE *11976:A 0.000175853
19 *1036:DIODE *11983:A 6.57377e-05
20 *1036:DIODE *365:74 0
21 *1036:DIODE *513:8 0.000139949
22 *1036:DIODE *550:18 0.00033166
23 *310:17 *12154:DI[6] 0.0152277
24 *310:17 *480:58 1.79536e-05
25 *310:17 *560:290 1.79536e-05
26 *310:19 *365:74 0
27 *310:34 *637:25 0.000272114
28 *310:36 *637:25 3.83194e-05
29 *310:38 *637:25 3.83194e-05
30 *310:40 *637:25 0.000118801
31 *310:42 *637:25 4.01811e-05
32 *11842:A1 *310:42 4.66108e-05
33 *145:10 *310:19 0.000209246
34 *149:10 *1036:DIODE 0.000545382
35 *149:10 *310:19 0.00173357
36 *181:51 *310:19 0.00204816
37 *202:13 *1036:DIODE 6.07575e-06
38 *278:23 *1042:DIODE 8.23457e-05
39 *278:23 *310:42 7.14699e-05
40 *278:23 *310:44 7.14699e-05
41 *293:19 *310:19 8.98487e-05
42 *308:19 *310:19 0.0138537
43 *309:19 *310:19 0.014403
*RES
1 *12154:DO[6] *310:17 45.1753
2 *310:17 *310:19 182.812
3 *310:19 *1036:DIODE 19.245
4 *310:19 *310:34 6.935
5 *310:34 *310:36 0.795
6 *310:36 *310:38 0.795
7 *310:38 *310:40 2.175
8 *310:40 *310:42 1.83
9 *310:42 *310:44 0.795
10 *310:44 *1042:DIODE 2.395
11 *310:44 *1039:DIODE 1.6
12 *310:42 *1037:DIODE 1.6
13 *310:40 *11842:A0 1.96
14 *310:38 *1038:DIODE 1.6
15 *310:36 *1041:DIODE 1.6
16 *310:34 *1043:DIODE 1.6
*END

*D_NET *311 0.0819871
*CONN
*I *1044:DIODE I *D sky130_fd_sc_hd__diode_2
*I *11845:A0 I *D sky130_fd_sc_hd__mux2_2
*I *12154:DO[7] O *D CF_SRAM_1024x32
*CAP
1 *1044:DIODE 0.000150299
2 *11845:A0 0.000189485
3 *12154:DO[7] 0.00679584
4 *311:27 0.00146564
5 *311:25 0.0102509
6 *311:21 0.0159209
7 *11845:A0 *395:58 0.000364847
8 *11845:A0 *438:76 9.84368e-05
9 *11845:A0 *635:63 8.35106e-05
10 *311:21 *12154:DI[7] 0.00234466
11 *311:21 *480:58 1.79536e-05
12 *311:21 *560:278 1.79536e-05
13 *311:25 *12098:A 0.000476167
14 *311:25 *12105:A 0.00046072
15 *311:27 *395:58 0.00450265
16 *311:27 *502:62 0.000766173
17 *311:27 *506:62 2.40201e-05
18 *151:14 *311:25 0.000635329
19 *165:16 *311:21 0.00028234
20 *250:15 *1044:DIODE 0.00018955
21 *283:25 *311:25 0.023671
22 *283:27 *11845:A0 0.000175672
23 *283:27 *311:27 0.00446738
24 *284:28 *311:25 1.57264e-05
25 *287:30 *311:25 0
26 *296:21 *311:21 0.00805658
27 *304:25 *311:25 0
28 *306:33 *311:21 0.000563364
*RES
1 *12154:DO[7] *311:21 30.3927
2 *311:21 *311:25 36.2263
3 *311:25 *311:27 52.2525
4 *311:27 *11845:A0 8.835
5 *311:27 *1044:DIODE 5.43
*END

*D_NET *312 0.0822122
*CONN
*I *1053:DIODE I *D sky130_fd_sc_hd__diode_2
*I *1052:DIODE I *D sky130_fd_sc_hd__diode_2
*I *1049:DIODE I *D sky130_fd_sc_hd__diode_2
*I *1047:DIODE I *D sky130_fd_sc_hd__diode_2
*I *1050:DIODE I *D sky130_fd_sc_hd__diode_2
*I *1048:DIODE I *D sky130_fd_sc_hd__diode_2
*I *1046:DIODE I *D sky130_fd_sc_hd__diode_2
*I *1045:DIODE I *D sky130_fd_sc_hd__diode_2
*I *11848:A0 I *D sky130_fd_sc_hd__mux2_2
*I *12154:DO[8] O *D CF_SRAM_1024x32
*CAP
1 *1053:DIODE 0.0001891
2 *1052:DIODE 0
3 *1049:DIODE 0
4 *1047:DIODE 8.1001e-05
5 *1050:DIODE 4.45599e-05
6 *1048:DIODE 0
7 *1046:DIODE 0
8 *1045:DIODE 0
9 *11848:A0 6.06502e-05
10 *12154:DO[8] 0.0027479
11 *312:72 0.000124683
12 *312:70 4.36824e-05
13 *312:56 8.91198e-05
14 *312:49 8.91198e-05
15 *312:42 0.000108252
16 *312:33 0.000278611
17 *312:29 0.000275648
18 *312:27 0.00170571
19 *312:25 0.0123658
20 *312:21 0.0137184
21 *312:21 *12154:DI[8] 0.000762122
22 *312:21 *432:54 5.05066e-06
23 *312:21 *476:56 0.00210033
24 *312:21 *480:58 1.79483e-05
25 *312:27 *369:76 0.000222719
26 *3:23 *312:25 0.00238045
27 *169:12 *312:25 0.00121666
28 *171:12 *312:25 0.00114299
29 *207:13 *1050:DIODE 7.14699e-05
30 *207:13 *11848:A0 0.000120921
31 *207:13 *312:42 0.000107825
32 *207:13 *312:49 7.14699e-05
33 *207:13 *312:56 7.14699e-05
34 *250:11 *312:27 0.00208365
35 *250:11 *312:29 0.000177561
36 *250:11 *312:33 0.000228916
37 *284:28 *312:25 0.0266198
38 *287:24 *312:21 0.00445378
39 *292:19 *312:21 0.00672288
40 *307:25 *312:21 0.00171194
*RES
1 *12154:DO[8] *312:21 23.9429
2 *312:21 *312:25 42.1695
3 *312:25 *312:27 24.2025
4 *312:27 *312:29 2.145
5 *312:29 *312:33 4.655
6 *312:33 *11848:A0 2.74
7 *312:33 *312:42 1.14
8 *312:42 *1045:DIODE 1.6
9 *312:42 *312:49 0.795
10 *312:49 *1046:DIODE 1.6
11 *312:49 *312:56 0.795
12 *312:56 *1048:DIODE 1.6
13 *312:56 *1050:DIODE 2.395
14 *312:29 *312:70 2
15 *312:70 *312:72 0.45
16 *312:72 *1047:DIODE 2.395
17 *312:72 *1049:DIODE 1.6
18 *312:70 *1052:DIODE 1.6
19 *312:27 *1053:DIODE 5.43
*END

*D_NET *313 0.0677648
*CONN
*I *1059:DIODE I *D sky130_fd_sc_hd__diode_2
*I *1057:DIODE I *D sky130_fd_sc_hd__diode_2
*I *1055:DIODE I *D sky130_fd_sc_hd__diode_2
*I *1060:DIODE I *D sky130_fd_sc_hd__diode_2
*I *1054:DIODE I *D sky130_fd_sc_hd__diode_2
*I *1056:DIODE I *D sky130_fd_sc_hd__diode_2
*I *1058:DIODE I *D sky130_fd_sc_hd__diode_2
*I *11851:A0 I *D sky130_fd_sc_hd__mux2_2
*I *12154:DO[9] O *D CF_SRAM_1024x32
*CAP
1 *1059:DIODE 0
2 *1057:DIODE 0
3 *1055:DIODE 0
4 *1060:DIODE 0.000203827
5 *1054:DIODE 0
6 *1056:DIODE 0
7 *1058:DIODE 2.50392e-05
8 *11851:A0 0
9 *12154:DO[9] 0.00864289
10 *313:48 4.92829e-05
11 *313:46 0.000124005
12 *313:37 0.000128649
13 *313:35 0.000383438
14 *313:33 0.000204996
15 *313:31 0.000107011
16 *313:29 0.0126412
17 *313:21 0.0212314
18 *1058:DIODE *636:8 4.60123e-05
19 *1060:DIODE *438:76 0.000153263
20 *1060:DIODE *509:68 0.000155056
21 *1060:DIODE *635:37 5.83121e-06
22 *313:21 *12154:BEN[8] 1.79483e-05
23 *313:21 *12154:DI[9] 0.00313002
24 *313:21 *480:58 1.79483e-05
25 *313:29 *389:52 1.79536e-05
26 *313:29 *417:68 1.93834e-05
27 *313:29 *462:36 0.00525921
28 *313:35 *11851:S 8.247e-05
29 *313:37 *11851:S 1.91597e-05
30 *313:46 *11851:S 0.000118081
31 *313:46 *636:8 2.68526e-05
32 *313:46 *636:130 1.43191e-05
33 *313:48 *636:8 4.60061e-05
34 *11851:A1 *313:46 4.41506e-05
35 *131:8 *313:31 2.76356e-05
36 *131:8 *313:33 2.76356e-05
37 *131:8 *313:35 2.39856e-05
38 *234:17 *313:21 0.000159162
39 *234:17 *313:29 3.35456e-05
40 *281:27 *1058:DIODE 8.35106e-05
41 *281:27 *313:46 1.91597e-05
42 *281:27 *313:48 7.20899e-05
43 *283:21 *313:21 0
44 *294:19 *313:21 0.00595226
45 *304:21 *313:21 0.00845047
*RES
1 *12154:DO[9] *313:21 38.6516
2 *313:21 *313:29 39.3328
3 *313:29 *313:31 0.795
4 *313:31 *313:33 0.795
5 *313:33 *313:35 2.175
6 *313:35 *313:37 0.45
7 *313:37 *11851:A0 1.6
8 *313:37 *313:46 2.19
9 *313:46 *313:48 0.795
10 *313:48 *1058:DIODE 2.395
11 *313:48 *1056:DIODE 1.6
12 *313:46 *1054:DIODE 1.6
13 *313:35 *1060:DIODE 8.975
14 *313:33 *1055:DIODE 1.6
15 *313:31 *1057:DIODE 1.6
16 *313:29 *1059:DIODE 1.6
*END

*D_NET *318 0.0135488
*CONN
*I *11815:A I *D sky130_fd_sc_hd__inv_2
*I *12164:X O *D sky130_fd_sc_hd__buf_1
*CAP
1 *11815:A 0.00111187
2 *12164:X 0.0031497
3 *318:12 0.00426157
4 *11815:A *12244:A 1.16854e-05
5 *11815:A *628:63 0.000289099
6 *11815:A *628:65 3.59311e-05
7 *11815:A *631:36 0.000122337
8 *318:12 *363:14 0.00410044
9 *318:12 *374:14 0.000151979
10 wbs_ack_o *318:12 0
11 *12012:A *11815:A 0.000285415
12 *12164:A *318:12 2.87867e-05
*RES
1 *12164:X *318:12 49.01
2 *318:12 *11815:A 20.12
*END

*D_NET *319 0.0513536
*CONN
*I *11974:A I *D sky130_fd_sc_hd__buf_12
*I *12165:X O *D sky130_fd_sc_hd__buf_12
*CAP
1 *11974:A 0
2 *12165:X 0.00101726
3 *319:34 0.00480862
4 *319:32 0.00610174
5 *319:22 0.00257251
6 *319:14 0.00229665
7 *319:14 *12005:A 7.07713e-05
8 *319:14 *12247:A 1.56908e-05
9 *319:14 *586:16 0
10 *319:14 *588:46 0
11 *319:14 *594:12 0.000813263
12 *319:22 *12134:DI[15] 1.83975e-05
13 *319:22 *360:32 0.000927476
14 *319:22 *362:32 0.000563213
15 *319:22 *557:30 1.79536e-05
16 *319:22 *557:136 0.000658316
17 *319:22 *594:12 6.78559e-06
18 *319:32 *11814:A 9.43943e-05
19 *319:32 *577:28 0.000423095
20 *319:34 *11855:S 0.000159957
21 *319:34 *11864:S 0.00043249
22 *319:34 *12124:DI[4] 1.79483e-05
23 *319:34 *12124:DI[5] 1.79536e-05
24 *319:34 *382:46 0.00104443
25 *319:34 *395:10 0.00769063
26 *319:34 *402:10 0.00826007
27 *319:34 *402:54 0.00125731
28 *319:34 *409:12 0.000919741
29 *319:34 *409:54 5.98004e-06
30 *319:34 *520:18 0.000961457
31 *319:34 *560:18 0.000199469
32 *319:34 *577:28 0.000150837
33 *319:34 *626:10 0.000220665
34 *319:34 *626:38 0.000328014
35 *319:34 *626:49 0.0010145
36 *319:34 *626:60 0.000196935
37 *319:34 *626:71 0.000295181
38 *650:DIODE *319:22 0.000156293
39 *713:DIODE *319:34 0.000160651
40 *721:DIODE *319:34 9.14049e-05
41 *11840:A0 *319:34 3.79555e-05
42 *118:12 *319:34 0.000895259
43 *118:14 *319:32 0.0018848
44 *120:16 *319:34 2.67082e-05
45 *120:18 *319:22 0.000592466
46 *122:24 *319:34 0.000437384
47 *122:26 *319:14 0
48 *122:26 *319:22 0
49 *126:8 *319:22 0.000481943
50 *126:14 *319:22 0.000314437
51 *135:34 *319:34 1.7635e-05
52 *180:14 *319:22 0.000411108
53 *193:34 *319:22 0.000499993
54 *220:129 *319:34 1.7635e-05
55 *223:45 *319:34 0.00174822
*RES
1 *12165:X *319:14 21.1725
2 *319:14 *319:22 41.4475
3 *319:22 *319:32 27.1
4 *319:32 *319:34 167.13
5 *319:34 *11974:A 3.6
*END

*D_NET *320 0.00180953
*CONN
*I *12124:SM I *D CF_SRAM_1024x32
*I *12125:LO O *D sky130_fd_sc_hd__conb_1
*CAP
1 *12124:SM 0.000559844
2 *12125:LO 0.000559844
3 *12124:SM *12124:WLOFF 0
4 *12124:SM *12124:EN 0
5 *12124:SM *12124:ScanInDR 0
6 *12124:SM *360:74 0.000689839
*RES
1 *12125:LO *12124:SM 11.1512
*END

*D_NET *321 0.00195804
*CONN
*I *12124:ScanInCC I *D CF_SRAM_1024x32
*I *12126:LO O *D sky130_fd_sc_hd__conb_1
*CAP
1 *12124:ScanInCC 0.000506015
2 *12126:LO 0.000506015
3 *12124:ScanInCC *12124:AD[3] 0.000934356
4 *12124:ScanInCC *12124:DI[0] 0
5 *12124:ScanInCC *502:31 1.16578e-05
6 *186:29 *12124:ScanInCC 0
*RES
1 *12126:LO *12124:ScanInCC 11.1175
*END

*D_NET *322 0.00150993
*CONN
*I *12124:ScanInDL I *D CF_SRAM_1024x32
*I *12127:LO O *D sky130_fd_sc_hd__conb_1
*CAP
1 *12124:ScanInDL 0.000750697
2 *12127:LO 0.000750697
3 *12124:ScanInDL *12124:DI[0] 8.53839e-06
*RES
1 *12127:LO *12124:ScanInDL 11.7325
*END

*D_NET *323 0.00164969
*CONN
*I *12124:ScanInDR I *D CF_SRAM_1024x32
*I *12128:LO O *D sky130_fd_sc_hd__conb_1
*CAP
1 *12124:ScanInDR 0.000744529
2 *12128:LO 0.000744529
3 *12124:SM *12124:ScanInDR 0
4 *193:16 *12124:ScanInDR 0.000160635
*RES
1 *12128:LO *12124:ScanInDR 11.92
*END

*D_NET *324 0.00228807
*CONN
*I *12124:TM I *D CF_SRAM_1024x32
*I *12129:LO O *D sky130_fd_sc_hd__conb_1
*CAP
1 *12124:TM 0.000651791
2 *12129:LO 0.000651791
3 *12124:TM *12124:BEN[16] 4.91026e-05
4 *12124:TM *12124:WLBI 0.000604953
5 *12124:TM *360:76 0.000135528
6 *12124:TM *639:6 1.35615e-05
7 *123:18 *12124:TM 0.000137195
8 *194:20 *12124:TM 4.41506e-05
*RES
1 *12129:LO *12124:TM 17.7125
*END

*D_NET *325 0.00192007
*CONN
*I *12124:WLBI I *D CF_SRAM_1024x32
*I *12130:LO O *D sky130_fd_sc_hd__conb_1
*CAP
1 *12124:WLBI 0.000578529
2 *12130:LO 0.000578529
3 *12124:TM *12124:WLBI 0.000604953
4 *194:20 *12124:WLBI 0.00015806
*RES
1 *12130:LO *12124:WLBI 12.0288
*END

*D_NET *326 0.00169764
*CONN
*I *12124:WLOFF I *D CF_SRAM_1024x32
*I *12131:LO O *D sky130_fd_sc_hd__conb_1
*CAP
1 *12124:WLOFF 0.000824928
2 *12131:LO 0.000824928
3 *12124:WLOFF *12124:EN 4.77811e-05
4 *12124:WLOFF *360:74 0
5 *12124:R_WB *12124:WLOFF 0
6 *12124:SM *12124:WLOFF 0
*RES
1 *12131:LO *12124:WLOFF 12.7487
*END

*D_NET *327 0.00138088
*CONN
*I *12134:SM I *D CF_SRAM_1024x32
*I *12135:LO O *D sky130_fd_sc_hd__conb_1
*CAP
1 *12134:SM 0.000690438
2 *12135:LO 0.000690438
3 *12134:SM *12134:WLOFF 0
4 *12134:SM *12134:EN 0
5 *12134:SM *12134:ScanInDR 0
*RES
1 *12135:LO *12134:SM 11.3612
*END

*D_NET *328 0.00146487
*CONN
*I *12134:ScanInCC I *D CF_SRAM_1024x32
*I *12136:LO O *D sky130_fd_sc_hd__conb_1
*CAP
1 *12134:ScanInCC 0.000680747
2 *12136:LO 0.000680747
3 *12134:ScanInCC *12134:AD[3] 0.000101317
4 *12134:ScanInCC *12134:AD[9] 0
5 *12134:ScanInCC *471:28 2.05839e-06
6 *218:19 *12134:ScanInCC 0
7 *225:30 *12134:ScanInCC 0
*RES
1 *12136:LO *12134:ScanInCC 11.1175
*END

*D_NET *329 0.00147774
*CONN
*I *12134:ScanInDL I *D CF_SRAM_1024x32
*I *12137:LO O *D sky130_fd_sc_hd__conb_1
*CAP
1 *12134:ScanInDL 0.000738872
2 *12137:LO 0.000738872
3 *12134:ScanInDL *12134:BEN[0] 0
*RES
1 *12137:LO *12134:ScanInDL 11.5075
*END

*D_NET *330 0.0522363
*CONN
*I *11976:A I *D sky130_fd_sc_hd__buf_12
*I *12166:X O *D sky130_fd_sc_hd__buf_12
*CAP
1 *11976:A 0.000287432
2 *12166:X 0
3 *330:16 0.00157359
4 *330:14 0.00173724
5 *330:8 0.0051053
6 *330:6 0.00465422
7 *11976:A *513:8 0.000262702
8 *330:8 *11975:A 0
9 *330:8 *341:10 0
10 *330:8 *396:16 0
11 *330:8 *540:18 0
12 *330:16 *12052:A 0.00103051
13 *330:16 *12074:A 0.000549395
14 *330:16 *407:16 0.000230974
15 *330:16 *581:26 1.92979e-05
16 *968:DIODE *330:16 0.000179032
17 *1036:DIODE *11976:A 0.000175853
18 *12006:A *330:8 0
19 *117:14 *330:16 0.00141182
20 *121:18 *330:16 0.00481464
21 *149:18 *330:8 0.0114391
22 *177:22 *330:8 0.000265592
23 *202:13 *11976:A 0.000840078
24 *202:15 *330:8 0.0148942
25 *210:13 *330:8 0.00192012
26 *290:31 *330:16 0.000229897
27 *290:33 *330:16 7.06865e-05
28 *290:35 *330:16 0.000202995
29 *290:37 *330:16 0.000157908
30 *290:39 *330:16 0.000183738
*RES
1 *12166:X *330:6 3.6
2 *330:6 *330:8 190.845
3 *330:8 *330:14 9.28
4 *330:14 *330:16 55.695
5 *330:16 *11976:A 11.64
*END

*D_NET *331 0.00158745
*CONN
*I *12134:ScanInDR I *D CF_SRAM_1024x32
*I *12138:LO O *D sky130_fd_sc_hd__conb_1
*CAP
1 *12134:ScanInDR 0.000696825
2 *12138:LO 0.000696825
3 *12134:SM *12134:ScanInDR 0
4 *225:30 *12134:ScanInDR 0.000193801
*RES
1 *12138:LO *12134:ScanInDR 11.92
*END

*D_NET *332 0.00218504
*CONN
*I *12134:TM I *D CF_SRAM_1024x32
*I *12139:LO O *D sky130_fd_sc_hd__conb_1
*CAP
1 *12134:TM 0.000640167
2 *12139:LO 0.000640167
3 *12134:TM *12134:BEN[16] 5.31524e-05
4 *12134:TM *12134:WLBI 0.000649401
5 *167:16 *12134:TM 6.91641e-05
6 *237:11 *12134:TM 0.000132991
*RES
1 *12139:LO *12134:TM 17.7125
*END

*D_NET *333 0.00189347
*CONN
*I *12134:WLBI I *D CF_SRAM_1024x32
*I *12140:LO O *D sky130_fd_sc_hd__conb_1
*CAP
1 *12134:WLBI 0.000543003
2 *12140:LO 0.000543003
3 *12134:WLBI *426:16 0
4 *12134:TM *12134:WLBI 0.000649401
5 *226:16 *12134:WLBI 0.000158066
*RES
1 *12140:LO *12134:WLBI 12.0288
*END

*D_NET *334 0.00173784
*CONN
*I *12134:WLOFF I *D CF_SRAM_1024x32
*I *12141:LO O *D sky130_fd_sc_hd__conb_1
*CAP
1 *12134:WLOFF 0.000772365
2 *12141:LO 0.000772365
3 *12134:WLOFF *12134:EN 0.000193113
4 *12134:R_WB *12134:WLOFF 0
5 *12134:SM *12134:WLOFF 0
*RES
1 *12141:LO *12134:WLOFF 12.7487
*END

*D_NET *335 0.00128098
*CONN
*I *12144:SM I *D CF_SRAM_1024x32
*I *12145:LO O *D sky130_fd_sc_hd__conb_1
*CAP
1 *12144:SM 0.000640491
2 *12145:LO 0.000640491
3 *12144:SM *12144:ScanInDR 0
*RES
1 *12145:LO *12144:SM 11.3313
*END

*D_NET *336 0.00147033
*CONN
*I *12144:ScanInCC I *D CF_SRAM_1024x32
*I *12146:LO O *D sky130_fd_sc_hd__conb_1
*CAP
1 *12144:ScanInCC 0.00054406
2 *12146:LO 0.00054406
3 *12144:ScanInCC *12144:AD[3] 0.000382211
4 *250:9 *12144:ScanInCC 0
*RES
1 *12146:LO *12144:ScanInCC 11.7025
*END

*D_NET *337 0.00193407
*CONN
*I *12144:ScanInDL I *D CF_SRAM_1024x32
*I *12147:LO O *D sky130_fd_sc_hd__conb_1
*CAP
1 *12144:ScanInDL 0.000477385
2 *12147:LO 0.000477385
3 *12144:ScanInDL *12144:DI[0] 0.000979301
*RES
1 *12147:LO *12144:ScanInDL 12.2125
*END

*D_NET *338 0.00161216
*CONN
*I *12144:ScanInDR I *D CF_SRAM_1024x32
*I *12148:LO O *D sky130_fd_sc_hd__conb_1
*CAP
1 *12144:ScanInDR 0.000528386
2 *12148:LO 0.000528386
3 *12144:SM *12144:ScanInDR 0
4 *257:9 *12144:ScanInDR 0.000555385
*RES
1 *12148:LO *12144:ScanInDR 12.49
*END

*D_NET *339 0.00197033
*CONN
*I *12144:TM I *D CF_SRAM_1024x32
*I *12149:LO O *D sky130_fd_sc_hd__conb_1
*CAP
1 *12144:TM 0.000521775
2 *12149:LO 0.000521775
3 *12144:TM *12144:BEN[16] 0
4 *12144:TM *12144:WLBI 0.000469093
5 *258:9 *12144:TM 0.000457691
6 *271:11 *12144:TM 0
*RES
1 *12149:LO *12144:TM 16.6925
*END

*D_NET *340 0.00182072
*CONN
*I *12144:WLBI I *D CF_SRAM_1024x32
*I *12150:LO O *D sky130_fd_sc_hd__conb_1
*CAP
1 *12144:WLBI 0.000675814
2 *12150:LO 0.000675814
3 *12144:TM *12144:WLBI 0.000469093
4 *258:9 *12144:WLBI 0
*RES
1 *12150:LO *12144:WLBI 13.6488
*END

*D_NET *341 0.0434725
*CONN
*I *11978:A I *D sky130_fd_sc_hd__buf_12
*I *12167:X O *D sky130_fd_sc_hd__buf_12
*CAP
1 *11978:A 0.00071655
2 *12167:X 0.000427648
3 *341:10 0.0099266
4 *341:8 0.00963769
5 *11978:A *550:18 0.000405125
6 *341:8 *12061:A 8.33341e-05
7 *341:8 *12166:A 8.23457e-05
8 *341:8 *593:22 0.000278386
9 *341:10 *12007:A 4.11281e-05
10 *341:10 *429:18 0.0203828
11 *341:10 *540:18 4.28483e-05
12 *341:10 *579:24 0.00100921
13 *966:DIODE *11978:A 3.83194e-05
14 *185:16 *11978:A 0
15 *203:25 *341:10 2.78732e-05
16 *246:23 *341:10 0.000372654
17 *330:8 *341:10 0
*RES
1 *12167:X *341:8 10.95
2 *341:8 *341:10 236.49
3 *341:10 *11978:A 14.4
*END

*D_NET *342 0.00164493
*CONN
*I *12144:WLOFF I *D CF_SRAM_1024x32
*I *12151:LO O *D sky130_fd_sc_hd__conb_1
*CAP
1 *12144:WLOFF 0.000435301
2 *12151:LO 0.000432241
3 *342:9 3.05969e-06
4 *12144:WLOFF *12144:EN 0.000774328
5 *12144:R_WB *12144:WLOFF 0
*RES
1 *12151:LO *12144:WLOFF 10.675
2 *12144:WLOFF *342:9 0.196
*END

*D_NET *343 0.00128982
*CONN
*I *12154:SM I *D CF_SRAM_1024x32
*I *12155:LO O *D sky130_fd_sc_hd__conb_1
*CAP
1 *12154:SM 0.000644911
2 *12155:LO 0.000644911
3 *12154:SM *12154:ScanInDR 0
*RES
1 *12155:LO *12154:SM 11.3313
*END

*D_NET *344 0.0014795
*CONN
*I *12154:ScanInCC I *D CF_SRAM_1024x32
*I *12156:LO O *D sky130_fd_sc_hd__conb_1
*CAP
1 *12154:ScanInCC 0.000661678
2 *12156:LO 0.000661678
3 *12154:ScanInCC *12154:AD[3] 0.000156142
4 *282:25 *12154:ScanInCC 0
*RES
1 *12156:LO *12154:ScanInCC 11.9125
*END

*D_NET *345 0.00138822
*CONN
*I *12154:ScanInDL I *D CF_SRAM_1024x32
*I *12157:LO O *D sky130_fd_sc_hd__conb_1
*CAP
1 *12154:ScanInDL 0.000666179
2 *12157:LO 0.000666179
3 *12154:ScanInDL *12154:DI[0] 5.58616e-05
*RES
1 *12157:LO *12154:ScanInDL 12.2125
*END

*D_NET *346 0.00153993
*CONN
*I *12154:ScanInDR I *D CF_SRAM_1024x32
*I *12158:LO O *D sky130_fd_sc_hd__conb_1
*CAP
1 *12154:ScanInDR 0.000691895
2 *12158:LO 0.000691895
3 *12154:SM *12154:ScanInDR 0
4 *289:21 *12154:ScanInDR 0.000156142
*RES
1 *12158:LO *12154:ScanInDR 12.61
*END

*D_NET *347 0.00180324
*CONN
*I *12154:TM I *D CF_SRAM_1024x32
*I *12159:LO O *D sky130_fd_sc_hd__conb_1
*CAP
1 *12154:TM 0.000533342
2 *12159:LO 0.000533342
3 *12154:TM *12154:BEN[16] 4.97072e-05
4 *12154:TM *12154:WLBI 0.000434769
5 *12154:TM *443:56 8.97564e-05
6 *12154:TM *462:60 0.000162325
*RES
1 *12159:LO *12154:TM 16.7975
*END

*D_NET *348 0.00200199
*CONN
*I *12154:WLBI I *D CF_SRAM_1024x32
*I *12160:LO O *D sky130_fd_sc_hd__conb_1
*CAP
1 *12154:WLBI 0.000675564
2 *12160:LO 0.000675564
3 *12154:WLBI *12154:BEN[16] 6.56208e-07
4 *12154:WLBI *426:56 7.18771e-05
5 *12154:TM *12154:WLBI 0.000434769
6 *290:21 *12154:WLBI 0.00014356
*RES
1 *12160:LO *12154:WLBI 13.555
*END

*D_NET *349 0.00126998
*CONN
*I *12154:WLOFF I *D CF_SRAM_1024x32
*I *12161:LO O *D sky130_fd_sc_hd__conb_1
*CAP
1 *12154:WLOFF 0.000569019
2 *12161:LO 0.00056596
3 *349:9 3.05969e-06
4 *12154:WLOFF *12154:EN 0.000131943
5 *12154:R_WB *12154:WLOFF 0
*RES
1 *12161:LO *12154:WLOFF 10.675
2 *12154:WLOFF *349:9 0.196
*END

*D_NET *350 0.0378158
*CONN
*I *12124:vpwrac I *D CF_SRAM_1024x32
*I *12132:HI O *D sky130_fd_sc_hd__conb_1
*CAP
1 *12124:vpwrac 0.00117332
2 *12132:HI 0.00116862
3 *350:26 0.00263166
4 *350:24 0.00196765
5 *350:16 0.00167793
6 *12124:vpwrac *12124:vpwrpc 0.000367842
7 *350:16 *12124:AD[2] 3.0807e-05
8 *350:16 *351:8 0.00040396
9 *350:24 *351:24 5.83121e-06
10 *350:26 *11819:D 0.00105052
11 *11829:B2 *12124:vpwrac 0.000612396
12 *11867:A0 *350:24 0.00149415
13 *11868:A1 *12124:vpwrac 0.000419082
14 *11871:A1 *12124:vpwrac 0.000295859
15 *119:18 *350:26 0.00135041
16 *125:10 *350:16 0.00330713
17 *127:10 *350:16 0.00330855
18 *127:10 *350:24 0.00152577
19 *130:26 *350:26 2.13396e-05
20 *132:10 *350:26 0.00501679
21 *133:34 *350:24 5.82345e-05
22 *134:12 *350:26 0.000979506
23 *134:14 *350:26 3.05531e-05
24 *194:30 *350:26 0.00697568
25 *195:23 *350:26 0.00127427
26 *198:11 *350:24 1.93806e-05
27 *199:21 *350:24 0.000285264
28 *206:11 *350:26 3.47757e-05
29 *206:19 *350:26 0.000328464
*RES
1 *12132:HI *350:16 48.427
2 *350:16 *350:24 23.4925
3 *350:24 *350:26 90.5025
4 *350:26 *12124:vpwrac 4.98417
*END

*D_NET *351 0.0362966
*CONN
*I *12124:vpwrpc I *D CF_SRAM_1024x32
*I *12133:HI O *D sky130_fd_sc_hd__conb_1
*CAP
1 *12124:vpwrpc 0.000591845
2 *12133:HI 0.000303414
3 *351:26 0.0015515
4 *351:24 0.00207591
5 *351:10 0.00203033
6 *351:8 0.00121748
7 *12124:vpwrpc *496:34 0.00132028
8 *351:8 *12124:AD[2] 0.000133051
9 *351:24 *12124:BEN[9] 8.41015e-06
10 *351:24 *12124:BEN[8] 8.41703e-06
11 *351:24 *12124:BEN[5] 1.79483e-05
12 *351:24 *12124:BEN[7] 1.79483e-05
13 *351:24 *560:30 0.000119921
14 *351:26 *12124:BEN[10] 1.79536e-05
15 *351:26 *12124:BEN[11] 1.79536e-05
16 *351:26 *557:161 0.000261714
17 *351:26 *557:171 0.000628975
18 *351:26 *557:191 0.000249303
19 *351:26 *557:213 0.000163707
20 *11829:B2 *12124:vpwrpc 0.000373226
21 *12124:vpwrac *12124:vpwrpc 0.000367842
22 *119:18 *351:10 0.00494428
23 *130:26 *351:26 0.00465216
24 *133:34 *351:24 6.55631e-05
25 *139:42 *351:8 0.00029792
26 *142:16 *351:24 0.00260013
27 *142:20 *351:24 2.8531e-05
28 *142:20 *351:26 0.00118368
29 *142:28 *351:26 0.00167994
30 *187:30 *351:26 1.79483e-05
31 *188:30 *351:26 1.79483e-05
32 *189:34 *351:26 1.79483e-05
33 *193:18 *351:24 0.00179175
34 *194:22 *351:10 0.00492613
35 *194:28 *351:10 9.39388e-06
36 *194:28 *351:24 4.96965e-05
37 *194:30 *351:24 0.000362362
38 *194:30 *351:26 7.85697e-05
39 *195:23 *351:10 0.000959949
40 *195:23 *351:24 0.000295208
41 *195:23 *351:26 0.000395778
42 *214:27 *351:24 1.79536e-05
43 *216:31 *351:24 8.41015e-06
44 *217:27 *351:24 8.41015e-06
45 *350:16 *351:8 0.00040396
46 *350:24 *351:24 5.83121e-06
*RES
1 *12133:HI *351:8 10.26
2 *351:8 *351:10 55.695
3 *351:10 *351:24 43.99
4 *351:24 *351:26 53.7825
5 *351:26 *12124:vpwrpc 18.6049
*END

*D_NET *352 0.0571107
*CONN
*I *11985:A I *D sky130_fd_sc_hd__buf_12
*I *12168:X O *D sky130_fd_sc_hd__buf_12
*CAP
1 *11985:A 0.000507397
2 *12168:X 0.00145418
3 *352:16 0.00471529
4 *352:14 0.00566207
5 *11985:A *11987:A 0
6 *11985:A *637:25 0
7 *352:14 *11880:C1 0
8 *352:14 *11998:A 3.37446e-05
9 *352:14 *12054:A 0.000132858
10 *352:14 *12249:A 0
11 *352:14 *594:20 0.000582516
12 *352:14 *632:107 0.00106305
13 *352:16 *429:18 0.0210838
14 *352:16 *540:18 0.021287
15 *352:16 *579:24 0.000220919
16 *11997:A *352:14 0
17 *121:16 *11985:A 5.83121e-06
18 *195:23 *352:14 0.000276539
19 *207:15 *352:16 8.55749e-05
*RES
1 *12168:X *352:14 34.69
2 *352:14 *352:16 242.61
3 *352:16 *11985:A 10.605
*END

*D_NET *353 0.0363003
*CONN
*I *12134:vpwrac I *D CF_SRAM_1024x32
*I *12142:HI O *D sky130_fd_sc_hd__conb_1
*CAP
1 *12134:vpwrac 0.00035845
2 *12142:HI 0.000298289
3 *353:10 0.00307154
4 *353:8 0.00301137
5 *12134:vpwrac *12134:vpwrpc 0.0019391
6 *353:8 *354:8 0.000515421
7 *353:10 *354:10 0.012643
8 *353:10 *518:24 6.23541e-06
9 *353:10 *627:150 0.000312918
10 *168:16 *12134:vpwrac 1.14169e-05
11 *168:20 *12134:vpwrac 1.05984e-05
12 *174:10 *353:10 0.00895221
13 *174:14 *12134:vpwrac 0.000149328
14 *228:23 *12134:vpwrac 0.00180087
15 *231:19 *12134:vpwrac 9.1436e-05
16 *237:11 *353:10 0.00312817
*RES
1 *12142:HI *353:8 8.88
2 *353:8 *353:10 146.985
3 *353:10 *12134:vpwrac 24.04
*END

*D_NET *354 0.0344015
*CONN
*I *12134:vpwrpc I *D CF_SRAM_1024x32
*I *12143:HI O *D sky130_fd_sc_hd__conb_1
*CAP
1 *12134:vpwrpc 0.000407718
2 *12143:HI 0.000344582
3 *354:10 0.00329364
4 *354:8 0.0032305
5 *354:10 *518:24 0.00291041
6 *12134:vpwrac *12134:vpwrpc 0.0019391
7 *167:16 *354:10 0.00751478
8 *168:16 *12134:vpwrpc 2.20014e-05
9 *231:19 *12134:vpwrpc 0.00156783
10 *237:11 *354:10 1.25877e-05
11 *353:8 *354:8 0.000515421
12 *353:10 *354:10 0.012643
*RES
1 *12143:HI *354:8 9.57
2 *354:8 *354:10 146.985
3 *354:10 *12134:vpwrpc 22.72
*END

*D_NET *355 0.0341491
*CONN
*I *12144:vpwrac I *D CF_SRAM_1024x32
*I *12152:HI O *D sky130_fd_sc_hd__conb_1
*CAP
1 *12144:vpwrac 0.000867301
2 *12152:HI 0
3 *355:18 0.00173138
4 *355:8 0.00349538
5 *355:6 0.0026313
6 *12144:vpwrac *12144:vpwrpc 0.00199139
7 *355:8 *504:20 0.00131698
8 *355:18 *12144:DI[12] 0.000548685
9 *253:9 *355:18 0.000153816
10 *257:11 *355:8 0.00984246
11 *258:11 *355:18 0.0030324
12 *264:11 *355:18 0.00303407
13 *273:11 *355:8 0.00550392
*RES
1 *12152:HI *355:6 3.6
2 *355:6 *355:8 113.07
3 *355:8 *355:18 45.645
4 *355:18 *12144:vpwrac 22.43
*END

*D_NET *356 0.0328573
*CONN
*I *12144:vpwrpc I *D CF_SRAM_1024x32
*I *12153:HI O *D sky130_fd_sc_hd__conb_1
*CAP
1 *12144:vpwrpc 0.00119259
2 *12153:HI 0
3 *356:8 0.00506749
4 *356:6 0.0038749
5 *356:8 *369:76 0.000287201
6 *356:8 *636:89 0
7 *12144:vpwrac *12144:vpwrpc 0.00199139
8 *261:11 *356:8 0.00177261
9 *273:11 *356:8 0.0127904
10 *280:11 *356:8 0.00588067
*RES
1 *12153:HI *356:6 3.6
2 *356:6 *356:8 146.985
3 *356:8 *12144:vpwrpc 28.225
*END

*D_NET *357 0.0272476
*CONN
*I *12154:vpwrac I *D CF_SRAM_1024x32
*I *12162:HI O *D sky130_fd_sc_hd__conb_1
*CAP
1 *12154:vpwrac 0.000942978
2 *12162:HI 0.00033655
3 *357:10 0.00628759
4 *357:8 0.00568116
5 *12154:vpwrac *12154:vpwrpc 0.000805821
6 *357:10 *426:52 0.0131935
7 *357:10 *432:50 0
8 *357:10 *432:54 0
*RES
1 *12162:HI *357:8 8.19
2 *357:8 *357:10 146.985
3 *357:10 *12154:vpwrac 24.475
*END

*D_NET *358 0.0293543
*CONN
*I *12154:vpwrpc I *D CF_SRAM_1024x32
*I *12163:HI O *D sky130_fd_sc_hd__conb_1
*CAP
1 *12154:vpwrpc 0.00133904
2 *12163:HI 0
3 *358:8 0.00485774
4 *358:6 0.0035187
5 *358:8 *458:46 0.0129224
6 *358:8 *462:56 0.0036679
7 *358:8 *462:60 0.00224261
8 *12154:vpwrac *12154:vpwrpc 0.000805821
*RES
1 *12163:HI *358:6 3.6
2 *358:6 *358:8 147.75
3 *358:8 *12154:vpwrpc 29.59
*END

*D_NET *359 0.000362647
*CONN
*I *12102:A I *D sky130_fd_sc_hd__dlygate4sd3_1
*I *11937:X O *D sky130_fd_sc_hd__dlygate4sd3_1
*CAP
1 *12102:A 0.000164019
2 *11937:X 0.000164019
3 *12102:A *12177:A 2.79137e-05
4 *11898:A1 *12102:A 6.69608e-06
*RES
1 *11937:X *12102:A 5.72
*END

*D_NET *360 0.155654
*CONN
*I *12154:DI[15] I *D CF_SRAM_1024x32
*I *12144:DI[15] I *D CF_SRAM_1024x32
*I *12124:DI[15] I *D CF_SRAM_1024x32
*I *12134:DI[15] I *D CF_SRAM_1024x32
*I *12036:X O *D sky130_fd_sc_hd__buf_12
*CAP
1 *12154:DI[15] 0.000103135
2 *12144:DI[15] 0.000224114
3 *12124:DI[15] 0.00172571
4 *12134:DI[15] 0.0126362
5 *12036:X 0.000281257
6 *360:98 0.018664
7 *360:76 0.0220451
8 *360:74 0.00425386
9 *360:32 0.0162419
10 *360:12 0.00542557
11 *360:10 0.00482065
12 *12124:DI[15] *557:30 0
13 *12134:DI[15] *12134:BEN[15] 0
14 *12134:DI[15] *557:38 0
15 *360:10 *369:22 0.000179068
16 *360:10 *504:84 0.000172177
17 *360:10 *509:34 0.000159109
18 *360:12 *12124:AD[4] 1.79536e-05
19 *360:12 *12124:DI[9] 5.90885e-05
20 *360:12 *12124:DI[8] 1.83975e-05
21 *360:12 *369:22 0.00259712
22 *360:12 *369:26 0
23 *360:12 *369:30 0.00153562
24 *360:12 *424:34 0.000307125
25 *360:12 *504:84 0.00115142
26 *360:32 *362:32 6.27927e-05
27 *360:76 *12144:DI[10] 0.000891586
28 *360:98 *480:58 3.97748e-05
29 *360:98 *557:263 0
30 *360:98 *557:281 0
31 *360:98 *557:293 3.97748e-05
32 *11869:A1 *12144:DI[15] 0
33 *11869:A1 *360:98 2.38557e-05
34 *12124:WLOFF *360:74 0
35 *12124:SM *360:74 0.000689839
36 *12124:TM *360:76 0.000135528
37 *113:10 *360:12 0.000233079
38 *119:18 *360:76 0.00600579
39 *120:18 *360:12 9.60591e-05
40 *123:16 *360:76 0.00166711
41 *123:18 *360:76 0.00245437
42 *126:8 *12134:DI[15] 1.7635e-05
43 *126:8 *360:32 0.000934147
44 *131:26 *360:12 0.00661537
45 *146:10 *360:32 0.00230169
46 *178:18 *360:32 0.0023027
47 *194:22 *360:76 0.000778798
48 *195:23 *360:76 0.000167494
49 *196:17 *360:74 4.23612e-05
50 *204:21 *360:76 0.000872512
51 *205:29 *12124:DI[15] 1.46832e-05
52 *206:11 *360:76 0.000391597
53 *223:45 *360:12 0.000322607
54 *224:15 *12134:DI[15] 0.0147872
55 *228:19 *12134:DI[15] 2.24992e-05
56 *231:13 *12134:DI[15] 2.24992e-05
57 *258:21 *360:76 0.00328221
58 *272:11 *360:76 0.00772712
59 *272:11 *360:98 8.63143e-05
60 *278:11 *360:76 0.00754553
61 *278:11 *360:98 8.00915e-05
62 *279:19 *360:76 2.13396e-05
63 *288:24 *12154:DI[15] 3.95221e-05
64 *288:24 *360:98 0.00137388
65 *319:22 *12134:DI[15] 1.83975e-05
66 *319:22 *360:32 0.000927476
*RES
1 *12036:X *360:10 8.955
2 *360:10 *360:12 106.185
3 *360:12 *360:32 46.8425
4 *360:32 *12134:DI[15] 46.07
5 *360:32 *12124:DI[15] 21.7175
6 *360:10 *360:74 17.905
7 *360:74 *360:76 181.92
8 *360:76 *12144:DI[15] 5.1725
9 *360:76 *360:98 48.6891
10 *360:98 *12154:DI[15] 1.6275
*END

*D_NET *361 0.00159864
*CONN
*I *11982:A I *D sky130_fd_sc_hd__dlygate4sd3_1
*I *12047:X O *D sky130_fd_sc_hd__dlygate4sd3_1
*CAP
1 *11982:A 0.00054127
2 *12047:X 0.00054127
3 *11982:A *12047:A 0.000163204
4 *11982:A *12176:A 0.000298271
5 *11982:A *606:20 5.46228e-05
*RES
1 *12047:X *11982:A 15.9
*END

*D_NET *362 0.158219
*CONN
*I *12154:DI[14] I *D CF_SRAM_1024x32
*I *12144:DI[14] I *D CF_SRAM_1024x32
*I *12134:DI[14] I *D CF_SRAM_1024x32
*I *12124:DI[14] I *D CF_SRAM_1024x32
*I *12058:X O *D sky130_fd_sc_hd__buf_12
*CAP
1 *12154:DI[14] 0.016763
2 *12144:DI[14] 0.00220586
3 *12134:DI[14] 0.0145748
4 *12124:DI[14] 0.00171022
5 *12058:X 3.6376e-05
6 *362:80 0.0307512
7 *362:65 7.37025e-06
8 *362:41 7.37025e-06
9 *362:32 0.0177443
10 *362:10 0.0045156
11 *362:8 0.0148603
12 *12124:DI[14] *557:161 2.49909e-05
13 *12134:DI[14] *12134:BEN[14] 0
14 *12134:DI[14] *557:62 3.97748e-05
15 *12134:DI[14] *634:16 1.83975e-05
16 *12154:DI[14] *12154:BEN[14] 0
17 *12154:DI[14] *480:58 3.97748e-05
18 *12154:DI[14] *557:305 3.97748e-05
19 *362:8 *389:8 0.000126076
20 *362:8 *393:14 0.000118881
21 *362:10 *365:24 0.00084914
22 *362:10 *387:18 0.00482112
23 *362:10 *389:8 0.00707415
24 *362:10 *389:18 0.00113839
25 *362:10 *393:14 0.00211615
26 *362:10 *393:16 6.33808e-05
27 *362:10 *560:18 0.000543546
28 *362:10 *560:20 0.000169055
29 *362:10 *627:27 4.18862e-05
30 *362:10 *627:31 0.000269381
31 *362:32 *11874:C1 0.000337201
32 *362:32 *369:30 1.36984e-05
33 *362:32 *369:34 0.00111799
34 *362:32 *594:12 0.000337201
35 *362:80 *12074:A 0.00367171
36 *362:80 *12134:DI[16] 0.000152056
37 *362:80 *365:24 0.000281178
38 *362:80 *513:54 0.00630813
39 *362:80 *547:28 0.00028994
40 *362:80 *550:8 0.000581094
41 *11829:B2 *362:10 1.88656e-05
42 *11834:A1 *362:10 0.000186408
43 *11868:A1 *12124:DI[14] 2.30318e-05
44 *117:14 *362:80 0.000549883
45 *120:18 *362:32 0.00230694
46 *121:16 *362:80 0.000518086
47 *146:10 *362:10 9.00109e-05
48 *147:10 *362:80 0.000581094
49 *181:51 *362:80 0
50 *193:34 *362:32 0.000230083
51 *219:29 *362:10 1.93834e-05
52 *223:15 *12134:DI[14] 0.015225
53 *223:45 *362:32 0.00018048
54 *224:23 *12134:DI[14] 1.7635e-05
55 *228:19 *12134:DI[14] 3.97748e-05
56 *243:27 *362:10 1.88602e-05
57 *247:33 *362:10 0.000401913
58 *249:32 *362:10 1.93834e-05
59 *255:7 *12144:DI[14] 2.50766e-05
60 *282:27 *12144:DI[14] 1.7635e-05
61 *282:27 *362:80 0.00117197
62 *287:24 *12154:DI[14] 0.000370766
63 *290:27 *362:80 0.000716143
64 *291:19 *12144:DI[14] 7.96104e-06
65 *291:19 *362:80 0.000603849
66 *304:33 *362:80 0.000385179
67 *304:35 *362:80 0.000107219
68 *319:22 *362:32 0.000563213
69 *360:32 *362:32 6.27927e-05
*RES
1 *12058:X *362:8 5.1075
2 *362:8 *362:10 111.923
3 *362:10 *362:32 42.6797
4 *362:32 *12124:DI[14] 18.765
5 *12124:DI[14] *362:41 0.1275
6 *362:32 *12134:DI[14] 49.7523
7 *12134:DI[14] *362:65 0.1275
8 *362:8 *362:80 33.6936
9 *362:80 *12144:DI[14] 26.605
10 *362:80 *12154:DI[14] 45.2799
*END

*D_NET *363 0.0256935
*CONN
*I *11819:C I *D sky130_fd_sc_hd__and4b_2
*I *11816:A I *D sky130_fd_sc_hd__nand2_4
*I *12169:X O *D sky130_fd_sc_hd__clkbuf_2
*CAP
1 *11819:C 0.00117366
2 *11816:A 0
3 *12169:X 6.68002e-05
4 *363:39 0.00194469
5 *363:30 0.00227227
6 *363:14 0.00256429
7 *363:10 0.00112984
8 *11819:C *12094:A 0.000237435
9 *11819:C *576:22 0.00122465
10 *11819:C *589:12 0.000245368
11 *11819:C *607:16 0
12 *11819:C *633:20 0.000171555
13 *11819:C *633:26 0.000355716
14 *363:14 *374:14 0.000101633
15 *363:14 *587:12 0.0043265
16 *363:30 *11853:A2 7.67415e-06
17 *363:30 *12014:A 0.000172462
18 *363:30 *12244:A 9.82856e-06
19 *363:30 *12245:A 0.000272291
20 *363:30 *12247:A 3.79854e-05
21 *363:30 *587:30 0.000198945
22 *363:30 *591:16 2.86623e-05
23 *363:30 *595:12 3.05373e-05
24 *363:30 *596:14 0.000111696
25 *363:30 *621:8 4.1513e-05
26 *363:30 *624:12 0.000273878
27 *363:30 *633:60 6.39859e-05
28 *363:39 *11979:A 0.000104482
29 *363:39 *12209:A 1.19928e-05
30 *363:39 *12247:A 0.0022321
31 *363:39 *587:30 0.00010998
32 wbs_dat_o[2] *363:30 3.47837e-05
33 *11838:A1 *363:30 1.77665e-05
34 *12008:A *363:39 0.000158072
35 *12033:A *363:10 4.94404e-05
36 *12066:A *363:39 4.82919e-05
37 *12068:A *363:39 0.000278117
38 *12090:A *363:30 0
39 *109:12 *363:30 0.00041594
40 *110:22 *363:30 3.00381e-05
41 *110:33 *11819:C 0
42 *203:17 *11819:C 0.00103816
43 *318:12 *363:14 0.00410044
*RES
1 *12169:X *363:10 6.725
2 *363:10 *363:14 46.61
3 *363:14 *363:30 29.61
4 *363:30 *11816:A 1.6
5 *363:30 *363:39 22.805
6 *363:39 *11819:C 33.795
*END

*D_NET *364 0.00136197
*CONN
*I *12004:A I *D sky130_fd_sc_hd__dlygate4sd3_1
*I *12069:X O *D sky130_fd_sc_hd__dlygate4sd3_1
*CAP
1 *12004:A 0.0004594
2 *12069:X 0.0004594
3 *12004:A *12069:A 0.000180383
4 *12004:A *12208:A 0
5 *12004:A *12224:A 0.000151112
6 *12004:A *604:12 0
7 *12004:A *605:22 0
8 wbs_dat_o[13] *12004:A 0.000111679
*RES
1 *12069:X *12004:A 15.54
*END

*D_NET *365 0.147801
*CONN
*I *12154:DI[13] I *D CF_SRAM_1024x32
*I *12144:DI[13] I *D CF_SRAM_1024x32
*I *12134:DI[13] I *D CF_SRAM_1024x32
*I *12124:DI[13] I *D CF_SRAM_1024x32
*I *12080:X O *D sky130_fd_sc_hd__buf_12
*CAP
1 *12154:DI[13] 0.0172964
2 *12144:DI[13] 0.00245542
3 *12134:DI[13] 0.0232421
4 *12124:DI[13] 0.00158263
5 *12080:X 0
6 *365:78 0.021109
7 *365:74 0.0070786
8 *365:72 0.00672495
9 *365:24 0.0364221
10 *365:6 0.0126009
11 *12124:DI[13] *11932:A 3.85987e-05
12 *12124:DI[13] *12029:A 0.000121948
13 *12124:DI[13] *627:31 7.76832e-05
14 *12124:DI[13] *634:8 3.1522e-05
15 *12134:DI[13] *557:72 3.91191e-05
16 *12154:DI[13] *480:58 1.7635e-05
17 *12154:DI[13] *557:317 1.7635e-05
18 *365:24 *11932:A 4.22748e-05
19 *365:24 *12074:A 0.00143566
20 *365:24 *387:18 0.000220919
21 *365:24 *389:8 0.00093133
22 *365:24 *393:14 0.000145753
23 *365:24 *426:36 5.07251e-05
24 *365:24 *550:8 0.000480844
25 *365:24 *554:31 0.000105913
26 *365:24 *627:31 0.00060423
27 *365:72 *11960:A 8.23457e-05
28 *365:72 *12052:A 7.05863e-06
29 *365:72 *389:8 0.000428409
30 *365:72 *393:14 0.000420038
31 *365:72 *578:10 0.000765017
32 *365:74 *550:18 0
33 *365:74 *578:10 1.10631e-05
34 *1036:DIODE *365:74 0
35 *11863:A1 *12144:DI[13] 3.57275e-05
36 *11865:A1 *12124:DI[13] 0
37 *131:16 *365:74 0.0035184
38 *131:20 *365:72 0.000730398
39 *146:10 *365:24 2.05605e-05
40 *185:18 *365:74 0
41 *200:11 *365:72 1.10631e-05
42 *200:11 *365:74 0.00245831
43 *201:11 *365:74 0.000398363
44 *202:15 *365:74 0.000290487
45 *221:54 *365:24 0.000235299
46 *222:15 *12134:DI[13] 2.07526e-05
47 *224:23 *12124:DI[13] 0.0002049
48 *228:19 *12134:DI[13] 3.91191e-05
49 *269:14 *365:74 0
50 *269:14 *365:78 0
51 *274:14 *365:78 0
52 *286:9 *12154:DI[13] 0.000154977
53 *289:27 *365:74 0.00225476
54 *309:19 *12154:DI[13] 5.94456e-06
55 *309:19 *365:74 0
56 *309:19 *365:78 0.00170417
57 *310:19 *365:74 0
58 *362:10 *365:24 0.00084914
59 *362:80 *365:24 0.000281178
*RES
1 *12080:X *365:6 3.6
2 *365:6 *365:24 27.9899
3 *365:24 *12124:DI[13] 23.63
4 *365:24 *12134:DI[13] 46.4058
5 *365:6 *365:72 25.7575
6 *365:72 *365:74 141.63
7 *365:74 *365:78 34.1775
8 *365:78 *12144:DI[13] 28.8575
9 *365:78 *12154:DI[13] 45.263
*END

*D_NET *366 0.00161361
*CONN
*I *11937:A I *D sky130_fd_sc_hd__dlygate4sd3_1
*I *12091:X O *D sky130_fd_sc_hd__dlygate4sd3_1
*CAP
1 *11937:A 0.000241902
2 *12091:X 0.000241902
3 *11937:A *12177:A 8.53307e-05
4 *11937:A *12226:A 4.33757e-05
5 *11937:A *441:14 0
6 *11937:A *600:14 0.000673726
7 *11937:A *605:22 0.000152184
8 wbs_dat_o[15] *11937:A 0.00017519
*RES
1 *12091:X *11937:A 15.15
*END

*D_NET *367 0.00100716
*CONN
*I *12177:A I *D sky130_fd_sc_hd__buf_12
*I *12102:X O *D sky130_fd_sc_hd__dlygate4sd3_1
*CAP
1 *12177:A 0.000413273
2 *12102:X 0.000413273
3 *12177:A *12078:A 0
4 *12177:A *441:14 0
5 *11937:A *12177:A 8.53307e-05
6 *12077:A *12177:A 6.73665e-05
7 *12102:A *12177:A 2.79137e-05
*RES
1 *12102:X *12177:A 13.05
*END

*D_NET *368 0.000111545
*CONN
*I *12026:A I *D sky130_fd_sc_hd__dlygate4sd3_1
*I *12113:X O *D sky130_fd_sc_hd__dlygate4sd3_1
*CAP
1 *12026:A 5.81042e-06
2 *12113:X 5.81042e-06
3 *12026:A *12037:A 4.99619e-05
4 *12026:A *12113:A 4.99619e-05
*RES
1 *12113:X *12026:A 3.65
*END

*D_NET *369 0.167721
*CONN
*I *12154:DI[12] I *D CF_SRAM_1024x32
*I *12144:DI[12] I *D CF_SRAM_1024x32
*I *12134:DI[12] I *D CF_SRAM_1024x32
*I *12124:DI[12] I *D CF_SRAM_1024x32
*I *11938:X O *D sky130_fd_sc_hd__buf_12
*CAP
1 *12154:DI[12] 0.0223435
2 *12144:DI[12] 0.000667875
3 *12134:DI[12] 9.53364e-05
4 *12124:DI[12] 0.00152199
5 *11938:X 0.000250447
6 *369:76 0.0331511
7 *369:56 0.0128338
8 *369:34 0.0145784
9 *369:30 0.00165729
10 *369:26 0.00297571
11 *369:22 0.00310033
12 *369:10 0.0118541
13 *12144:DI[12] *12144:BEN[12] 0
14 *12154:DI[12] *12154:BEN[12] 0
15 *12154:DI[12] *480:58 1.79483e-05
16 *12154:DI[12] *557:329 1.79483e-05
17 *369:10 *417:96 0.000120789
18 *369:10 *502:10 1.75833e-05
19 *369:10 *504:78 0.000294681
20 *369:10 *509:8 0.000337576
21 *369:22 *12124:AD[8] 1.87328e-05
22 *369:22 *12124:AD[9] 3.00414e-05
23 *369:22 *12134:AD[7] 1.83975e-05
24 *369:22 *12217:A 6.2423e-05
25 *369:22 *502:10 0.000454285
26 *369:22 *504:84 1.99922e-05
27 *369:22 *509:8 0.000118309
28 *369:22 *509:34 0.00015635
29 *369:22 *513:10 0.000104211
30 *369:22 *515:22 0.000600407
31 *369:22 *517:10 0.00112041
32 *369:22 *547:28 0.000233177
33 *369:30 *11926:A 0.00167258
34 *369:30 *12124:DI[9] 5.80719e-05
35 *369:30 *12124:DI[8] 1.7635e-05
36 *369:30 *387:28 0.000111486
37 *369:56 *557:84 3.97748e-05
38 *369:56 *627:31 1.7635e-05
39 *369:76 *11994:A 0.000306219
40 *369:76 *12094:A 0.00258877
41 *369:76 *400:18 0.000394658
42 *369:76 *400:20 0.000118136
43 *369:76 *400:80 0.000105649
44 *369:76 *426:36 0.000161887
45 *369:76 *504:20 0.0134609
46 *369:76 *504:78 7.53239e-05
47 *369:76 *506:12 0.000736652
48 *369:76 *506:60 0.000626144
49 *369:76 *511:20 0.00073282
50 *369:76 *577:28 0.00172515
51 *369:76 *607:16 0.000110459
52 *369:76 *635:78 0.000132997
53 *369:76 *635:89 0.000124887
54 *369:76 *635:120 0.000255762
55 *12124:CLKin *369:10 0.000296755
56 *126:8 *369:30 0.000608118
57 *126:8 *369:34 0.000322716
58 *129:10 *369:76 0.00155949
59 *146:10 *369:56 5.68523e-06
60 *178:18 *369:22 0
61 *178:18 *369:26 0.00304134
62 *178:18 *369:30 0.000375689
63 *184:8 *369:76 0.000562683
64 *189:34 *12124:DI[12] 7.05395e-05
65 *193:34 *369:34 0.000522752
66 *203:11 *369:76 0.000721706
67 *221:20 *12134:DI[12] 4.35557e-05
68 *221:20 *369:56 0.0151754
69 *222:15 *369:56 0
70 *223:45 *369:30 0.000574311
71 *228:13 *369:56 2.09673e-05
72 *250:11 *369:76 0.00110253
73 *253:9 *12144:DI[12] 0.000257651
74 *257:11 *12144:DI[12] 8.41015e-06
75 *257:11 *369:76 0.00103542
76 *273:11 *12144:DI[12] 1.93765e-05
77 *280:11 *369:76 0.000287201
78 *284:30 *369:76 0.000109931
79 *285:21 *12154:DI[12] 0.00215003
80 *312:27 *369:76 0.000222719
81 *355:18 *12144:DI[12] 0.000548685
82 *356:8 *369:76 0.000287201
83 *360:10 *369:22 0.000179068
84 *360:12 *369:22 0.00259712
85 *360:12 *369:26 0
86 *360:12 *369:30 0.00153562
87 *362:32 *369:30 1.36984e-05
88 *362:32 *369:34 0.00111799
*RES
1 *11938:X *369:10 10.8675
2 *369:10 *369:22 44.055
3 *369:22 *369:26 37.125
4 *369:26 *369:30 42.825
5 *369:30 *369:34 15.2375
6 *369:34 *12124:DI[12] 17.1225
7 *369:34 *369:56 48.2208
8 *369:56 *12134:DI[12] 3.6425
9 *369:10 *369:76 35.6987
10 *369:76 *12144:DI[12] 12.8687
11 *369:76 *12154:DI[12] 47.2399
*END

*D_NET *370 0.00324482
*CONN
*I *12037:A I *D sky130_fd_sc_hd__dlygate4sd3_1
*I *11949:X O *D sky130_fd_sc_hd__dlygate4sd3_1
*CAP
1 *12037:A 0.000629864
2 *11949:X 0.000629864
3 *12037:A *12113:A 0.000273827
4 *12037:A *595:14 0.000701106
5 *11886:A1 *12037:A 0.000150653
6 *11993:A *12037:A 0.000374392
7 *12015:A *12037:A 0.00034689
8 *12026:A *12037:A 4.99619e-05
9 *12031:A *12037:A 0
10 *198:23 *12037:A 8.8266e-05
*RES
1 *11949:X *12037:A 25.305
*END

*D_NET *371 0.144035
*CONN
*I *12144:DI[11] I *D CF_SRAM_1024x32
*I *12154:DI[11] I *D CF_SRAM_1024x32
*I *12134:DI[11] I *D CF_SRAM_1024x32
*I *12124:DI[11] I *D CF_SRAM_1024x32
*I *11960:X O *D sky130_fd_sc_hd__buf_12
*CAP
1 *12144:DI[11] 0.00154641
2 *12154:DI[11] 0.0168997
3 *12134:DI[11] 0.000100733
4 *12124:DI[11] 0.0016329
5 *11960:X 9.63897e-05
6 *371:70 0.0247468
7 *371:60 0.0174323
8 *371:36 0.0192713
9 *371:26 0.00273783
10 *371:24 0.00332359
11 *371:8 0.00728968
12 *12154:DI[11] *480:58 1.79536e-05
13 *12154:DI[11] *557:341 1.79536e-05
14 *371:24 *387:12 0.000197052
15 *371:24 *513:10 0.00232811
16 *371:24 *515:10 0.000726483
17 *371:24 *515:22 1.88889e-05
18 *371:26 *387:12 0.000703725
19 *371:26 *393:16 0.00173334
20 *371:36 *560:18 4.41506e-05
21 *371:60 *557:100 1.79536e-05
22 *371:60 *627:31 1.7635e-05
23 *371:70 *387:12 0.000739816
24 *371:70 *387:66 0.0157324
25 *371:70 *417:16 3.60738e-06
26 *371:70 *509:68 0
27 *371:70 *515:10 0.00448113
28 *371:70 *515:64 1.79536e-05
29 *371:70 *636:47 0.000136772
30 *371:70 *636:68 0.00301773
31 *371:70 *636:87 0.000112263
32 *884:DIODE *371:70 0.000175109
33 *902:DIODE *371:70 0.000259194
34 *980:DIODE *371:70 8.65612e-05
35 *126:8 *371:36 0.000927901
36 *146:10 *371:26 0.00374931
37 *146:10 *371:60 5.68523e-06
38 *178:16 *371:24 0.00175645
39 *178:16 *371:26 0.000104956
40 *178:18 *371:26 0.00749452
41 *178:18 *371:36 0.000926551
42 *188:30 *12124:DI[11] 7.05395e-05
43 *220:15 *12134:DI[11] 4.00904e-05
44 *220:15 *371:60 0
45 *222:27 *371:26 1.83975e-05
46 *228:13 *371:60 8.41703e-06
47 *252:12 *12144:DI[11] 0.000291917
48 *272:27 *371:70 7.06347e-05
49 *284:24 *12154:DI[11] 0.00175315
50 *293:27 *371:70 0.000156871
51 *293:29 *371:70 0.00070427
52 *293:35 *371:70 0.000292438
*RES
1 *11960:X *371:8 4.74
2 *371:8 *371:24 39.89
3 *371:24 *371:26 91.905
4 *371:26 *371:36 17.865
5 *371:36 *12124:DI[11] 18.1425
6 *371:36 *371:60 48.9308
7 *371:60 *12134:DI[11] 1.6725
8 *371:8 *371:70 197.092
9 *371:70 *12154:DI[11] 46.3989
10 *371:70 *12144:DI[11] 20.5475
*END

*D_NET *372 0.00149835
*CONN
*I *12047:A I *D sky130_fd_sc_hd__dlygate4sd3_1
*I *11971:X O *D sky130_fd_sc_hd__dlygate4sd3_1
*CAP
1 *12047:A 0.000545077
2 *11971:X 0.000545077
3 *12047:A *12176:A 8.51879e-05
4 wbs_dat_o[14] *12047:A 0.000159803
5 *11982:A *12047:A 0.000163204
*RES
1 *11971:X *12047:A 15.42
*END

*D_NET *373 0.000974366
*CONN
*I *12176:A I *D sky130_fd_sc_hd__buf_12
*I *11982:X O *D sky130_fd_sc_hd__dlygate4sd3_1
*CAP
1 *12176:A 0.000145612
2 *11982:X 0.000145612
3 *12176:A *606:20 0.000299683
4 *11982:A *12176:A 0.000298271
5 *12047:A *12176:A 8.51879e-05
*RES
1 *11982:X *12176:A 11.67
*END

*D_NET *374 0.0690041
*CONN
*I *12094:A I *D sky130_fd_sc_hd__buf_12
*I *12170:X O *D sky130_fd_sc_hd__buf_12
*CAP
1 *12094:A 0.0142357
2 *12170:X 0.00644929
3 *374:14 0.020685
4 *12094:A *11865:B1 0.000141767
5 *12094:A *576:22 0.000399674
6 *12094:A *577:28 0.00107708
7 *12094:A *596:24 0.00355382
8 *12094:A *607:16 0.00414431
9 *12094:A *618:14 0.00408973
10 *12094:A *633:20 0.000416411
11 *12094:A *633:26 0.000129951
12 *374:14 *607:14 0.000101314
13 *11819:C *12094:A 0.000237435
14 *11843:A0 *12094:A 0.000287704
15 *11861:A0 *12094:A 0.000571307
16 *12101:A *374:14 0
17 *129:10 *12094:A 0.00152817
18 *181:18 *12094:A 0.00379652
19 *184:8 *12094:A 0.00143418
20 *196:17 *12094:A 0.00042775
21 *203:11 *12094:A 0.00227128
22 *205:29 *12094:A 0.00018336
23 *318:12 *374:14 0.000151979
24 *363:14 *374:14 0.000101633
25 *369:76 *12094:A 0.00258877
*RES
1 *12170:X *374:14 15.5042
2 *374:14 *12094:A 45.3342
*END

*D_NET *375 0.00177689
*CONN
*I *12069:A I *D sky130_fd_sc_hd__dlygate4sd3_1
*I *11993:X O *D sky130_fd_sc_hd__dlygate4sd3_1
*CAP
1 *12069:A 0.000658269
2 *11993:X 0.000658269
3 *12069:A *12174:A 9.84882e-05
4 *12069:A *595:14 1.1675e-05
5 *12069:A *605:22 0.000169801
6 *12004:A *12069:A 0.000180383
*RES
1 *11993:X *12069:A 17.85
*END

*D_NET *376 0.00070981
*CONN
*I *12174:A I *D sky130_fd_sc_hd__buf_12
*I *12004:X O *D sky130_fd_sc_hd__dlygate4sd3_1
*CAP
1 *12174:A 0.000305661
2 *12004:X 0.000305661
3 *11971:A *12174:A 0
4 *12069:A *12174:A 9.84882e-05
*RES
1 *12004:X *12174:A 11.67
*END

*D_NET *377 0.000984302
*CONN
*I *12113:A I *D sky130_fd_sc_hd__dlygate4sd3_1
*I *12015:X O *D sky130_fd_sc_hd__dlygate4sd3_1
*CAP
1 *12113:A 0.000313457
2 *12015:X 0.000313457
3 *12113:A *595:14 6.07575e-06
4 *11993:A *12113:A 2.75229e-05
5 *12026:A *12113:A 4.99619e-05
6 *12037:A *12113:A 0.000273827
*RES
1 *12015:X *12113:A 8.84
*END

*D_NET *378 0.000794339
*CONN
*I *12173:A I *D sky130_fd_sc_hd__buf_12
*I *12026:X O *D sky130_fd_sc_hd__dlygate4sd3_1
*CAP
1 *12173:A 0.000299252
2 *12026:X 0.000299252
3 *12173:A *12172:A 0.000118294
4 *12031:A *12173:A 7.75412e-05
*RES
1 *12026:X *12173:A 12.705
*END

*D_NET *379 6.3583e-05
*CONN
*I *11949:A I *D sky130_fd_sc_hd__dlygate4sd3_1
*I *12035:X O *D sky130_fd_sc_hd__dlygate4sd3_1
*CAP
1 *11949:A 2.12373e-05
2 *12035:X 2.12373e-05
3 *11949:A *595:14 2.11084e-05
*RES
1 *12035:X *11949:A 3.65
*END

*D_NET *380 0.00184188
*CONN
*I *12172:A I *D sky130_fd_sc_hd__buf_12
*I *12037:X O *D sky130_fd_sc_hd__dlygate4sd3_1
*CAP
1 *12172:A 0.000861793
2 *12037:X 0.000861793
3 *12173:A *12172:A 0.000118294
*RES
1 *12037:X *12172:A 14.03
*END

*D_NET *381 0.000539051
*CONN
*I *12041:A I *D sky130_fd_sc_hd__dlygate4sd3_1
*I *12038:X O *D sky130_fd_sc_hd__dlygate4sd3_1
*CAP
1 *12041:A 9.37179e-05
2 *12038:X 9.37179e-05
3 *12041:A *12175:A 3.54892e-05
4 *12041:A *385:14 6.02202e-05
5 *12041:A *592:12 0.000160641
6 *12040:A *12041:A 9.52646e-05
*RES
1 *12038:X *12041:A 10.065
*END

*D_NET *382 0.186838
*CONN
*I *12154:DI[10] I *D CF_SRAM_1024x32
*I *12134:DI[10] I *D CF_SRAM_1024x32
*I *12144:DI[10] I *D CF_SRAM_1024x32
*I *12124:DI[10] I *D CF_SRAM_1024x32
*I *12039:X O *D sky130_fd_sc_hd__buf_12
*CAP
1 *12154:DI[10] 0.000185288
2 *12134:DI[10] 0.000153233
3 *12144:DI[10] 0.0137392
4 *12124:DI[10] 0.00115376
5 *12039:X 0.00340769
6 *382:88 0.00808701
7 *382:86 0.00795717
8 *382:74 0.00710305
9 *382:46 0.0198267
10 *382:20 0.0184001
11 *382:18 0.0214609
12 *12144:DI[10] *12144:BEN[10] 0
13 *12144:DI[10] *638:39 0
14 *12144:DI[10] *638:59 0
15 *12144:DI[10] *638:80 0
16 *12144:DI[10] *638:98 0
17 *12144:DI[10] *638:116 0
18 *12144:DI[10] *638:136 0
19 *12144:DI[10] *638:156 0
20 *12154:DI[10] *12154:BEN[10] 0
21 *382:46 *12124:AD[1] 0
22 *382:46 *395:10 0.000669371
23 *382:46 *400:30 0.000112534
24 *382:46 *402:10 0.000292065
25 *382:46 *409:54 0.00033253
26 *382:46 *438:38 0.000498294
27 *382:46 *577:28 0.00465688
28 *382:46 *626:49 0.000134122
29 *382:74 *552:16 0
30 *382:74 *557:112 3.97719e-05
31 *382:88 *12134:BEN[31] 0.000128341
32 *382:88 *12134:AD[6] 0.000359809
33 *382:88 *12134:BEN[0] 0.000713302
34 *382:88 *12154:BEN[15] 3.97748e-05
35 *382:88 *426:10 0.0112425
36 *382:88 *432:14 9.06792e-05
37 *382:88 *432:50 0.0036853
38 *382:88 *454:18 0.002749
39 *382:88 *454:30 8.38966e-05
40 *382:88 *458:12 0.000710139
41 *382:88 *471:104 4.11223e-05
42 *382:88 *476:36 6.02846e-05
43 *382:88 *480:34 3.91191e-05
44 *382:88 *480:56 0.00281049
45 *382:88 *480:58 0.00155948
46 *382:88 *547:52 8.33742e-05
47 *382:88 *547:64 0.00058978
48 *382:88 *547:76 0.000705693
49 *382:88 *547:88 0.000711261
50 *382:88 *547:100 0.000691207
51 *382:88 *547:116 0.00043523
52 *382:88 *552:16 0.00248807
53 *382:88 *557:112 4.73411e-05
54 *382:88 *557:293 0.000790932
55 *382:88 *557:305 0.000602828
56 *382:88 *557:317 0.000815645
57 *382:88 *557:329 0.000662025
58 *382:88 *557:341 0.000691207
59 *382:88 *557:353 0.000227216
60 *382:88 *560:411 7.61888e-06
61 *382:88 *560:425 0.000602828
62 *382:88 *560:437 0.000735397
63 *382:88 *560:449 0.000705876
64 *382:88 *560:461 0.000705876
65 *382:88 *560:473 0.000669112
66 *382:88 *560:485 0.000647018
67 *382:88 *627:150 0.0017139
68 *11829:B2 *382:46 0.00254677
69 *118:12 *382:46 0.000147915
70 *119:16 *12144:DI[10] 0.000158482
71 *122:24 *382:46 0.000247089
72 *137:16 *12144:DI[10] 0.00239827
73 *141:16 *12144:DI[10] 0.000787902
74 *161:16 *382:18 0.00539797
75 *181:18 *12124:DI[10] 5.60685e-05
76 *182:23 *382:18 0
77 *184:8 *12124:DI[10] 9.82856e-06
78 *187:30 *12124:DI[10] 7.22354e-05
79 *198:11 *12144:DI[10] 0.000812019
80 *199:21 *12144:DI[10] 0.00521467
81 *203:11 *12124:DI[10] 1.7635e-05
82 *204:21 *12144:DI[10] 0.00930408
83 *206:11 *12144:DI[10] 0.000116416
84 *206:47 *382:18 8.24715e-05
85 *219:13 *12134:DI[10] 0
86 *219:13 *382:86 0
87 *219:13 *382:88 0.00168383
88 *220:15 *382:20 0
89 *220:15 *382:74 0
90 *220:129 *382:46 0.000191284
91 *223:45 *382:46 0.000311335
92 *225:30 *382:88 0.00158886
93 *225:42 *382:88 0.000425694
94 *226:16 *382:88 0.000238318
95 *233:27 *382:18 4.75958e-06
96 *237:11 *382:88 0
97 *251:9 *12144:DI[10] 9.29586e-05
98 *264:11 *12144:DI[10] 0.000965505
99 *266:11 *12144:DI[10] 0.000944084
100 *267:11 *12144:DI[10] 0.000949367
101 *271:11 *12144:DI[10] 0.00106748
102 *272:11 *12144:DI[10] 0.00101841
103 *272:27 *12144:DI[10] 0.000137349
104 *278:11 *12144:DI[10] 1.93834e-05
105 *283:21 *12154:DI[10] 4.1457e-05
106 *319:34 *382:46 0.00104443
107 *360:76 *12144:DI[10] 0.000891586
*RES
1 *12039:X *382:18 16.1941
2 *382:18 *382:20 25.7919
3 *382:20 *12124:DI[10] 13.8615
4 *382:20 *382:46 18.9699
5 *382:46 *12144:DI[10] 46.7297
6 *382:18 *382:74 19.6024
7 *382:74 *12134:DI[10] 2.1675
8 *382:74 *382:86 2.795
9 *382:86 *382:88 328.8
10 *382:88 *12154:DI[10] 4.9025
*END

*D_NET *383 0.000641003
*CONN
*I *12038:A I *D sky130_fd_sc_hd__dlygate4sd3_1
*I *12040:X O *D sky130_fd_sc_hd__dlygate4sd3_1
*CAP
1 *12038:A 0.000210297
2 *12040:X 0.000210297
3 *12038:A *540:14 3.45588e-05
4 *11990:A *12038:A 0.000185849
*RES
1 *12040:X *12038:A 10.665
*END

*D_NET *384 0.0006143
*CONN
*I *12171:A I *D sky130_fd_sc_hd__buf_12
*I *12041:X O *D sky130_fd_sc_hd__dlygate4sd3_1
*CAP
1 *12171:A 0.000203122
2 *12041:X 0.000203122
3 *12171:A *540:14 5.1211e-05
4 *12040:A *12171:A 0.000156845
*RES
1 *12041:X *12171:A 10.065
*END

*D_NET *385 0.0186449
*CONN
*I *12039:A I *D sky130_fd_sc_hd__buf_12
*I *12171:X O *D sky130_fd_sc_hd__buf_12
*CAP
1 *12039:A 0.00078674
2 *12171:X 0.00154968
3 *385:16 0.00469049
4 *385:14 0.00545343
5 *385:14 *540:14 0
6 *385:14 *625:65 0.00114613
7 *385:16 *625:65 1.05984e-05
8 *385:16 *625:78 0.00245501
9 *385:16 *625:91 0.00133158
10 *640:DIODE *385:14 5.05437e-05
11 *800:DIODE *385:16 5.70774e-05
12 *1029:DIODE *385:16 6.69341e-05
13 *1083:DIODE *12039:A 4.21973e-05
14 *11879:A0 *385:14 0.000123592
15 *11880:B2 *385:14 0.000553233
16 *11990:A *385:14 0
17 *12040:A *385:14 0
18 *12041:A *385:14 6.02202e-05
19 *152:20 *385:16 4.66108e-05
20 *157:47 *385:16 6.27438e-05
21 *205:43 *12039:A 0.000158066
*RES
1 *12171:X *385:14 37.385
2 *385:14 *385:16 66.1725
3 *385:16 *12039:A 13.5325
*END

*D_NET *386 8.68287e-05
*CONN
*I *12048:A I *D sky130_fd_sc_hd__dlygate4sd3_1
*I *12042:X O *D sky130_fd_sc_hd__dlygate4sd3_1
*CAP
1 *12048:A 7.87918e-06
2 *12042:X 7.87918e-06
3 *12048:A *12042:A 4.99619e-05
4 *12048:A *540:14 2.11084e-05
*RES
1 *12042:X *12048:A 3.65
*END

*D_NET *387 0.153997
*CONN
*I *12154:DI[9] I *D CF_SRAM_1024x32
*I *12144:DI[9] I *D CF_SRAM_1024x32
*I *12134:DI[9] I *D CF_SRAM_1024x32
*I *12124:DI[9] I *D CF_SRAM_1024x32
*I *12043:X O *D sky130_fd_sc_hd__buf_12
*CAP
1 *12154:DI[9] 0.0173144
2 *12144:DI[9] 0.00164381
3 *12134:DI[9] 0.0132387
4 *12124:DI[9] 0.00161508
5 *12043:X 6.26211e-05
6 *387:66 0.0241578
7 *387:28 0.0156481
8 *387:18 0.00202375
9 *387:16 0.00127663
10 *387:12 0.00127208
11 *387:8 0.00648715
12 *12134:DI[9] *12134:BEN[8] 3.97719e-05
13 *12144:DI[9] *12144:BEN[9] 0
14 *12154:DI[9] *12154:BEN[8] 1.79536e-05
15 *12154:DI[9] *393:49 1.7635e-05
16 *12154:DI[9] *480:58 1.79536e-05
17 *387:12 *12134:DI[16] 4.0368e-05
18 *387:12 *393:10 0.000542327
19 *387:12 *393:14 0.000436655
20 *387:12 *393:16 3.91191e-05
21 *387:12 *417:96 0.000775381
22 *387:12 *509:34 0.000887376
23 *387:12 *515:10 6.37908e-05
24 *387:12 *515:22 0.00161092
25 *387:12 *517:20 0.000784442
26 *387:18 *393:16 0.00466522
27 *387:28 *11926:A 0.00166925
28 *387:66 *393:10 0.000697138
29 *387:66 *393:49 0.016418
30 *879:DIODE *12124:DI[9] 2.01259e-05
31 *12134:CLKin *387:12 3.06021e-05
32 *131:24 *387:16 4.60061e-05
33 *132:8 *12124:DI[9] 8.08149e-05
34 *178:16 *387:12 0.000101574
35 *178:18 *387:28 0.00187301
36 *178:29 *387:12 0.000407534
37 *217:27 *12124:DI[9] 3.72916e-05
38 *219:13 *12134:DI[9] 3.97719e-05
39 *249:32 *12134:DI[9] 0.0118705
40 *249:40 *12124:DI[9] 1.33269e-05
41 *249:42 *12124:DI[9] 5.80265e-05
42 *249:44 *12124:DI[9] 2.01259e-05
43 *249:46 *12124:DI[9] 2.01259e-05
44 *249:48 *12124:DI[9] 2.01259e-05
45 *281:9 *12144:DI[9] 0.000121019
46 *313:21 *12154:DI[9] 0.00313002
47 *360:12 *12124:DI[9] 5.90885e-05
48 *362:10 *387:18 0.00482112
49 *365:24 *387:18 0.000220919
50 *369:30 *12124:DI[9] 5.80719e-05
51 *369:30 *387:28 0.000111486
52 *371:24 *387:12 0.000197052
53 *371:26 *387:12 0.000703725
54 *371:70 *387:12 0.000739816
55 *371:70 *387:66 0.0157324
*RES
1 *12043:X *387:8 4.395
2 *387:8 *387:12 49.28
3 *387:12 *387:16 2.795
4 *387:16 *387:18 55.695
5 *387:18 *387:28 29.0025
6 *387:28 *12124:DI[9] 20.5778
7 *387:28 *12134:DI[9] 46.4325
8 *387:8 *387:66 204.615
9 *387:66 *12144:DI[9] 20.735
10 *387:66 *12154:DI[9] 46.4156
*END

*D_NET *388 0.00120967
*CONN
*I *12054:A I *D sky130_fd_sc_hd__dlygate4sd3_1
*I *12044:X O *D sky130_fd_sc_hd__dlygate4sd3_1
*CAP
1 *12054:A 0.000376611
2 *12044:X 0.000376611
3 wbs_dat_o[8] *12054:A 0.000124471
4 *11997:A *12054:A 0.000128262
5 *12046:A *12054:A 7.08554e-05
6 *352:14 *12054:A 0.000132858
*RES
1 *12044:X *12054:A 14.595
*END

*D_NET *389 0.152883
*CONN
*I *12144:DI[8] I *D CF_SRAM_1024x32
*I *12154:DI[8] I *D CF_SRAM_1024x32
*I *12134:DI[8] I *D CF_SRAM_1024x32
*I *12124:DI[8] I *D CF_SRAM_1024x32
*I *12045:X O *D sky130_fd_sc_hd__buf_12
*CAP
1 *12144:DI[8] 0.00167998
2 *12154:DI[8] 0.0171234
3 *12134:DI[8] 0.0119361
4 *12124:DI[8] 0.00183987
5 *12045:X 0
6 *389:52 0.0309557
7 *389:18 0.0141443
8 *389:8 0.00673973
9 *389:6 0.0185238
10 *12124:DI[8] *560:411 0
11 *12134:DI[8] *560:411 0
12 *12154:DI[8] *432:54 5.05716e-06
13 *12154:DI[8] *480:58 1.79536e-05
14 *389:8 *393:10 0.000316953
15 *389:8 *393:14 0.000378554
16 *389:8 *417:96 0.000109431
17 *389:18 *12124:DI[7] 5.80719e-05
18 *389:18 *393:16 0.000416924
19 *389:18 *560:20 0.000311364
20 *389:18 *560:411 9.13873e-05
21 *389:52 *393:10 0.000138518
22 *389:52 *393:49 0.000817792
23 *389:52 *417:18 0.0124998
24 *389:52 *417:68 0.000841529
25 *389:52 *513:54 1.79536e-05
26 *389:52 *515:64 0.0020143
27 *389:52 *517:56 0.000768445
28 *11823:A1 *389:52 0.000239914
29 *11878:A1 *389:52 8.53307e-05
30 *146:10 *389:18 0.000131328
31 *216:31 *12124:DI[8] 5.30673e-05
32 *218:45 *389:18 8.40269e-05
33 *219:13 *12134:DI[8] 1.79536e-05
34 *228:13 *12134:DI[8] 8.41703e-06
35 *240:27 *12134:DI[8] 0.0011994
36 *243:27 *12124:DI[8] 2.38557e-05
37 *243:27 *12134:DI[8] 0.000656878
38 *247:29 *12134:DI[8] 0.00785732
39 *248:27 *12134:DI[8] 0.00994315
40 *280:9 *12144:DI[8] 0.00030354
41 *282:27 *389:52 0
42 *307:37 *389:52 1.79536e-05
43 *312:21 *12154:DI[8] 0.000762122
44 *313:29 *389:52 1.79536e-05
45 *360:12 *12124:DI[8] 1.83975e-05
46 *362:8 *389:8 0.000126076
47 *362:10 *389:8 0.00707415
48 *362:10 *389:18 0.00113839
49 *365:24 *389:8 0.00093133
50 *365:72 *389:8 0.000428409
51 *369:30 *12124:DI[8] 1.7635e-05
*RES
1 *12045:X *389:6 3.6
2 *389:6 *389:8 107.97
3 *389:8 *389:18 18.5325
4 *389:18 *12124:DI[8] 20.2991
5 *389:18 *12134:DI[8] 45.7091
6 *389:6 *389:52 209.077
7 *389:52 *12154:DI[8] 45.95
8 *389:52 *12144:DI[8] 22.115
*END

*D_NET *390 0.00209684
*CONN
*I *12042:A I *D sky130_fd_sc_hd__dlygate4sd3_1
*I *12046:X O *D sky130_fd_sc_hd__dlygate4sd3_1
*CAP
1 *12042:A 0.000540847
2 *12046:X 0.000540847
3 *12042:A *12204:A 0.000470452
4 *12042:A *540:14 0.000171148
5 *12040:A *12042:A 0.00032358
6 *12048:A *12042:A 4.99619e-05
*RES
1 *12046:X *12042:A 18.81
*END

*D_NET *391 0.00101134
*CONN
*I *12204:A I *D sky130_fd_sc_hd__buf_12
*I *12048:X O *D sky130_fd_sc_hd__dlygate4sd3_1
*CAP
1 *12204:A 0.000270446
2 *12048:X 0.000270446
3 *12042:A *12204:A 0.000470452
*RES
1 *12048:X *12204:A 12.915
*END

*D_NET *392 0.000602047
*CONN
*I *12061:A I *D sky130_fd_sc_hd__dlygate4sd3_1
*I *12049:X O *D sky130_fd_sc_hd__dlygate4sd3_1
*CAP
1 *12061:A 0.000189852
2 *12049:X 0.000189852
3 *12061:A *12166:A 9.098e-05
4 *12061:A *592:12 4.80285e-05
5 *341:8 *12061:A 8.33341e-05
*RES
1 *12049:X *12061:A 10.17
*END

*D_NET *393 0.153403
*CONN
*I *12144:DI[7] I *D CF_SRAM_1024x32
*I *12154:DI[7] I *D CF_SRAM_1024x32
*I *12134:DI[7] I *D CF_SRAM_1024x32
*I *12124:DI[7] I *D CF_SRAM_1024x32
*I *12050:X O *D sky130_fd_sc_hd__buf_12
*CAP
1 *12144:DI[7] 0.00166424
2 *12154:DI[7] 0.0163872
3 *12134:DI[7] 0.0113245
4 *12124:DI[7] 0.00177161
5 *12050:X 0
6 *393:49 0.0236813
7 *393:16 0.0147526
8 *393:14 0.00272906
9 *393:10 0.00151518
10 *393:6 0.00607247
11 *12124:DI[7] *12124:BEN[6] 0
12 *12134:DI[7] *12134:BEN[7] 0
13 *12134:DI[7] *560:411 0
14 *12134:DI[7] *560:425 1.79536e-05
15 *12154:DI[7] *12154:BEN[7] 0
16 *12154:DI[7] *480:58 1.79536e-05
17 *12154:DI[7] *560:266 0
18 *12154:DI[7] *560:278 1.79536e-05
19 *393:14 *12134:DI[16] 3.93395e-05
20 *393:14 *417:96 0.000501297
21 *393:14 *509:34 0.000886094
22 *393:14 *517:20 0.000784442
23 *393:49 *417:68 0.000633578
24 *393:49 *509:68 0
25 *393:49 *517:56 0.014891
26 *710:DIODE *12124:DI[7] 7.27298e-06
27 *11829:B2 *12134:DI[7] 0
28 *12134:CLKin *393:14 3.78941e-05
29 *12154:DI[9] *393:49 1.7635e-05
30 *134:12 *12124:DI[7] 0.00017572
31 *138:16 *12124:DI[7] 0
32 *146:10 *12124:DI[7] 5.90885e-05
33 *146:10 *393:16 0.00196315
34 *178:29 *393:14 0.000407534
35 *215:29 *12124:DI[7] 0
36 *219:29 *12134:DI[7] 0.00877409
37 *222:27 *393:16 1.7635e-05
38 *228:13 *12134:DI[7] 8.41703e-06
39 *247:29 *12134:DI[7] 0.0103252
40 *248:27 *12134:DI[7] 0.00199798
41 *279:9 *12144:DI[7] 5.65429e-05
42 *311:21 *12154:DI[7] 0.00234466
43 *362:8 *393:14 0.000118881
44 *362:10 *393:14 0.00211615
45 *362:10 *393:16 6.33808e-05
46 *365:24 *393:14 0.000145753
47 *365:72 *393:14 0.000420038
48 *371:26 *393:16 0.00173334
49 *387:12 *393:10 0.000542327
50 *387:12 *393:14 0.000436655
51 *387:12 *393:16 3.91191e-05
52 *387:18 *393:16 0.00466522
53 *387:66 *393:10 0.000697138
54 *387:66 *393:49 0.016418
55 *389:8 *393:10 0.000316953
56 *389:8 *393:14 0.000378554
57 *389:18 *12124:DI[7] 5.80719e-05
58 *389:18 *393:16 0.000416924
59 *389:52 *393:10 0.000138518
60 *389:52 *393:49 0.000817792
*RES
1 *12050:X *393:6 3.6
2 *393:6 *393:10 15.0225
3 *393:10 *393:14 41.04
4 *393:14 *393:16 62.325
5 *393:16 *12124:DI[7] 22.655
6 *393:16 *12134:DI[7] 46.1248
7 *393:6 *393:49 212.902
8 *393:49 *12154:DI[7] 46.1248
9 *393:49 *12144:DI[7] 21.08
*END

*D_NET *394 0.00108901
*CONN
*I *12063:A I *D sky130_fd_sc_hd__dlygate4sd3_1
*I *12051:X O *D sky130_fd_sc_hd__dlygate4sd3_1
*CAP
1 *12063:A 0.000425241
2 *12051:X 0.000425241
3 *12063:A *12165:A 0.000161861
4 *12063:A *407:16 0
5 *12062:A *12063:A 7.66727e-05
*RES
1 *12051:X *12063:A 14.565
*END

*D_NET *395 0.157007
*CONN
*I *12154:DI[6] I *D CF_SRAM_1024x32
*I *12144:DI[6] I *D CF_SRAM_1024x32
*I *12134:DI[6] I *D CF_SRAM_1024x32
*I *12124:DI[6] I *D CF_SRAM_1024x32
*I *12052:X O *D sky130_fd_sc_hd__buf_12
*CAP
1 *12154:DI[6] 0.012796
2 *12144:DI[6] 0.0012379
3 *12134:DI[6] 0.013114
4 *12124:DI[6] 0.00129296
5 *12052:X 0
6 *395:60 0.0140339
7 *395:58 0.00470944
8 *395:56 0.00529119
9 *395:18 0.0151566
10 *395:10 0.00581671
11 *395:8 0.00522017
12 *395:4 0.00073492
13 *12124:DI[6] *12019:A 5.86739e-05
14 *12134:DI[6] *560:437 1.04715e-05
15 *12154:DI[6] *12154:BEN[6] 0
16 *12154:DI[6] *400:82 3.60648e-06
17 *12154:DI[6] *480:58 1.79536e-05
18 *12154:DI[6] *506:62 1.7635e-05
19 *12154:DI[6] *560:290 1.79536e-05
20 *395:10 *511:20 0.000767928
21 *395:18 *11864:S 0.000143035
22 *395:18 *12019:A 0.00184204
23 *395:18 *12124:DI[3] 3.97171e-05
24 *395:18 *400:30 0.000912633
25 *395:18 *402:20 0.000157744
26 *395:18 *409:54 5.89912e-05
27 *395:56 *415:10 0.00122298
28 *395:56 *415:58 0.000650987
29 *395:56 *424:28 0.000209745
30 *395:56 *438:20 0.00160745
31 *395:56 *502:10 7.00066e-05
32 *395:56 *502:62 6.81383e-05
33 *395:56 *636:130 2.80395e-05
34 *395:58 *400:80 5.68463e-05
35 *395:58 *400:82 0.0156837
36 *395:58 *415:58 0.00119146
37 *395:58 *438:76 1.14559e-05
38 *395:58 *502:62 0.00266939
39 *395:58 *506:62 0.0041219
40 *395:58 *636:20 0.0009248
41 *711:DIODE *12124:DI[6] 4.11678e-06
42 *734:DIODE *12124:DI[6] 3.68406e-05
43 *905:DIODE *395:58 0.00013757
44 *912:DIODE *395:58 7.23533e-05
45 *1013:DIODE *395:58 2.05661e-05
46 *11829:B2 *12134:DI[6] 0
47 *11845:A0 *395:58 0.000364847
48 *122:24 *395:18 0.000429223
49 *142:16 *12124:DI[6] 0.000214952
50 *214:27 *12124:DI[6] 0
51 *218:29 *12134:DI[6] 0
52 *222:44 *395:18 3.57349e-05
53 *222:46 *395:18 7.14699e-05
54 *222:48 *395:18 8.23457e-05
55 *223:58 *12124:DI[6] 6.03272e-05
56 *223:58 *395:18 1.03592e-05
57 *228:13 *12134:DI[6] 2.25046e-05
58 *229:25 *12134:DI[6] 0
59 *246:23 *12134:DI[6] 0.0148347
60 *275:21 *395:58 0.000328021
61 *278:9 *12144:DI[6] 0.000221951
62 *310:17 *12154:DI[6] 0.0152277
63 *311:27 *395:58 0.00450265
64 *319:34 *395:10 0.00769063
65 *382:46 *395:10 0.000669371
*RES
1 *12052:X *395:4 1.6
2 *395:4 *395:8 3.83
3 *395:8 *395:10 88.59
4 *395:10 *395:18 30.5425
5 *395:18 *12124:DI[6] 18.185
6 *395:18 *12134:DI[6] 46.4283
7 *395:4 *395:56 29.16
8 *395:56 *395:58 193.905
9 *395:58 *395:60 2
10 *395:60 *12144:DI[6] 14.94
11 *395:60 *12154:DI[6] 49.735
*END

*D_NET *396 0.0507337
*CONN
*I *11960:A I *D sky130_fd_sc_hd__buf_12
*I *12172:X O *D sky130_fd_sc_hd__buf_12
*CAP
1 *11960:A 0.000295019
2 *12172:X 6.49087e-05
3 *396:16 0.00461439
4 *396:14 0.00431937
5 *396:12 0.00356939
6 *396:10 0.0036343
7 *11960:A *12050:A 5.83121e-06
8 *11960:A *578:10 0.000316326
9 *396:12 *452:12 0.000671073
10 *396:12 *591:18 0.00435276
11 *396:16 *11975:A 0.000161623
12 *396:16 *574:16 0
13 *396:16 *578:10 0.0171251
14 wbs_dat_o[11] *396:10 3.32171e-05
15 *11837:A1 *396:16 0.000528726
16 *12006:A *396:16 0.000245933
17 *131:20 *396:16 0.00315214
18 *185:10 *11960:A 0.000317993
19 *200:11 *396:16 0.00142712
20 *202:15 *396:16 0
21 *218:29 *396:16 0.000569474
22 *225:54 *396:16 0.00102508
23 *226:22 *396:16 0.00309277
24 *226:28 *396:16 0.000136151
25 *246:39 *396:16 0.000992686
26 *330:8 *396:16 0
27 *365:72 *11960:A 8.23457e-05
*RES
1 *12172:X *396:10 6.725
2 *396:10 *396:12 50.13
3 *396:12 *396:14 2
4 *396:14 *396:16 197.73
5 *396:16 *11960:A 14.245
*END

*D_NET *397 0.00265649
*CONN
*I *12044:A I *D sky130_fd_sc_hd__dlygate4sd3_1
*I *12053:X O *D sky130_fd_sc_hd__dlygate4sd3_1
*CAP
1 *12044:A 0.000749919
2 *12053:X 0.000749919
3 *12044:A *12168:A 7.87127e-05
4 *12044:A *12203:A 0.000121102
5 *12044:A *592:12 0.000149288
6 *12044:A *600:12 0
7 wbs_dat_o[9] *12044:A 0.000185719
8 *11997:A *12044:A 0.000621834
*RES
1 *12053:X *12044:A 20.895
*END

*D_NET *398 0.000559147
*CONN
*I *12203:A I *D sky130_fd_sc_hd__buf_12
*I *12054:X O *D sky130_fd_sc_hd__dlygate4sd3_1
*CAP
1 *12203:A 0.000147568
2 *12054:X 0.000147568
3 *12203:A *12249:A 3.33633e-05
4 *11997:A *12203:A 0.000109545
5 *12044:A *12203:A 0.000121102
*RES
1 *12054:X *12203:A 9.72
*END

*D_NET *399 7.68476e-05
*CONN
*I *12067:A I *D sky130_fd_sc_hd__dlygate4sd3_1
*I *12055:X O *D sky130_fd_sc_hd__dlygate4sd3_1
*CAP
1 *12067:A 2.46665e-05
2 *12055:X 2.46665e-05
3 *12067:A *592:12 2.75145e-05
*RES
1 *12055:X *12067:A 3.65
*END

*D_NET *400 0.166959
*CONN
*I *12154:DI[5] I *D CF_SRAM_1024x32
*I *12144:DI[5] I *D CF_SRAM_1024x32
*I *12134:DI[5] I *D CF_SRAM_1024x32
*I *12124:DI[5] I *D CF_SRAM_1024x32
*I *12056:X O *D sky130_fd_sc_hd__buf_12
*CAP
1 *12154:DI[5] 9.33213e-05
2 *12144:DI[5] 0.00108215
3 *12134:DI[5] 0.0224047
4 *12124:DI[5] 0.00117851
5 *12056:X 0
6 *400:109 0.0128318
7 *400:84 0.0138206
8 *400:82 0.0040332
9 *400:80 0.00507783
10 *400:30 0.0242085
11 *400:20 0.00502459
12 *400:18 0.00506188
13 *400:6 0.00170714
14 *12134:DI[5] *560:449 3.80347e-05
15 *400:18 *432:38 2.75248e-05
16 *400:18 *506:12 0.0017882
17 *400:20 *506:12 8.76548e-05
18 *400:20 *577:28 0.000296841
19 *400:30 *11864:S 5.55344e-05
20 *400:30 *11870:S 3.18249e-05
21 *400:30 *626:49 7.34364e-05
22 *400:30 *626:60 0.000113315
23 *400:30 *626:71 0.000157095
24 *400:80 *402:54 0.00168749
25 *400:80 *415:58 0.000547319
26 *400:80 *424:14 4.41506e-05
27 *400:80 *506:12 0.00110575
28 *400:80 *524:20 0.000112036
29 *400:80 *636:20 0.000926453
30 *400:82 *402:54 1.94684e-05
31 *400:82 *402:56 0.0163482
32 *400:82 *506:62 0
33 *400:82 *524:54 0.00317689
34 *400:109 *480:58 1.79536e-05
35 *400:109 *506:62 1.7635e-05
36 *400:109 *560:302 1.79536e-05
37 *912:DIODE *400:80 7.23533e-05
38 *11870:A0 *400:30 2.97522e-05
39 *11870:A1 *400:30 6.3124e-06
40 *12154:DI[6] *400:82 3.60648e-06
41 *122:24 *400:30 0.000196996
42 *133:34 *12124:DI[5] 0.00036974
43 *181:18 *400:20 0.000769753
44 *196:19 *400:20 0.00476713
45 *203:11 *400:18 0.0017905
46 *203:11 *400:20 0.000911924
47 *203:11 *400:80 0.00109759
48 *213:25 *12124:DI[5] 0.000143426
49 *228:13 *12134:DI[5] 0.000104205
50 *245:21 *12134:DI[5] 0.000130929
51 *277:9 *12144:DI[5] 0.000735299
52 *309:17 *12154:DI[5] 3.59657e-05
53 *309:17 *400:109 0.015176
54 *319:34 *12124:DI[5] 1.79536e-05
55 *369:76 *400:18 0.000394658
56 *369:76 *400:20 0.000118136
57 *369:76 *400:80 0.000105649
58 *382:46 *400:30 0.000112534
59 *395:18 *400:30 0.000912633
60 *395:58 *400:80 5.68463e-05
61 *395:58 *400:82 0.0156837
*RES
1 *12056:X *400:6 3.6
2 *400:6 *400:18 21.8664
3 *400:18 *400:20 75.2025
4 *400:20 *400:30 18.7425
5 *400:30 *12124:DI[5] 17.7561
6 *400:30 *12134:DI[5] 46.9915
7 *400:6 *400:80 40.4725
8 *400:80 *400:82 189.188
9 *400:82 *400:84 2
10 *400:84 *12144:DI[5] 14.595
11 *400:84 *400:109 48.595
12 *400:109 *12154:DI[5] 1.485
*END

*D_NET *401 7.07608e-05
*CONN
*I *12070:A I *D sky130_fd_sc_hd__dlygate4sd3_1
*I *12057:X O *D sky130_fd_sc_hd__dlygate4sd3_1
*CAP
1 *12070:A 2.03614e-05
2 *12057:X 2.03614e-05
3 *12070:A *592:12 3.00381e-05
*RES
1 *12057:X *12070:A 3.65
*END

*D_NET *402 0.173332
*CONN
*I *12154:DI[4] I *D CF_SRAM_1024x32
*I *12144:DI[4] I *D CF_SRAM_1024x32
*I *12134:DI[4] I *D CF_SRAM_1024x32
*I *12124:DI[4] I *D CF_SRAM_1024x32
*I *12059:X O *D sky130_fd_sc_hd__buf_12
*CAP
1 *12154:DI[4] 0.000148643
2 *12144:DI[4] 0.00117052
3 *12134:DI[4] 0.0215441
4 *12124:DI[4] 0.00139306
5 *12059:X 3.99824e-05
6 *402:76 0.0246991
7 *402:58 0.0257209
8 *402:56 0.00417615
9 *402:54 0.00487186
10 *402:20 0.0232926
11 *402:10 0.00234073
12 *402:8 0.00272098
13 *12124:DI[4] *12124:BEN[4] 0
14 *12134:DI[4] *560:461 4.05958e-05
15 *12154:DI[4] *480:58 0.000166107
16 *12154:DI[4] *560:314 0.000166107
17 *402:10 *409:50 0.00676057
18 *402:10 *409:54 0.000847998
19 *402:10 *520:18 0.000956957
20 *402:10 *577:28 0.000247908
21 *402:20 *11864:S 8.40269e-05
22 *402:20 *12019:A 0.000518963
23 *402:20 *409:54 3.18137e-05
24 *402:54 *409:12 0.000144394
25 *402:54 *409:14 0.000935344
26 *402:54 *409:50 0.000363077
27 *402:54 *415:10 0.000105891
28 *402:54 *415:58 2.9997e-05
29 *402:54 *424:14 0.000125677
30 *402:54 *520:18 0.000165398
31 *402:56 *409:14 1.46216e-05
32 *402:56 *415:60 0.0170107
33 *402:56 *506:62 0
34 *402:56 *524:54 0.00297053
35 *402:76 *506:62 0.00016234
36 *11864:A0 *402:20 4.82919e-05
37 *131:26 *402:20 0.000893836
38 *212:27 *12124:DI[4] 0
39 *222:44 *402:20 2.96334e-05
40 *222:46 *402:20 1.19928e-05
41 *222:48 *402:20 3.64998e-06
42 *228:13 *12134:DI[4] 7.91692e-05
43 *244:15 *12134:DI[4] 3.0998e-05
44 *276:9 *12144:DI[4] 0.000189397
45 *308:17 *12154:DI[4] 3.72676e-05
46 *309:17 *402:76 0
47 *319:34 *12124:DI[4] 1.79483e-05
48 *319:34 *402:10 0.00826007
49 *319:34 *402:54 0.00125731
50 *382:46 *402:10 0.000292065
51 *395:18 *402:20 0.000157744
52 *400:80 *402:54 0.00168749
53 *400:82 *402:54 1.94684e-05
54 *400:82 *402:56 0.0163482
*RES
1 *12059:X *402:8 4.05
2 *402:8 *402:10 95.22
3 *402:10 *402:20 16.7625
4 *402:20 *12124:DI[4] 17.1809
5 *402:20 *12134:DI[4] 46.4867
6 *402:8 *402:54 29.2425
7 *402:54 *402:56 196.837
8 *402:56 *402:58 2
9 *402:58 *12144:DI[4] 14.1975
10 *402:58 *402:76 48.4925
11 *402:76 *12154:DI[4] 5.45
*END

*D_NET *403 0.00147696
*CONN
*I *12049:A I *D sky130_fd_sc_hd__dlygate4sd3_1
*I *12060:X O *D sky130_fd_sc_hd__dlygate4sd3_1
*CAP
1 *12049:A 0.000535924
2 *12060:X 0.000535924
3 *12049:A *12202:A 0.000183357
4 *12049:A *12248:A 0
5 *12049:A *579:24 8.40269e-05
6 wbs_dat_o[7] *12049:A 0.000131899
7 *12060:A *12049:A 5.83121e-06
*RES
1 *12060:X *12049:A 14.445
*END

*D_NET *404 0.000703848
*CONN
*I *12202:A I *D sky130_fd_sc_hd__buf_12
*I *12061:X O *D sky130_fd_sc_hd__dlygate4sd3_1
*CAP
1 *12202:A 0.000253896
2 *12061:X 0.000253896
3 *12202:A *592:12 1.26985e-05
4 *12001:A *12202:A 0
5 *12049:A *12202:A 0.000183357
*RES
1 *12061:X *12202:A 11.325
*END

*D_NET *405 0.000359975
*CONN
*I *12051:A I *D sky130_fd_sc_hd__dlygate4sd3_1
*I *12062:X O *D sky130_fd_sc_hd__dlygate4sd3_1
*CAP
1 *12051:A 0.000143638
2 *12062:X 0.000143638
3 *12051:A *12247:A 7.27003e-05
*RES
1 *12062:X *12051:A 9.72
*END

*D_NET *406 0.000597366
*CONN
*I *12201:A I *D sky130_fd_sc_hd__buf_12
*I *12063:X O *D sky130_fd_sc_hd__dlygate4sd3_1
*CAP
1 *12201:A 0.000199821
2 *12063:X 0.000199821
3 *12201:A *574:16 0.000101381
4 *12201:A *578:10 9.63435e-05
*RES
1 *12063:X *12201:A 11.07
*END

*D_NET *407 0.0574323
*CONN
*I *11938:A I *D sky130_fd_sc_hd__buf_12
*I *12173:X O *D sky130_fd_sc_hd__buf_12
*CAP
1 *11938:A 0
2 *12173:X 0.000129431
3 *407:16 0.0049283
4 *407:14 0.0049283
5 *407:12 0.00228206
6 *407:10 0.00241149
7 *407:12 *12248:A 1.34594e-05
8 *407:12 *418:12 0.000176216
9 *407:12 *430:14 0.00189007
10 *407:12 *574:12 0.00664124
11 *407:16 *12058:A 0.000115407
12 *407:16 *12074:A 0.00225647
13 *407:16 *12165:A 0
14 *407:16 *418:16 0.016644
15 *407:16 *554:14 0.00074088
16 *407:16 *554:31 4.24292e-06
17 *407:16 *574:16 7.17605e-06
18 *407:16 *625:45 0.00335275
19 *407:16 *632:48 0
20 wbs_dat_o[12] *407:10 0.000158743
21 wbs_dat_o[6] *407:16 3.95178e-06
22 *12031:A *407:10 0
23 *12062:A *407:16 0
24 *12063:A *407:16 0
25 *117:14 *407:16 0.00944947
26 *121:18 *407:16 6.70094e-05
27 *147:10 *407:16 0.000469018
28 *220:51 *407:16 0.000531687
29 *330:16 *407:16 0.000230974
*RES
1 *12173:X *407:10 8
2 *407:10 *407:12 63.24
3 *407:12 *407:14 2
4 *407:14 *407:16 198.495
5 *407:16 *11938:A 3.6
*END

*D_NET *408 0.00150297
*CONN
*I *12076:A I *D sky130_fd_sc_hd__dlygate4sd3_1
*I *12064:X O *D sky130_fd_sc_hd__dlygate4sd3_1
*CAP
1 *12076:A 0.00037736
2 *12064:X 0.00037736
3 *12076:A *12064:A 8.52883e-05
4 *12076:A *12244:A 4.66826e-05
5 *12076:A *582:6 0.000130157
6 *12076:A *584:16 6.00231e-05
7 *12076:A *588:36 8.65961e-05
8 *12010:A *12076:A 0
9 *12075:A *12076:A 0.000339507
*RES
1 *12064:X *12076:A 15.3
*END

*D_NET *409 0.160358
*CONN
*I *12134:DI[3] I *D CF_SRAM_1024x32
*I *12124:DI[3] I *D CF_SRAM_1024x32
*I *12154:DI[3] I *D CF_SRAM_1024x32
*I *12144:DI[3] I *D CF_SRAM_1024x32
*I *12065:X O *D sky130_fd_sc_hd__buf_12
*CAP
1 *12134:DI[3] 0.0129177
2 *12124:DI[3] 0.00115287
3 *12154:DI[3] 0.000140963
4 *12144:DI[3] 0.00102439
5 *12065:X 0
6 *409:54 0.0147398
7 *409:50 0.00241633
8 *409:48 0.00179825
9 *409:36 0.0196021
10 *409:21 3.05969e-06
11 *409:14 0.0256865
12 *409:12 0.00611773
13 *409:4 0.000964753
14 *12124:DI[3] *11864:S 4.1977e-05
15 *12124:DI[3] *12124:BEN[3] 0
16 *12134:DI[3] *560:473 8.93064e-06
17 *12144:DI[3] *12144:BEN[3] 0
18 *409:14 *415:60 0.0177222
19 *409:14 *438:82 0.0154955
20 *409:14 *511:14 4.13769e-05
21 *409:14 *520:14 4.13769e-05
22 *409:14 *520:54 0.00311688
23 *409:14 *524:14 4.13879e-05
24 *409:36 *415:60 0.000145133
25 *409:36 *438:82 0.000139477
26 *409:36 *480:58 4.18862e-05
27 *409:36 *560:334 0.000104483
28 *409:50 *12134:DI[0] 1.88904e-05
29 *409:50 *415:10 0.00561889
30 *409:50 *415:18 0.000673623
31 *409:50 *438:38 0.000327299
32 *409:50 *506:38 1.93834e-05
33 *409:50 *524:20 0.000845241
34 *409:54 *11864:S 0.00011632
35 *409:54 *12134:DI[2] 2.32724e-05
36 *409:54 *415:18 0.000489053
37 *721:DIODE *12124:DI[3] 8.51879e-05
38 *906:DIODE *409:14 9.14049e-05
39 *908:DIODE *409:14 0.0001699
40 *910:DIODE *409:14 0.000157595
41 *1027:DIODE *409:14 6.83447e-05
42 *11867:A0 *12124:DI[3] 2.31229e-05
43 *11870:A0 *12124:DI[3] 6.33103e-05
44 *131:26 *409:54 0
45 *140:8 *12124:DI[3] 3.18977e-05
46 *200:9 *409:12 2.49909e-05
47 *200:9 *409:48 4.41506e-05
48 *211:27 *12124:DI[3] 3.07153e-05
49 *222:27 *12134:DI[3] 0.00169551
50 *228:13 *12134:DI[3] 1.90914e-05
51 *243:17 *12134:DI[3] 0.0145115
52 *275:11 *12144:DI[3] 0.000284698
53 *307:25 *12154:DI[3] 8.54048e-05
54 *307:25 *409:36 0.000879323
55 *319:34 *409:12 0.000919741
56 *319:34 *409:54 5.98004e-06
57 *382:46 *409:54 0.00033253
58 *395:18 *12124:DI[3] 3.97171e-05
59 *395:18 *409:54 5.89912e-05
60 *402:10 *409:50 0.00676057
61 *402:10 *409:54 0.000847998
62 *402:20 *409:54 3.18137e-05
63 *402:54 *409:12 0.000144394
64 *402:54 *409:14 0.000935344
65 *402:54 *409:50 0.000363077
66 *402:56 *409:14 1.46216e-05
*RES
1 *12065:X *409:4 1.6
2 *409:4 *409:12 16.9025
3 *409:12 *409:14 215.708
4 *409:14 *12144:DI[3] 15.56
5 *12144:DI[3] *409:21 0.163333
6 *409:14 *409:36 48.4129
7 *409:36 *12154:DI[3] 2.3775
8 *409:4 *409:48 2.795
9 *409:48 *409:50 82.1325
10 *409:50 *409:54 19.38
11 *409:54 *12124:DI[3] 17.885
12 *409:54 *12134:DI[3] 46.6037
*END

*D_NET *410 0.000515578
*CONN
*I *12055:A I *D sky130_fd_sc_hd__dlygate4sd3_1
*I *12066:X O *D sky130_fd_sc_hd__dlygate4sd3_1
*CAP
1 *12055:A 0.000138402
2 *12066:X 0.000138402
3 *12055:A *577:28 2.10025e-05
4 *12055:A *592:12 0.000157551
5 *12066:A *12055:A 6.02202e-05
*RES
1 *12066:X *12055:A 10.065
*END

*D_NET *411 0.000434636
*CONN
*I *12200:A I *D sky130_fd_sc_hd__buf_12
*I *12067:X O *D sky130_fd_sc_hd__dlygate4sd3_1
*CAP
1 *12200:A 0.000152741
2 *12067:X 0.000152741
3 *12200:A *11973:A 0.000107721
4 *12200:A *592:12 2.14324e-05
*RES
1 *12067:X *12200:A 9.375
*END

*D_NET *412 0.000478409
*CONN
*I *12057:A I *D sky130_fd_sc_hd__dlygate4sd3_1
*I *12068:X O *D sky130_fd_sc_hd__dlygate4sd3_1
*CAP
1 *12057:A 0.000121143
2 *12068:X 0.000121143
3 *12057:A *576:14 0
4 *12057:A *592:12 0.000122325
5 *12068:A *12057:A 0.000113797
*RES
1 *12068:X *12057:A 9.72
*END

*D_NET *413 0.000640532
*CONN
*I *12199:A I *D sky130_fd_sc_hd__buf_12
*I *12070:X O *D sky130_fd_sc_hd__dlygate4sd3_1
*CAP
1 *12199:A 0.000226726
2 *12070:X 0.000226726
3 *12199:A *11970:A 0.000106377
4 *12199:A *592:12 2.88598e-05
5 *12199:A *593:12 2.49909e-05
6 *12199:A *624:16 2.68526e-05
*RES
1 *12070:X *12199:A 10.17
*END

*D_NET *414 0.00122695
*CONN
*I *12092:A I *D sky130_fd_sc_hd__dlygate4sd3_1
*I *12071:X O *D sky130_fd_sc_hd__dlygate4sd3_1
*CAP
1 *12092:A 0.000302935
2 *12071:X 0.000302935
3 *12092:A *12194:A 0.000246022
4 *12092:A *593:10 0.00028407
5 *12092:A *622:20 4.82863e-05
6 *649:DIODE *12092:A 4.27025e-05
*RES
1 *12071:X *12092:A 13.245
*END

*D_NET *415 0.15602
*CONN
*I *12154:DI[2] I *D CF_SRAM_1024x32
*I *12144:DI[2] I *D CF_SRAM_1024x32
*I *12124:DI[2] I *D CF_SRAM_1024x32
*I *12134:DI[2] I *D CF_SRAM_1024x32
*I *12072:X O *D sky130_fd_sc_hd__buf_12
*CAP
1 *12154:DI[2] 9.26095e-05
2 *12144:DI[2] 0.00110035
3 *12124:DI[2] 0.00124553
4 *12134:DI[2] 0.0131146
5 *12072:X 8.96906e-05
6 *415:91 3.05969e-06
7 *415:84 0.0168703
8 *415:62 0.0178811
9 *415:60 0.00469423
10 *415:58 0.00546199
11 *415:18 0.0151495
12 *415:10 0.00216608
13 *415:8 0.00223421
14 *12144:DI[2] *12144:BEN[2] 0
15 *12154:DI[2] *12154:BEN[2] 0
16 *415:10 *12124:AD[0] 4.01548e-05
17 *415:10 *424:28 0.00077153
18 *415:10 *424:32 9.2143e-05
19 *415:10 *438:20 1.38403e-05
20 *415:10 *438:38 0.0030647
21 *415:10 *502:22 0.000503378
22 *415:10 *524:20 0.00095051
23 *415:18 *12124:AD[3] 1.93834e-05
24 *415:18 *12134:DI[0] 1.7635e-05
25 *415:18 *12134:DI[1] 4.1977e-05
26 *415:18 *424:34 0.000569312
27 *415:18 *438:38 0.000219109
28 *415:18 *502:22 0.000696842
29 *415:18 *506:38 1.79536e-05
30 *415:58 *424:14 0.000123375
31 *415:58 *438:76 0.000316694
32 *415:58 *502:62 0.000141543
33 *415:58 *636:130 0.000157595
34 *415:60 *438:82 0.000271085
35 *415:60 *506:62 0
36 *415:60 *520:54 0.00360516
37 *415:84 *438:82 0
38 *415:84 *480:58 1.79536e-05
39 *415:84 *506:62 0.000108956
40 *415:84 *560:346 1.79536e-05
41 *905:DIODE *415:58 5.83121e-06
42 *1013:DIODE *415:58 0.00048927
43 *131:26 *12134:DI[2] 2.04591e-05
44 *131:26 *415:18 0.000387252
45 *133:34 *12124:DI[2] 2.54431e-05
46 *208:29 *12124:DI[2] 7.16808e-05
47 *225:42 *12134:DI[2] 1.79536e-05
48 *225:46 *12134:DI[2] 0
49 *228:13 *12134:DI[2] 1.79536e-05
50 *240:17 *12134:DI[2] 0.0146137
51 *272:9 *12144:DI[2] 0
52 *304:21 *12154:DI[2] 3.95221e-05
53 *304:21 *415:84 0.00301753
54 *306:23 *415:84 0
55 *395:56 *415:10 0.00122298
56 *395:56 *415:58 0.000650987
57 *395:58 *415:58 0.00119146
58 *400:80 *415:58 0.000547319
59 *402:54 *415:10 0.000105891
60 *402:54 *415:58 2.9997e-05
61 *402:56 *415:60 0.0170107
62 *409:14 *415:60 0.0177222
63 *409:36 *415:60 0.000145133
64 *409:50 *415:10 0.00561889
65 *409:50 *415:18 0.000673623
66 *409:54 *12134:DI[2] 2.32724e-05
67 *409:54 *415:18 0.000489053
*RES
1 *12072:X *415:8 4.74
2 *415:8 *415:10 67.0425
3 *415:10 *415:18 28.2675
4 *415:18 *12134:DI[2] 46.7975
5 *415:18 *12124:DI[2] 17.8475
6 *415:8 *415:58 29.185
7 *415:58 *415:60 211.755
8 *415:60 *415:62 2
9 *415:62 *12144:DI[2] 15.0075
10 *415:62 *415:84 48.305
11 *415:84 *12154:DI[2] 3.485
12 *12154:DI[2] *415:91 0.133636
*END

*D_NET *416 0.00123855
*CONN
*I *12078:A I *D sky130_fd_sc_hd__dlygate4sd3_1
*I *12073:X O *D sky130_fd_sc_hd__dlygate4sd3_1
*CAP
1 *12078:A 0.000565926
2 *12073:X 0.000565926
3 *12078:A *12073:A 6.69608e-06
4 *12078:A *12178:A 0
5 *12078:A *12226:A 0
6 *12078:A *452:10 0
7 wbs_dat_o[16] *12078:A 8.47629e-05
8 *929:DIODE *12078:A 1.52418e-05
9 *12077:A *12078:A 0
10 *12177:A *12078:A 0
11 *153:40 *12078:A 0
*RES
1 *12073:X *12078:A 15.885
*END

*D_NET *417 0.147929
*CONN
*I *12124:DI[16] I *D CF_SRAM_1024x32
*I *12134:DI[16] I *D CF_SRAM_1024x32
*I *12154:DI[16] I *D CF_SRAM_1024x32
*I *12144:DI[16] I *D CF_SRAM_1024x32
*I *12074:X O *D sky130_fd_sc_hd__buf_12
*CAP
1 *12124:DI[16] 0.00162403
2 *12134:DI[16] 0.016086
3 *12154:DI[16] 0.0166608
4 *12144:DI[16] 0.00147943
5 *12074:X 0
6 *417:96 0.0183408
7 *417:72 0.0017538
8 *417:68 0.00176658
9 *417:51 3.05969e-06
10 *417:22 0.0209534
11 *417:18 0.00825607
12 *417:16 0.00647788
13 *417:4 0.00168162
14 *12124:DI[16] *509:34 1.1392e-05
15 *12134:DI[16] *12036:A 3.24503e-05
16 *12134:DI[16] *547:28 0.00230803
17 *12134:DI[16] *547:52 0
18 *12134:DI[16] *579:24 0.000299283
19 *12154:DI[16] *432:54 1.31846e-05
20 *12154:DI[16] *480:58 3.97748e-05
21 *12154:DI[16] *639:162 0
22 *417:16 *11823:S 0.000130619
23 *417:16 *509:68 0.000406261
24 *417:16 *635:48 0.000389846
25 *417:16 *635:59 0.000175358
26 *417:16 *636:47 0.000175639
27 *417:18 *515:64 0.00310752
28 *417:18 *517:56 0.0173014
29 *417:22 *509:68 0
30 *417:22 *515:64 0.000169048
31 *417:22 *517:56 0.000725667
32 *417:68 *11875:S 8.40269e-05
33 *417:68 *513:54 1.93834e-05
34 *417:68 *517:56 0.000461569
35 *417:68 *635:10 0.000153816
36 *417:68 *636:130 5.26385e-05
37 *417:72 *438:76 0.000365715
38 *417:72 *502:10 0.00015848
39 *417:72 *504:78 0.00332445
40 *417:72 *509:8 0.00362983
41 *417:72 *509:68 0.000356736
42 *417:96 *515:10 0.000391887
43 *884:DIODE *417:16 4.8256e-05
44 *980:DIODE *417:16 3.72071e-05
45 *11827:A1 *417:16 0.000296213
46 *178:16 *417:96 5.83121e-06
47 *193:16 *12124:DI[16] 0
48 *225:30 *12134:DI[16] 2.43094e-05
49 *228:11 *12134:DI[16] 4.07642e-05
50 *231:13 *12134:DI[16] 4.07642e-05
51 *257:9 *12144:DI[16] 0.000694975
52 *259:23 *417:16 0.000256128
53 *289:21 *12154:DI[16] 0.000507168
54 *290:21 *12154:DI[16] 0
55 *293:27 *417:16 8.05178e-05
56 *293:29 *417:16 0.000219975
57 *293:35 *417:16 0.000572547
58 *313:29 *417:68 1.93834e-05
59 *362:80 *12134:DI[16] 0.000152056
60 *369:10 *417:96 0.000120789
61 *371:70 *417:16 3.60738e-06
62 *387:12 *12134:DI[16] 4.0368e-05
63 *387:12 *417:96 0.000775381
64 *389:8 *417:96 0.000109431
65 *389:52 *417:18 0.0124998
66 *389:52 *417:68 0.000841529
67 *393:14 *12134:DI[16] 3.93395e-05
68 *393:14 *417:96 0.000501297
69 *393:49 *417:68 0.000633578
*RES
1 *12074:X *417:4 1.6
2 *417:4 *417:16 31.545
3 *417:16 *417:18 199.223
4 *417:18 *417:22 39.0975
5 *417:22 *12144:DI[16] 22.505
6 *417:22 *12154:DI[16] 46.4375
7 *12154:DI[16] *417:51 0.147
8 *417:4 *417:68 23.13
9 *417:68 *417:72 49.535
10 *417:72 *417:96 25.585
11 *417:96 *12134:DI[16] 46.0158
12 *417:96 *12124:DI[16] 21.905
*END

*D_NET *418 0.0595916
*CONN
*I *12080:A I *D sky130_fd_sc_hd__buf_12
*I *12174:X O *D sky130_fd_sc_hd__buf_12
*CAP
1 *12080:A 0
2 *12174:X 9.35575e-05
3 *418:16 0.00441493
4 *418:14 0.00441493
5 *418:12 0.00132369
6 *418:10 0.00141725
7 *418:10 *604:12 0
8 *418:12 *12248:A 0.00152299
9 *418:12 *452:12 0.00553526
10 *418:12 *574:12 0.00663842
11 *418:12 *591:18 0.000526917
12 *418:16 *11837:S 0.000527054
13 *418:16 *12058:A 0.000124014
14 *418:16 *12074:A 0.00136883
15 *418:16 *564:38 0.00102167
16 *418:16 *574:16 0.0011679
17 *418:16 *625:174 0.00050927
18 wbs_dat_o[13] *418:10 0.000152873
19 wbs_dat_o[6] *418:16 0.000159964
20 *788:DIODE *418:16 0.000151064
21 *839:DIODE *418:16 5.99925e-05
22 *11927:A *418:16 0.00136587
23 *11993:A *418:10 0
24 *111:10 *418:16 0.000548171
25 *111:14 *418:16 0.00214883
26 *115:10 *418:16 0.00018605
27 *121:18 *418:16 0.00569741
28 *220:51 *418:16 0.000173517
29 *221:40 *418:16 0.000145967
30 *225:70 *418:16 0.000249337
31 *225:74 *418:16 9.37731e-05
32 *229:25 *418:16 0.000864791
33 *229:27 *418:16 8.24798e-05
34 *240:31 *418:16 2.38456e-05
35 *248:27 *418:16 6.08134e-05
36 *407:12 *418:12 0.000176216
37 *407:16 *418:16 0.016644
*RES
1 *12174:X *418:10 7.49
2 *418:10 *418:12 72.555
3 *418:12 *418:14 2
4 *418:14 *418:16 193.905
5 *418:16 *12080:A 3.6
*END

*D_NET *419 0.00115034
*CONN
*I *12064:A I *D sky130_fd_sc_hd__dlygate4sd3_1
*I *12075:X O *D sky130_fd_sc_hd__dlygate4sd3_1
*CAP
1 *12064:A 0.00027687
2 *12075:X 0.00027687
3 *12064:A *12025:A 4.01469e-05
4 *12064:A *582:6 0.000313062
5 *12064:A *584:16 1.4918e-05
6 *12010:A *12064:A 0.000143187
7 *12076:A *12064:A 8.52883e-05
*RES
1 *12075:X *12064:A 13.485
*END

*D_NET *420 0.000704413
*CONN
*I *12198:A I *D sky130_fd_sc_hd__buf_12
*I *12076:X O *D sky130_fd_sc_hd__dlygate4sd3_1
*CAP
1 *12198:A 0.00016571
2 *12076:X 0.00016571
3 *12198:A *12213:A 0.000107721
4 *12198:A *12244:A 0.000156319
5 *12198:A *12245:A 0.000108952
*RES
1 *12076:X *12198:A 10.065
*END

*D_NET *421 0.000481772
*CONN
*I *12073:A I *D sky130_fd_sc_hd__dlygate4sd3_1
*I *12077:X O *D sky130_fd_sc_hd__dlygate4sd3_1
*CAP
1 *12073:A 0.000226025
2 *12077:X 0.000226025
3 *929:DIODE *12073:A 2.30258e-05
4 *12078:A *12073:A 6.69608e-06
*RES
1 *12077:X *12073:A 10.755
*END

*D_NET *422 0.000632469
*CONN
*I *12178:A I *D sky130_fd_sc_hd__buf_12
*I *12078:X O *D sky130_fd_sc_hd__dlygate4sd3_1
*CAP
1 *12178:A 0.000258032
2 *12078:X 0.000258032
3 wbs_dat_o[16] *12178:A 0
4 *929:DIODE *12178:A 7.2091e-05
5 *12078:A *12178:A 0
6 *153:40 *12178:A 4.43129e-05
*RES
1 *12078:X *12178:A 11.325
*END

*D_NET *423 0.000997553
*CONN
*I *12096:A I *D sky130_fd_sc_hd__dlygate4sd3_1
*I *12079:X O *D sky130_fd_sc_hd__dlygate4sd3_1
*CAP
1 *12096:A 0.000411813
2 *12079:X 0.000411813
3 *12096:A *12182:A 4.66108e-05
4 *12096:A *12205:A 6.36578e-05
5 *12096:A *12230:A 6.36578e-05
*RES
1 *12079:X *12096:A 13.275
*END

*D_NET *424 0.162982
*CONN
*I *12154:DI[1] I *D CF_SRAM_1024x32
*I *12144:DI[1] I *D CF_SRAM_1024x32
*I *12124:DI[1] I *D CF_SRAM_1024x32
*I *12134:DI[1] I *D CF_SRAM_1024x32
*I *12081:X O *D sky130_fd_sc_hd__buf_12
*CAP
1 *12154:DI[1] 0.0117152
2 *12144:DI[1] 0.00117855
3 *12124:DI[1] 0.00115276
4 *12134:DI[1] 0.0139406
5 *12081:X 0.00016649
6 *424:103 0
7 *424:70 0.0257324
8 *424:34 0.0156102
9 *424:32 0.00145191
10 *424:28 0.00187008
11 *424:14 0.0139402
12 *12144:DI[1] *12144:BEN[1] 0
13 *12144:DI[1] *438:82 7.18452e-06
14 *12154:DI[1] *12154:BEN[0] 1.79536e-05
15 *12154:DI[1] *480:58 1.79536e-05
16 *424:14 *458:24 3.51323e-05
17 *424:14 *504:78 2.22315e-05
18 *424:28 *438:20 0.000959814
19 *424:28 *502:10 2.13396e-05
20 *424:28 *524:20 0.00149615
21 *424:32 *12124:AD[0] 4.01548e-05
22 *424:32 *12124:AD[2] 0.000101323
23 *424:32 *438:38 0.00306013
24 *424:32 *502:10 0.00328543
25 *424:32 *502:22 0.000445507
26 *424:32 *504:84 0.000181737
27 *424:32 *524:20 0.000422328
28 *424:34 *12124:AD[3] 1.79536e-05
29 *424:34 *12124:AD[4] 1.93834e-05
30 *424:34 *502:22 0.000759701
31 *424:34 *504:84 8.76033e-05
32 *424:70 *458:24 3.66053e-05
33 *424:70 *502:62 0.0217915
34 *424:70 *504:78 0.000743877
35 *424:70 *524:20 3.09998e-05
36 *11861:A0 *12124:DI[1] 7.96352e-05
37 *131:26 *12134:DI[1] 3.97211e-05
38 *131:26 *424:34 0.00104613
39 *197:27 *12124:DI[1] 0.00037812
40 *225:42 *12134:DI[1] 1.68159e-05
41 *228:13 *12134:DI[1] 1.68159e-05
42 *229:19 *12134:DI[1] 0.0117278
43 *261:9 *12144:DI[1] 9.25469e-05
44 *282:25 *12154:DI[1] 0.0253203
45 *283:27 *424:70 0.000690473
46 *293:17 *12154:DI[1] 0.000928364
47 *306:23 *12154:DI[1] 0
48 *360:12 *424:34 0.000307125
49 *395:56 *424:28 0.000209745
50 *400:80 *424:14 4.41506e-05
51 *402:54 *424:14 0.000125677
52 *415:10 *424:28 0.00077153
53 *415:10 *424:32 9.2143e-05
54 *415:18 *12134:DI[1] 4.1977e-05
55 *415:18 *424:34 0.000569312
56 *415:58 *424:14 0.000123375
*RES
1 *12081:X *424:14 6.5279
2 *424:14 *424:28 13.328
3 *424:28 *424:32 43.395
4 *424:32 *424:34 20.1225
5 *424:34 *12134:DI[1] 46.7242
6 *424:34 *12124:DI[1] 18.1775
7 *424:14 *424:70 42.192
8 *424:70 *12144:DI[1] 17.5769
9 *424:70 *12154:DI[1] 46.3988
10 *12154:DI[1] *424:103 0.113077
*END

*D_NET *425 0.000779661
*CONN
*I *12085:A I *D sky130_fd_sc_hd__dlygate4sd3_1
*I *12082:X O *D sky130_fd_sc_hd__dlygate4sd3_1
*CAP
1 *12085:A 0.000327853
2 *12082:X 0.000327853
3 *12085:A *12082:A 0.000123955
4 *12085:A *463:14 0
5 wbs_dat_o[17] *12085:A 0
6 *1062:DIODE *12085:A 0
7 *155:66 *12085:A 0
*RES
1 *12082:X *12085:A 12.525
*END

*D_NET *426 0.146054
*CONN
*I *12144:DI[17] I *D CF_SRAM_1024x32
*I *12154:DI[17] I *D CF_SRAM_1024x32
*I *12124:DI[17] I *D CF_SRAM_1024x32
*I *12134:DI[17] I *D CF_SRAM_1024x32
*I *12083:X O *D sky130_fd_sc_hd__buf_12
*CAP
1 *12144:DI[17] 3.12915e-05
2 *12154:DI[17] 0.000136572
3 *12124:DI[17] 8.88167e-05
4 *12134:DI[17] 3.36413e-05
5 *12083:X 0
6 *426:85 8.09256e-07
7 *426:78 0.0167262
8 *426:56 0.0170347
9 *426:52 0.00876872
10 *426:50 0.00874883
11 *426:36 0.0166074
12 *426:16 0.0167561
13 *426:10 0.00271833
14 *426:8 0.00251439
15 *426:6 0.00343108
16 *426:4 0.00324859
17 *426:6 *443:8 0.00043366
18 *426:6 *443:12 0.00101627
19 *426:6 *449:10 0.00114793
20 *426:10 *432:14 0.0106093
21 *426:16 *12134:BEN[17] 0
22 *426:36 *504:78 3.3846e-05
23 *426:36 *639:22 1.79536e-05
24 *426:50 *443:12 8.66915e-05
25 *426:52 *432:50 0
26 *426:52 *449:64 0
27 *426:78 *480:58 1.92979e-05
28 *426:78 *639:138 0
29 *426:78 *639:162 0
30 *426:78 *639:174 1.92979e-05
31 *1012:DIODE *426:6 8.65905e-05
32 *12124:CLKin *12124:DI[17] 0
33 *12134:WLBI *426:16 0
34 *12134:CLKin *426:16 1.74963e-05
35 *12134:CLKin *426:36 0.00589994
36 *12144:CLKin *12144:DI[17] 0
37 *12144:CLKin *426:78 0.00328343
38 *12154:WLBI *426:56 7.18771e-05
39 *12154:CLKin *426:78 0.000412332
40 *133:16 *426:36 1.93834e-05
41 *175:10 *426:52 9.05377e-05
42 *194:20 *12124:DI[17] 1.35779e-05
43 *195:23 *426:36 0
44 *226:16 *426:16 0
45 *226:16 *426:36 0
46 *228:11 *426:36 1.79483e-05
47 *231:13 *426:36 1.79483e-05
48 *237:11 *426:10 0.000242204
49 *258:9 *12144:DI[17] 7.55432e-05
50 *258:9 *426:85 1.14169e-05
51 *286:11 *426:52 0
52 *287:30 *426:6 0.000901192
53 *290:21 *12154:DI[17] 1.43409e-05
54 *297:11 *426:52 0
55 *357:10 *426:52 0.0131935
56 *365:24 *426:36 5.07251e-05
57 *369:76 *426:36 0.000161887
58 *382:88 *426:10 0.0112425
*RES
1 *12083:X *426:4 1.6
2 *426:4 *426:6 55.65
3 *426:6 *426:8 2
4 *426:8 *426:10 130.92
5 *426:10 *426:16 5.39
6 *426:16 *12134:DI[17] 0.555
7 *426:16 *426:36 48.5807
8 *426:36 *12124:DI[17] 3.44
9 *426:6 *426:50 4.52
10 *426:50 *426:52 197.475
11 *426:52 *426:56 5.555
12 *426:56 *12154:DI[17] 2.085
13 *426:56 *426:78 48.3205
14 *426:78 *12144:DI[17] 2.795
15 *12144:DI[17] *426:85 0.1225
*END

*D_NET *427 0.00116603
*CONN
*I *12082:A I *D sky130_fd_sc_hd__dlygate4sd3_1
*I *12084:X O *D sky130_fd_sc_hd__dlygate4sd3_1
*CAP
1 *12082:A 0.000433258
2 *12084:X 0.000433258
3 *12082:A *606:28 1.08758e-05
4 wbs_dat_o[17] *12082:A 0.000164686
5 *12084:A *12082:A 0
6 *12085:A *12082:A 0.000123955
*RES
1 *12084:X *12082:A 14.385
*END

*D_NET *428 0.000234319
*CONN
*I *12179:A I *D sky130_fd_sc_hd__buf_12
*I *12085:X O *D sky130_fd_sc_hd__dlygate4sd3_1
*CAP
1 *12179:A 8.84911e-05
2 *12085:X 8.84911e-05
3 *1062:DIODE *12179:A 2.43028e-05
4 *155:66 *12179:A 3.30343e-05
*RES
1 *12085:X *12179:A 8.58
*END

*D_NET *429 0.0579083
*CONN
*I *11983:A I *D sky130_fd_sc_hd__buf_12
*I *12175:X O *D sky130_fd_sc_hd__buf_12
*CAP
1 *11983:A 0.000398268
2 *12175:X 0.00109809
3 *429:18 0.00472728
4 *429:16 0.00542711
5 *11983:A *11987:A 0
6 *429:16 *592:12 0.000201508
7 *429:16 *597:14 0.00101463
8 *429:16 *600:12 0.000332802
9 *429:16 *630:49 0.00147136
10 *429:16 *630:64 0.000542001
11 *429:16 *634:42 0.00035215
12 *429:18 *540:18 0.000101403
13 *429:18 *579:24 0.000220919
14 *1036:DIODE *11983:A 6.57377e-05
15 *202:13 *11983:A 0.000488491
16 *341:10 *429:18 0.0203828
17 *352:16 *429:18 0.0210838
*RES
1 *12175:X *429:16 40.03
2 *429:16 *429:18 240.825
3 *429:18 *11983:A 10.95
*END

*D_NET *430 0.0679253
*CONN
*I *12058:A I *D sky130_fd_sc_hd__buf_12
*I *12176:X O *D sky130_fd_sc_hd__buf_12
*CAP
1 *12058:A 0.00635607
2 *12176:X 0.00835124
3 *430:14 0.0147073
4 *12058:A *11818:B 0.000119961
5 *12058:A *12036:A 0.0151432
6 *12058:A *12074:A 0.0163615
7 *12058:A *547:28 9.15457e-05
8 *12058:A *554:57 0.000417673
9 *12058:A *578:10 1.79483e-05
10 *12058:A *625:26 0.000228627
11 *430:14 *452:12 0.00032309
12 *430:14 *579:24 7.40972e-05
13 *430:14 *581:26 0.00151198
14 wbs_dat_o[14] *430:14 4.46999e-05
15 *11971:A *430:14 0
16 *112:10 *12058:A 0.000492382
17 *145:10 *12058:A 0.000616779
18 *148:12 *12058:A 0.000437116
19 *181:51 *12058:A 0.000214757
20 *185:10 *12058:A 1.79483e-05
21 *223:31 *12058:A 0.00026786
22 *407:12 *430:14 0.00189007
23 *407:16 *12058:A 0.000115407
24 *418:16 *12058:A 0.000124014
*RES
1 *12176:X *430:14 19.3573
2 *430:14 *12058:A 39.215
*END

*D_NET *431 0.000801038
*CONN
*I *12089:A I *D sky130_fd_sc_hd__dlygate4sd3_1
*I *12086:X O *D sky130_fd_sc_hd__dlygate4sd3_1
*CAP
1 *12089:A 5.05472e-05
2 *12086:X 5.05472e-05
3 *12089:A *12228:A 0.000349972
4 wbs_dat_o[18] *12089:A 0.000349972
*RES
1 *12086:X *12089:A 6.41
*END

*D_NET *432 0.144061
*CONN
*I *12144:DI[18] I *D CF_SRAM_1024x32
*I *12154:DI[18] I *D CF_SRAM_1024x32
*I *12124:DI[18] I *D CF_SRAM_1024x32
*I *12134:DI[18] I *D CF_SRAM_1024x32
*I *12087:X O *D sky130_fd_sc_hd__buf_12
*CAP
1 *12144:DI[18] 9.8147e-05
2 *12154:DI[18] 9.26154e-05
3 *12124:DI[18] 7.87442e-05
4 *12134:DI[18] 9.08631e-05
5 *12087:X 0.00094427
6 *432:78 0.0134045
7 *432:58 0.0135023
8 *432:54 0.00553911
9 *432:52 0.00546148
10 *432:50 0.00443627
11 *432:45 3.22297e-06
12 *432:38 0.0202442
13 *432:18 0.0204193
14 *432:14 0.0039415
15 *432:12 0.0104464
16 *432:8 0.0031983
17 *12144:DI[18] *12144:BEN[18] 0
18 *432:38 *639:34 4.01548e-05
19 *432:50 *12154:BEN[8] 0.000216241
20 *432:50 *480:58 0
21 *432:50 *557:353 0.000189804
22 *432:54 *12154:AD[0] 5.05716e-06
23 *432:54 *12154:AD[1] 2.04976e-05
24 *432:54 *12154:AD[2] 2.97206e-06
25 *432:54 *12154:EN 1.31846e-05
26 *432:54 *12154:AD[3] 4.61701e-06
27 *432:54 *12154:AD[4] 5.05716e-06
28 *432:54 *12154:AD[5] 5.05066e-06
29 *432:54 *12154:AD[6] 5.05716e-06
30 *432:54 *12154:AD[7] 5.05716e-06
31 *432:54 *12154:AD[8] 5.05716e-06
32 *432:54 *12154:AD[9] 5.05066e-06
33 *432:54 *12154:BEN[0] 0.000354082
34 *432:54 *12154:DI[0] 5.05716e-06
35 *432:54 *480:58 0
36 *432:54 *560:266 4.5636e-05
37 *432:54 *560:278 0.000404432
38 *432:54 *560:290 0.000354082
39 *432:54 *560:302 0.000404432
40 *432:54 *560:314 0.000442659
41 *432:54 *560:334 0.000474162
42 *432:54 *560:346 0.000354082
43 *432:54 *639:162 4.5636e-05
44 *432:54 *639:174 0.000346531
45 *432:54 *639:194 0.000225378
46 *432:78 *12144:BEN[18] 4.3606e-06
47 *432:78 *480:64 4.47054e-05
48 *432:78 *484:55 8.53464e-05
49 *903:DIODE *432:8 7.35813e-05
50 *11917:A1 *432:8 0
51 *11917:A1 *432:12 0.000160635
52 *12154:R_WB *432:54 5.05716e-06
53 *12154:DI[8] *432:54 5.05716e-06
54 *12154:DI[16] *432:54 1.31846e-05
55 *133:16 *432:38 4.24632e-05
56 *167:16 *432:14 0
57 *175:8 *432:12 0.0041122
58 *195:23 *12124:DI[18] 0
59 *227:19 *12134:DI[18] 0
60 *228:11 *432:38 1.79483e-05
61 *231:13 *432:38 1.79483e-05
62 *237:11 *432:14 0.00345271
63 *259:9 *12144:DI[18] 0
64 *282:25 *432:54 1.31816e-05
65 *289:21 *432:54 4.61701e-06
66 *290:21 *432:54 1.4548e-05
67 *291:17 *12154:DI[18] 0.000120407
68 *291:17 *432:58 3.6355e-05
69 *291:17 *432:78 0.0153356
70 *292:19 *432:78 0.000203005
71 *312:21 *432:54 5.05066e-06
72 *357:10 *432:50 0
73 *357:10 *432:54 0
74 *382:88 *432:14 9.06792e-05
75 *382:88 *432:50 0.0036853
76 *400:18 *432:38 2.75248e-05
77 *426:10 *432:14 0.0106093
78 *426:52 *432:50 0
*RES
1 *12087:X *432:8 15.6925
2 *432:8 *432:12 44.3675
3 *432:12 *432:14 125.565
4 *432:14 *432:18 4.175
5 *432:18 *12134:DI[18] 1.335
6 *432:18 *432:38 48.0407
7 *432:38 *12124:DI[18] 3.14
8 *12124:DI[18] *432:45 0.147
9 *432:12 *432:50 92.5725
10 *432:50 *432:52 0.45
11 *432:52 *432:54 111.128
12 *432:54 *432:58 3.485
13 *432:58 *12154:DI[18] 1.755
14 *432:58 *432:78 48.6672
15 *432:78 *12144:DI[18] 3.65
*END

*D_NET *433 0.00116279
*CONN
*I *12086:A I *D sky130_fd_sc_hd__dlygate4sd3_1
*I *12088:X O *D sky130_fd_sc_hd__dlygate4sd3_1
*CAP
1 *12086:A 0.000409473
2 *12088:X 0.000409473
3 *12086:A *606:28 0.000295551
4 wbs_dat_o[19] *12086:A 0
5 *1086:DIODE *12086:A 0
6 *12099:A *12086:A 4.82919e-05
*RES
1 *12088:X *12086:A 14.625
*END

*D_NET *434 0.000260727
*CONN
*I *12180:A I *D sky130_fd_sc_hd__buf_12
*I *12089:X O *D sky130_fd_sc_hd__dlygate4sd3_1
*CAP
1 *12180:A 6.89824e-05
2 *12089:X 6.89824e-05
3 *1074:DIODE *12180:A 8.7152e-06
4 *157:65 *12180:A 0.000114047
*RES
1 *12089:X *12180:A 8.58
*END

*D_NET *435 0.00266041
*CONN
*I *12071:A I *D sky130_fd_sc_hd__dlygate4sd3_1
*I *12090:X O *D sky130_fd_sc_hd__dlygate4sd3_1
*CAP
1 *12071:A 0.000541505
2 *12090:X 0.000541505
3 *12071:A *11847:B1 0
4 *12071:A *11847:C1 4.66108e-05
5 *12071:A *622:20 0.000429676
6 *12071:A *631:18 0.000267846
7 *12071:A *631:20 0.00041959
8 *12071:A *631:22 0.000158523
9 *12071:A *631:30 9.95975e-05
10 *12012:A *12071:A 0.000123225
11 *12090:A *12071:A 3.23284e-05
*RES
1 *12090:X *12071:A 16.535
*END

*D_NET *436 0.00175284
*CONN
*I *12194:A I *D sky130_fd_sc_hd__buf_12
*I *12092:X O *D sky130_fd_sc_hd__dlygate4sd3_1
*CAP
1 *12194:A 0.000483786
2 *12092:X 0.000483786
3 *12194:A *11853:B1 0.000132266
4 *12194:A *12244:A 8.57011e-05
5 *12194:A *593:10 0.000186462
6 *681:DIODE *12194:A 2.36055e-05
7 *12092:A *12194:A 0.000246022
8 *109:12 *12194:A 0
9 *217:27 *12194:A 0.000111207
*RES
1 *12092:X *12194:A 17.19
*END

*D_NET *437 0.00050228
*CONN
*I *12103:A I *D sky130_fd_sc_hd__dlygate4sd3_1
*I *12093:X O *D sky130_fd_sc_hd__dlygate4sd3_1
*CAP
1 *12103:A 0.000234809
2 *12093:X 0.000234809
3 *12103:A *12093:A 3.26621e-05
*RES
1 *12093:X *12103:A 10.065
*END

*D_NET *438 0.148958
*CONN
*I *12154:DI[0] I *D CF_SRAM_1024x32
*I *12144:DI[0] I *D CF_SRAM_1024x32
*I *12124:DI[0] I *D CF_SRAM_1024x32
*I *12134:DI[0] I *D CF_SRAM_1024x32
*I *12094:X O *D sky130_fd_sc_hd__buf_12
*CAP
1 *12154:DI[0] 0.0145739
2 *12144:DI[0] 0.000759274
3 *12124:DI[0] 0.00130339
4 *12134:DI[0] 0.0175388
5 *12094:X 0.000162595
6 *438:109 6.90636e-06
7 *438:82 0.0269256
8 *438:80 0.0117668
9 *438:76 0.0014732
10 *438:38 0.0210401
11 *438:20 0.00304628
12 *438:6 0.00231671
13 *12134:DI[0] *12134:AD[3] 0
14 *12154:DI[0] *12144:AD[3] 2.89193e-05
15 *12154:DI[0] *12154:AD[3] 0.00570029
16 *12154:DI[0] *480:58 1.79536e-05
17 *12154:DI[0] *506:62 0
18 *438:20 *12124:DI[20] 0
19 *438:20 *443:44 2.90617e-05
20 *438:20 *502:10 0.00235395
21 *438:38 *12134:AD[0] 2.22315e-05
22 *438:38 *504:78 0.000103019
23 *438:38 *520:18 0.000132645
24 *438:38 *524:20 0.000554092
25 *438:38 *577:28 4.78663e-05
26 *438:76 *11833:S 9.14049e-05
27 *438:76 *502:10 0.000137578
28 *438:76 *502:62 0.000212493
29 *438:76 *509:68 0.000464907
30 *438:76 *635:37 0.000477602
31 *438:76 *636:20 0.00039388
32 *438:76 *636:43 0.00120292
33 *438:76 *636:130 0.000159957
34 *438:80 *506:60 0.000159109
35 *438:82 *506:62 0
36 *438:82 *511:54 0.00351364
37 *905:DIODE *438:76 2.23407e-05
38 *909:DIODE *438:76 0.000152634
39 *1013:DIODE *438:76 0.000614975
40 *1027:DIODE *438:80 4.41506e-05
41 *1035:DIODE *438:76 6.88421e-05
42 *1060:DIODE *438:76 0.000153263
43 *11845:A0 *438:76 9.84368e-05
44 *12124:ScanInDL *12124:DI[0] 8.53839e-06
45 *12124:ScanInCC *12124:DI[0] 0
46 *12144:ScanInDL *12144:DI[0] 0.000979301
47 *12144:DI[1] *438:82 7.18452e-06
48 *12154:ScanInDL *12154:DI[0] 5.58616e-05
49 *181:47 *438:38 4.12356e-05
50 *186:29 *12124:DI[0] 4.65229e-05
51 *218:19 *12134:DI[0] 0.000203826
52 *225:42 *12134:DI[0] 1.56781e-05
53 *228:13 *12134:DI[0] 1.56781e-05
54 *250:9 *12144:DI[0] 0
55 *250:11 *438:82 0
56 *275:21 *438:76 0.000133445
57 *282:25 *12154:DI[0] 0.00167261
58 *283:27 *438:76 0.00151437
59 *382:46 *438:38 0.000498294
60 *395:56 *438:20 0.00160745
61 *395:58 *438:76 1.14559e-05
62 *409:14 *438:82 0.0154955
63 *409:36 *438:82 0.000139477
64 *409:50 *12134:DI[0] 1.88904e-05
65 *409:50 *438:38 0.000327299
66 *415:10 *438:20 1.38403e-05
67 *415:10 *438:38 0.0030647
68 *415:18 *12134:DI[0] 1.7635e-05
69 *415:18 *438:38 0.000219109
70 *415:58 *438:76 0.000316694
71 *415:60 *438:82 0.000271085
72 *415:84 *438:82 0
73 *417:72 *438:76 0.000365715
74 *424:28 *438:20 0.000959814
75 *424:32 *438:38 0.00306013
76 *432:54 *12154:DI[0] 5.05716e-06
*RES
1 *12094:X *438:6 3.43
2 *438:6 *438:20 30.6653
3 *438:20 *438:38 42.8372
4 *438:38 *12134:DI[0] 46.629
5 *438:38 *12124:DI[0] 16.9775
6 *438:6 *438:76 49.27
7 *438:76 *438:80 4.865
8 *438:80 *438:82 202.32
9 *438:82 *12144:DI[0] 15.8375
10 *438:82 *12154:DI[0] 47.8579
11 *12154:DI[0] *438:109 0.1125
*END

*D_NET *439 0.00191455
*CONN
*I *12079:A I *D sky130_fd_sc_hd__dlygate4sd3_1
*I *12095:X O *D sky130_fd_sc_hd__dlygate4sd3_1
*CAP
1 *12079:A 0.00065439
2 *12095:X 0.00065439
3 *12079:A *12230:A 0
4 *12079:A *588:20 0.000596671
5 *12079:A *631:44 9.09788e-06
*RES
1 *12095:X *12079:A 16.245
*END

*D_NET *440 9.88592e-05
*CONN
*I *12182:A I *D sky130_fd_sc_hd__buf_12
*I *12096:X O *D sky130_fd_sc_hd__dlygate4sd3_1
*CAP
1 *12182:A 2.61242e-05
2 *12096:X 2.61242e-05
3 *12096:A *12182:A 4.66108e-05
*RES
1 *12096:X *12182:A 3.65
*END

*D_NET *441 0.0696453
*CONN
*I *12036:A I *D sky130_fd_sc_hd__buf_12
*I *12177:X O *D sky130_fd_sc_hd__buf_12
*CAP
1 *12036:A 0.00805316
2 *12177:X 0.00596327
3 *441:14 0.0140164
4 *12036:A *11818:A 0.000303707
5 *12036:A *11818:B 0.000278732
6 *12036:A *564:10 0.000153582
7 *12036:A *564:25 0.000222737
8 *12036:A *578:10 0.00072386
9 *441:14 *12225:A 0
10 *441:14 *608:10 0.000157179
11 *441:14 *627:35 0.00214636
12 *785:DIODE *441:14 0
13 *11818:C *12036:A 0.000266322
14 *11824:A0 *12036:A 0.000258183
15 *11898:A1 *441:14 4.61119e-05
16 *11937:A *441:14 0
17 *12058:A *12036:A 0.0151432
18 *12134:DI[16] *12036:A 3.24503e-05
19 *12177:A *441:14 0
20 *149:10 *12036:A 0.000147915
21 *151:26 *441:14 0.0006093
22 *151:44 *441:14 0
23 *151:52 *441:14 0
24 *151:54 *441:14 0
25 *154:16 *441:14 0.000587791
26 *180:25 *12036:A 0.000247831
27 *180:36 *12036:A 0.000236176
28 *181:51 *12036:A 0.00073633
29 *182:19 *441:14 0.00094027
30 *185:10 *12036:A 0.000124269
31 *198:15 *441:14 0.000940875
32 *199:27 *441:14 0
33 *202:19 *441:14 0.0018706
34 *204:31 *441:14 0.00838053
35 *205:31 *441:14 0.00196033
36 *209:17 *441:14 0.000861843
37 *221:40 *12036:A 0.000259903
38 *227:27 *441:14 0
39 *228:43 *441:14 9.08126e-05
40 *243:27 *12036:A 0.00388529
*RES
1 *12177:X *441:14 39.2247
2 *441:14 *12036:A 35.0502
*END

*D_NET *442 0.000781083
*CONN
*I *12100:A I *D sky130_fd_sc_hd__dlygate4sd3_1
*I *12097:X O *D sky130_fd_sc_hd__dlygate4sd3_1
*CAP
1 *12100:A 0.000361854
2 *12097:X 0.000361854
3 *12100:A *12231:A 0
4 wbs_dat_o[19] *12100:A 0
5 *12099:A *12100:A 5.73739e-05
6 *159:61 *12100:A 0
*RES
1 *12097:X *12100:A 12.105
*END

*D_NET *443 0.146546
*CONN
*I *12144:DI[19] I *D CF_SRAM_1024x32
*I *12154:DI[19] I *D CF_SRAM_1024x32
*I *12124:DI[19] I *D CF_SRAM_1024x32
*I *12134:DI[19] I *D CF_SRAM_1024x32
*I *12098:X O *D sky130_fd_sc_hd__buf_12
*CAP
1 *12144:DI[19] 9.25539e-05
2 *12154:DI[19] 9.88315e-05
3 *12124:DI[19] 7.53824e-05
4 *12134:DI[19] 3.19071e-05
5 *12098:X 0.000340135
6 *443:80 0.0188894
7 *443:60 0.0193584
8 *443:56 0.00550924
9 *443:51 3.03481e-06
10 *443:44 0.018602
11 *443:24 0.0191531
12 *443:18 0.0021635
13 *443:16 0.00279507
14 *443:12 0.00898596
15 *443:8 0.00305651
16 *12144:DI[19] *12144:BEN[19] 0
17 *443:12 *449:10 0.00194026
18 *443:16 *449:64 0.000273695
19 *443:16 *462:56 0.00141122
20 *443:18 *12114:A 0.00316521
21 *443:18 *462:12 0.0028182
22 *443:18 *462:54 0.000144655
23 *443:18 *462:56 0
24 *443:24 *12134:BEN[19] 0
25 *443:44 *547:88 5.05066e-06
26 *443:44 *580:22 0.000272012
27 *443:44 *581:26 0.000414741
28 *443:44 *639:46 4.01548e-05
29 *443:56 *449:64 0.0187224
30 *443:56 *462:56 0.00646149
31 *443:56 *462:60 0.00287272
32 *443:80 *12144:BEN[19] 6.30563e-06
33 *443:80 *484:55 8.63143e-05
34 *443:80 *639:206 8.38995e-05
35 *1012:DIODE *443:12 5.30673e-05
36 *12154:TM *443:56 8.97564e-05
37 *133:16 *443:44 4.24632e-05
38 *173:16 *443:16 0
39 *175:10 *443:16 0
40 *196:17 *12124:DI[19] 0
41 *196:17 *443:51 0
42 *228:11 *443:24 0
43 *228:11 *443:44 0
44 *230:19 *443:44 0
45 *231:13 *443:44 1.79483e-05
46 *236:11 *443:18 0.00488536
47 *239:11 *443:18 0.0009155
48 *241:11 *443:16 0
49 *241:11 *443:18 0.000855805
50 *260:9 *12144:DI[19] 1.04275e-05
51 *260:9 *443:80 0.000151979
52 *292:19 *12154:DI[19] 8.42653e-05
53 *294:19 *443:80 0
54 *426:6 *443:8 0.00043366
55 *426:6 *443:12 0.00101627
56 *426:50 *443:12 8.66915e-05
57 *438:20 *443:44 2.90617e-05
*RES
1 *12098:X *443:8 8.7925
2 *443:8 *443:12 49.8875
3 *443:12 *443:16 29.8275
4 *443:16 *443:18 84.9075
5 *443:18 *443:24 10.565
6 *443:24 *12134:DI[19] 0.525
7 *443:24 *443:44 48.8357
8 *443:44 *12124:DI[19] 3.14
9 *12124:DI[19] *443:51 0.1225
10 *443:12 *443:56 214.56
11 *443:56 *443:60 9.35
12 *443:60 *12154:DI[19] 1.77
13 *443:60 *443:80 48.6672
14 *443:80 *12144:DI[19] 3.635
*END

*D_NET *444 0.000343723
*CONN
*I *12097:A I *D sky130_fd_sc_hd__dlygate4sd3_1
*I *12099:X O *D sky130_fd_sc_hd__dlygate4sd3_1
*CAP
1 *12097:A 7.13219e-05
2 *12099:X 7.13219e-05
3 *12099:A *12097:A 0.000201079
*RES
1 *12099:X *12097:A 5.03
*END

*D_NET *445 0.000974918
*CONN
*I *12181:A I *D sky130_fd_sc_hd__buf_12
*I *12100:X O *D sky130_fd_sc_hd__dlygate4sd3_1
*CAP
1 *12181:A 0.000214636
2 *12100:X 0.000214636
3 *11907:A1 *12181:A 0.000122331
4 *11907:B2 *12181:A 0.000151242
5 *159:59 *12181:A 0.000144209
6 *159:61 *12181:A 5.53249e-06
7 *164:30 *12181:A 0.000122331
*RES
1 *12100:X *12181:A 11.76
*END

*D_NET *446 0.000627493
*CONN
*I *12093:A I *D sky130_fd_sc_hd__dlygate4sd3_1
*I *12101:X O *D sky130_fd_sc_hd__dlygate4sd3_1
*CAP
1 *12093:A 0.000288228
2 *12101:X 0.000288228
3 *12093:A *12170:A 0
4 wbs_dat_o[0] *12093:A 0
5 *12101:A *12093:A 1.83756e-05
6 *12103:A *12093:A 3.26621e-05
*RES
1 *12101:X *12093:A 11.415
*END

*D_NET *447 0.000450616
*CONN
*I *12170:A I *D sky130_fd_sc_hd__buf_12
*I *12103:X O *D sky130_fd_sc_hd__dlygate4sd3_1
*CAP
1 *12170:A 0.000154989
2 *12103:X 0.000154989
3 wbs_dat_o[0] *12170:A 0.000140639
4 *12093:A *12170:A 0
*RES
1 *12103:X *12170:A 9.975
*END

*D_NET *448 0.000430356
*CONN
*I *12107:A I *D sky130_fd_sc_hd__dlygate4sd3_1
*I *12104:X O *D sky130_fd_sc_hd__dlygate4sd3_1
*CAP
1 *12107:A 0.00012505
2 *12104:X 0.00012505
3 *12107:A *12104:A 1.34503e-05
4 *1099:DIODE *12107:A 0.000166806
*RES
1 *12104:X *12107:A 9.375
*END

*D_NET *449 0.144328
*CONN
*I *12144:DI[20] I *D CF_SRAM_1024x32
*I *12154:DI[20] I *D CF_SRAM_1024x32
*I *12134:DI[20] I *D CF_SRAM_1024x32
*I *12124:DI[20] I *D CF_SRAM_1024x32
*I *12105:X O *D sky130_fd_sc_hd__buf_12
*CAP
1 *12144:DI[20] 9.16868e-05
2 *12154:DI[20] 9.92724e-05
3 *12134:DI[20] 0.00115436
4 *12124:DI[20] 0.0177221
5 *12105:X 0.000512691
6 *449:88 0.0184018
7 *449:68 0.0188433
8 *449:64 0.00467847
9 *449:62 0.005718
10 *449:35 6.06962e-06
11 *449:22 0.0245413
12 *449:10 0.0076571
13 *12124:DI[20] *639:58 1.79483e-05
14 *12134:DI[20] *547:100 6.09321e-06
15 *12144:DI[20] *12144:BEN[20] 0
16 *449:64 *462:60 0
17 *449:88 *12144:BEN[20] 8.61788e-06
18 *449:88 *484:55 8.63143e-05
19 *449:88 *639:218 8.38995e-05
20 *133:16 *12124:DI[20] 1.93765e-05
21 *169:12 *449:62 0
22 *173:12 *449:62 0
23 *175:10 *449:64 0
24 *198:9 *12124:DI[20] 0
25 *198:9 *449:35 0
26 *230:19 *12134:DI[20] 2.27732e-05
27 *231:13 *12134:DI[20] 2.19304e-05
28 *232:15 *12134:DI[20] 0
29 *232:19 *449:22 0.000502716
30 *235:19 *449:22 0.00173023
31 *262:9 *12144:DI[20] 1.04275e-05
32 *262:9 *449:88 0.000151979
33 *284:24 *449:22 0.000121111
34 *284:28 *449:22 2.253e-05
35 *287:30 *449:10 0.000451726
36 *287:30 *449:22 0
37 *294:19 *12154:DI[20] 8.79393e-05
38 *294:19 *449:88 0
39 *297:11 *449:64 0.0194723
40 *303:23 *449:88 0
41 *426:6 *449:10 0.00114793
42 *426:52 *449:64 0
43 *438:20 *12124:DI[20] 0
44 *443:12 *449:10 0.00194026
45 *443:16 *449:64 0.000273695
46 *443:56 *449:64 0.0187224
*RES
1 *12105:X *449:10 24.465
2 *449:10 *449:22 19.4671
3 *449:22 *12124:DI[20] 45.4838
4 *12124:DI[20] *449:35 0.105
5 *449:22 *12134:DI[20] 6.2749
6 *449:10 *449:62 28.375
7 *449:62 *449:64 225.78
8 *449:64 *449:68 9.005
9 *449:68 *12154:DI[20] 1.785
10 *449:68 *449:88 48.6672
11 *449:88 *12144:DI[20] 3.62
*END

*D_NET *450 0.000924494
*CONN
*I *12104:A I *D sky130_fd_sc_hd__dlygate4sd3_1
*I *12106:X O *D sky130_fd_sc_hd__dlygate4sd3_1
*CAP
1 *12104:A 0.000233591
2 *12106:X 0.000233591
3 *12104:A *12183:A 8.8266e-05
4 *12104:A *606:28 0.000279498
5 wbs_dat_o[20] *12104:A 0
6 *1099:DIODE *12104:A 7.60965e-05
7 *12107:A *12104:A 1.34503e-05
*RES
1 *12106:X *12104:A 13.08
*END

*D_NET *451 0.000585572
*CONN
*I *12183:A I *D sky130_fd_sc_hd__buf_12
*I *12107:X O *D sky130_fd_sc_hd__dlygate4sd3_1
*CAP
1 *12183:A 0.000204976
2 *12107:X 0.000204976
3 *12183:A *606:28 8.73544e-05
4 wbs_dat_o[20] *12183:A 0
5 *12104:A *12183:A 8.8266e-05
*RES
1 *12107:X *12183:A 11.22
*END

*D_NET *452 0.0902225
*CONN
*I *12074:A I *D sky130_fd_sc_hd__buf_12
*I *12178:X O *D sky130_fd_sc_hd__buf_12
*CAP
1 *12074:A 0.0140403
2 *12178:X 8.92335e-05
3 *452:22 0.0163623
4 *452:12 0.00468702
5 *452:10 0.00245419
6 *12074:A *11819:A_N 0.000112534
7 *12074:A *12052:A 0.000165398
8 *12074:A *12216:A 3.92756e-05
9 *12074:A *554:14 0.000146796
10 *12074:A *564:38 0.000158482
11 *12074:A *574:16 0.000841218
12 *12074:A *625:45 0.000428745
13 *452:12 *591:18 0.0022802
14 *452:12 *604:14 0.00345951
15 *452:22 *12249:A 0
16 *452:22 *580:22 0.000307792
17 *452:22 *597:14 0.000144538
18 wbs_dat_o[16] *452:10 0
19 wbs_dat_o[8] *452:22 4.55025e-05
20 *11927:A *12074:A 0.000135795
21 *11997:A *452:22 0
22 *12058:A *12074:A 0.0163615
23 *12077:A *452:10 5.12942e-05
24 *12078:A *452:10 0
25 *111:14 *12074:A 0.000246727
26 *112:10 *12074:A 0.000681592
27 *115:10 *12074:A 0.00181613
28 *117:14 *12074:A 0.0010224
29 *121:18 *12074:A 0.001261
30 *145:10 *12074:A 0.000634289
31 *147:10 *12074:A 0.00119396
32 *181:51 *12074:A 0.0025031
33 *195:23 *452:22 0.00235227
34 *229:25 *12074:A 0.000104095
35 *290:27 *12074:A 0.000283853
36 *330:16 *12074:A 0.000549395
37 *362:80 *12074:A 0.00367171
38 *365:24 *12074:A 0.00143566
39 *396:12 *452:12 0.000671073
40 *407:16 *12074:A 0.00225647
41 *418:12 *452:12 0.00553526
42 *418:16 *12074:A 0.00136883
43 *430:14 *452:12 0.00032309
*RES
1 *12178:X *452:10 7.235
2 *452:10 *452:12 79.455
3 *452:12 *452:22 18.1904
4 *452:22 *12074:A 49.2555
*END

*D_NET *453 0.000480913
*CONN
*I *12111:A I *D sky130_fd_sc_hd__dlygate4sd3_1
*I *12108:X O *D sky130_fd_sc_hd__dlygate4sd3_1
*CAP
1 *12111:A 0.000214067
2 *12108:X 0.000214067
3 *12111:A *12108:A 0
4 *12111:A *12184:A 5.27785e-05
5 *12111:A *507:14 0
6 *12111:A *518:18 0
*RES
1 *12108:X *12111:A 10.62
*END

*D_NET *454 0.148472
*CONN
*I *12144:DI[21] I *D CF_SRAM_1024x32
*I *12154:DI[21] I *D CF_SRAM_1024x32
*I *12134:DI[21] I *D CF_SRAM_1024x32
*I *12124:DI[21] I *D CF_SRAM_1024x32
*I *12109:X O *D sky130_fd_sc_hd__buf_12
*CAP
1 *12144:DI[21] 9.08197e-05
2 *12154:DI[21] 0.000120721
3 *12134:DI[21] 0.000193664
4 *12124:DI[21] 8.46608e-05
5 *12109:X 0
6 *454:76 0.0181394
7 *454:56 0.0187712
8 *454:52 0.0158137
9 *454:50 0.0152118
10 *454:35 6.9367e-06
11 *454:30 0.0204473
12 *454:18 0.0211708
13 *454:16 0.00177961
14 *454:4 0.00117207
15 *12134:DI[21] *12134:BEN[21] 1.78959e-05
16 *454:16 *12109:A 0.000447414
17 *454:16 *12134:BEN[25] 5.33085e-05
18 *454:16 *12134:DI[25] 2.01259e-05
19 *454:16 *458:12 0.00178561
20 *454:16 *471:52 4.01019e-05
21 *454:16 *471:54 3.91272e-05
22 *454:16 *471:104 8.23457e-05
23 *454:16 *550:82 0.000722924
24 *454:16 *550:92 0.000726341
25 *454:16 *550:102 0.000123852
26 *454:18 *458:12 0.00204754
27 *454:18 *458:24 8.38966e-05
28 *454:18 *547:116 0.00010506
29 *454:18 *547:132 0.000499074
30 *454:30 *547:116 8.38966e-05
31 *454:30 *639:74 4.01548e-05
32 *454:52 *458:46 0.0237359
33 *454:52 *489:10 0.000199062
34 *454:52 *498:20 0.000468639
35 *454:76 *480:64 8.38995e-05
36 *454:76 *639:234 8.38995e-05
37 *133:16 *454:30 4.24632e-05
38 *199:21 *12124:DI[21] 0
39 *199:21 *454:30 6.08132e-05
40 *231:11 *12134:DI[21] 0
41 *232:15 *454:30 0
42 *238:9 *454:16 0
43 *263:9 *12144:DI[21] 1.04275e-05
44 *263:9 *454:76 0.000151979
45 *295:23 *12154:DI[21] 0.000110439
46 *295:23 *454:76 0.00077036
47 *303:23 *454:76 0
48 *382:88 *454:18 0.002749
49 *382:88 *454:30 8.38966e-05
*RES
1 *12109:X *454:4 1.6
2 *454:4 *454:16 37.575
3 *454:16 *454:18 31.98
4 *454:18 *454:30 48.9805
5 *454:30 *12124:DI[21] 1.14
6 *12124:DI[21] *454:35 0.12
7 *454:18 *12134:DI[21] 5.09
8 *454:4 *454:50 2
9 *454:50 *454:52 275.505
10 *454:52 *454:56 11.42
11 *454:56 *12154:DI[21] 2.145
12 *454:56 *454:76 48.7255
13 *454:76 *12144:DI[21] 3.605
*END

*D_NET *455 0.00137537
*CONN
*I *12108:A I *D sky130_fd_sc_hd__dlygate4sd3_1
*I *12110:X O *D sky130_fd_sc_hd__dlygate4sd3_1
*CAP
1 *12108:A 0.000387763
2 *12110:X 0.000387763
3 *12108:A *507:14 0.000280132
4 *12108:A *606:28 0.00018222
5 wbs_dat_o[21] *12108:A 0.0001249
6 *12110:A *12108:A 1.25877e-05
7 *12111:A *12108:A 0
*RES
1 *12110:X *12108:A 15.225
*END

*D_NET *456 0.000511993
*CONN
*I *12184:A I *D sky130_fd_sc_hd__buf_12
*I *12111:X O *D sky130_fd_sc_hd__dlygate4sd3_1
*CAP
1 *12184:A 0.000229607
2 *12111:X 0.000229607
3 *12111:A *12184:A 5.27785e-05
*RES
1 *12111:X *12184:A 10.065
*END

*D_NET *457 0.00187873
*CONN
*I *12116:A I *D sky130_fd_sc_hd__dlygate4sd3_1
*I *12112:X O *D sky130_fd_sc_hd__dlygate4sd3_1
*CAP
1 *12116:A 0.000635691
2 *12112:X 0.000635691
3 *12116:A *12117:A 0
4 *12116:A *12235:A 0.000262903
5 wbs_dat_o[22] *12116:A 0.000344448
*RES
1 *12112:X *12116:A 18.165
*END

*D_NET *458 0.151873
*CONN
*I *12144:DI[22] I *D CF_SRAM_1024x32
*I *12154:DI[22] I *D CF_SRAM_1024x32
*I *12134:DI[22] I *D CF_SRAM_1024x32
*I *12124:DI[22] I *D CF_SRAM_1024x32
*I *12114:X O *D sky130_fd_sc_hd__buf_12
*CAP
1 *12144:DI[22] 9.4572e-05
2 *12154:DI[22] 0.000154301
3 *12134:DI[22] 0.000173795
4 *12124:DI[22] 6.42407e-05
5 *12114:X 3.2156e-05
6 *458:70 0.0215354
7 *458:50 0.022125
8 *458:46 0.00756521
9 *458:44 0.00703532
10 *458:29 7.80379e-06
11 *458:24 0.0193405
12 *458:12 0.0205697
13 *458:10 0.00173017
14 *458:6 0.000650528
15 *12134:DI[22] *12134:BEN[22] 0
16 *12154:DI[22] *639:252 3.08892e-05
17 *458:10 *12114:A 0.000194694
18 *458:10 *484:18 0
19 *458:12 *12134:BEN[23] 0.00070703
20 *458:12 *12134:BEN[25] 0.000396755
21 *458:12 *467:28 8.81476e-05
22 *458:12 *471:104 4.11223e-05
23 *458:12 *476:36 6.02846e-05
24 *458:12 *480:34 3.91191e-05
25 *458:12 *480:56 0.000709808
26 *458:12 *484:30 8.38995e-05
27 *458:12 *484:53 6.32199e-05
28 *458:12 *547:132 0.000204665
29 *458:12 *550:43 1.00941e-05
30 *458:12 *550:102 0.000125398
31 *458:24 *504:78 1.69297e-05
32 *458:24 *547:132 8.38966e-05
33 *458:46 *462:56 0
34 *458:46 *462:60 0.00223192
35 *458:46 *489:10 0.000592103
36 *458:46 *493:10 0.000419522
37 *458:46 *498:20 0.000429505
38 *458:70 *480:64 4.08276e-05
39 *458:70 *480:66 1.25667e-05
40 *458:70 *639:252 1.79536e-05
41 *458:70 *639:379 1.79483e-05
42 *123:18 *458:24 2.09673e-05
43 *133:16 *458:24 4.24632e-05
44 *200:9 *12124:DI[22] 4.92935e-05
45 *232:15 *12134:DI[22] 0
46 *234:17 *458:12 0.000152474
47 *264:9 *12144:DI[22] 0
48 *296:21 *12154:DI[22] 0.000154977
49 *296:21 *458:70 0.00239864
50 *358:8 *458:46 0.0129224
51 *382:88 *458:12 0.000710139
52 *424:14 *458:24 3.51323e-05
53 *424:70 *458:24 3.66053e-05
54 *454:16 *458:12 0.00178561
55 *454:18 *458:12 0.00204754
56 *454:18 *458:24 8.38966e-05
57 *454:52 *458:46 0.0237359
*RES
1 *12114:X *458:6 2.05
2 *458:6 *458:10 11.075
3 *458:10 *458:12 48.81
4 *458:12 *458:24 48.9222
5 *458:24 *12124:DI[22] 1.14
6 *12124:DI[22] *458:29 0.135
7 *458:12 *12134:DI[22] 4.73
8 *458:6 *458:44 2
9 *458:44 *458:46 279.585
10 *458:46 *458:50 10.385
11 *458:50 *12154:DI[22] 2.85
12 *458:50 *458:70 48.842
13 *458:70 *12144:DI[22] 3.59
*END

*D_NET *459 0.000521665
*CONN
*I *12112:A I *D sky130_fd_sc_hd__dlygate4sd3_1
*I *12115:X O *D sky130_fd_sc_hd__dlygate4sd3_1
*CAP
1 *12112:A 0.000191629
2 *12115:X 0.000191629
3 *12112:A *606:28 1.98869e-05
4 wbs_dat_o[22] *12112:A 0.00011852
*RES
1 *12115:X *12112:A 10.065
*END

*D_NET *460 8.46221e-05
*CONN
*I *12185:A I *D sky130_fd_sc_hd__buf_12
*I *12116:X O *D sky130_fd_sc_hd__dlygate4sd3_1
*CAP
1 *12185:A 1.78463e-05
2 *12116:X 1.78463e-05
3 *12185:A *12234:A 4.89295e-05
*RES
1 *12116:X *12185:A 3.65
*END

*D_NET *461 0.00141785
*CONN
*I *12120:A I *D sky130_fd_sc_hd__dlygate4sd3_1
*I *12117:X O *D sky130_fd_sc_hd__dlygate4sd3_1
*CAP
1 *12120:A 0.000632612
2 *12117:X 0.000632612
3 *12120:A *12117:A 0.00015263
*RES
1 *12117:X *12120:A 14.55
*END

*D_NET *462 0.154375
*CONN
*I *12144:DI[23] I *D CF_SRAM_1024x32
*I *12154:DI[23] I *D CF_SRAM_1024x32
*I *12124:DI[23] I *D CF_SRAM_1024x32
*I *12134:DI[23] I *D CF_SRAM_1024x32
*I *12118:X O *D sky130_fd_sc_hd__buf_12
*CAP
1 *12144:DI[23] 4.72249e-05
2 *12154:DI[23] 0.000122586
3 *12124:DI[23] 9.27772e-05
4 *12134:DI[23] 4.74024e-05
5 *12118:X 0.000261035
6 *462:88 0.0198831
7 *462:68 0.0209162
8 *462:60 0.00455822
9 *462:58 0.00362525
10 *462:56 0.00653913
11 *462:54 0.00669156
12 *462:36 0.0163719
13 *462:16 0.0168225
14 *462:12 0.00267167
15 *462:10 0.00225953
16 *462:10 *12118:A 0.00018955
17 *462:12 *471:28 0.000573074
18 *462:12 *572:8 0.00251648
19 *462:36 *12134:BEN[23] 4.01548e-05
20 *462:36 *502:62 4.08469e-05
21 *462:36 *504:14 7.78567e-05
22 *462:36 *504:78 0.000347549
23 *462:56 *484:14 0.0033868
24 *462:56 *493:10 0.000820303
25 *462:56 *498:20 0.000509657
26 *462:88 *12144:BEN[23] 1.79536e-05
27 *462:88 *480:66 8.38995e-05
28 *462:88 *484:55 8.63143e-05
29 *845:DIODE *462:12 0.000183745
30 *12154:TM *462:60 0.000162325
31 *133:14 *462:36 1.79483e-05
32 *171:16 *462:12 0.000146751
33 *201:9 *12124:DI[23] 1.04217e-05
34 *233:19 *12134:DI[23] 3.00058e-05
35 *233:19 *462:36 0
36 *234:17 *462:36 0
37 *236:11 *462:12 0.00270964
38 *239:11 *462:56 0.00400709
39 *241:11 *462:12 0.0100785
40 *241:11 *462:54 0.000137791
41 *265:9 *12144:DI[23] 2.80029e-05
42 *265:9 *462:88 0.000151979
43 *297:9 *12154:DI[23] 0
44 *297:9 *462:68 0
45 *297:11 *462:60 0
46 *297:11 *462:68 0
47 *313:29 *462:36 0.00525921
48 *358:8 *462:56 0.0036679
49 *358:8 *462:60 0.00224261
50 *443:16 *462:56 0.00141122
51 *443:18 *462:12 0.0028182
52 *443:18 *462:54 0.000144655
53 *443:18 *462:56 0
54 *443:56 *462:56 0.00646149
55 *443:56 *462:60 0.00287272
56 *449:64 *462:60 0
57 *458:46 *462:56 0
58 *458:46 *462:60 0.00223192
*RES
1 *12118:X *462:10 7.515
2 *462:10 *462:12 118.935
3 *462:12 *462:16 8.66
4 *462:16 *12134:DI[23] 0.945
5 *462:16 *462:36 48.0989
6 *462:36 *12124:DI[23] 3.605
7 *462:12 *462:54 7.465
8 *462:54 *462:56 212.438
9 *462:56 *462:58 0.45
10 *462:58 *462:60 108.78
11 *462:60 *462:68 17.5175
12 *462:68 *12154:DI[23] 1.83
13 *462:68 *462:88 48.6672
14 *462:88 *12144:DI[23] 2.975
*END

*D_NET *463 0.0557252
*CONN
*I *12083:A I *D sky130_fd_sc_hd__buf_12
*I *12179:X O *D sky130_fd_sc_hd__buf_12
*CAP
1 *12083:A 0.000704996
2 *12179:X 0.00302022
3 *463:16 0.0205354
4 *463:14 0.0228506
5 *463:14 *11904:C1 4.13879e-05
6 *463:14 *11907:A2 0.000226816
7 *463:14 *485:14 0.002652
8 *463:14 *601:24 0
9 *463:14 *611:26 0.00013827
10 *463:14 *630:129 1.10469e-05
11 *463:14 *630:152 8.47518e-05
12 *11913:B2 *463:16 0.00021634
13 *12085:A *463:14 0
14 *163:16 *12083:A 0.00120889
15 *207:23 *463:16 0.000129951
16 *287:30 *12083:A 0.00293303
17 *304:25 *12083:A 0.000971586
*RES
1 *12179:X *463:14 16.9628
2 *463:14 *463:16 53.3545
3 *463:16 *12083:A 9.52463
*END

*D_NET *464 0.00213095
*CONN
*I *12117:A I *D sky130_fd_sc_hd__dlygate4sd3_1
*I *12119:X O *D sky130_fd_sc_hd__dlygate4sd3_1
*CAP
1 *12117:A 0.000719199
2 *12119:X 0.000719199
3 *12117:A *541:10 8.75204e-05
4 wbs_dat_o[23] *12117:A 0.000318091
5 *12116:A *12117:A 0
6 *12119:A *12117:A 0.000134314
7 *12120:A *12117:A 0.00015263
*RES
1 *12119:X *12117:A 20.91
*END

*D_NET *465 8.50076e-05
*CONN
*I *12187:A I *D sky130_fd_sc_hd__buf_12
*I *12120:X O *D sky130_fd_sc_hd__dlygate4sd3_1
*CAP
1 *12187:A 1.82156e-05
2 *12120:X 1.82156e-05
3 *12187:A *12235:A 4.85763e-05
*RES
1 *12120:X *12187:A 3.65
*END

*D_NET *466 0.00189455
*CONN
*I *11939:A I *D sky130_fd_sc_hd__dlygate4sd3_1
*I *12121:X O *D sky130_fd_sc_hd__dlygate4sd3_1
*CAP
1 *11939:A 0.00092783
2 *12121:X 0.00092783
3 *11939:A *11940:A 2.97897e-05
4 *11939:A *12236:A 9.09788e-06
5 *11942:A *11939:A 0
*RES
1 *12121:X *11939:A 17.88
*END

*D_NET *467 0.16968
*CONN
*I *12154:DI[24] I *D CF_SRAM_1024x32
*I *12144:DI[24] I *D CF_SRAM_1024x32
*I *12124:DI[24] I *D CF_SRAM_1024x32
*I *12134:DI[24] I *D CF_SRAM_1024x32
*I *12122:X O *D sky130_fd_sc_hd__buf_12
*CAP
1 *12154:DI[24] 0.000337368
2 *12144:DI[24] 0.0169525
3 *12124:DI[24] 0.01816
4 *12134:DI[24] 6.12059e-05
5 *12122:X 0
6 *467:54 0.0172898
7 *467:52 0.00712338
8 *467:50 0.00712338
9 *467:28 0.0183882
10 *467:12 0.00137132
11 *467:8 0.00677512
12 *467:6 0.00569323
13 *12124:DI[24] *12216:A 0
14 *12124:DI[24] *511:14 8.54618e-06
15 *12124:DI[24] *513:54 7.6252e-05
16 *12124:DI[24] *515:64 0
17 *12124:DI[24] *520:14 1.19545e-05
18 *12124:DI[24] *550:43 0.0012784
19 *12144:DI[24] *638:160 4.3606e-06
20 *12144:DI[24] *638:184 0.000119306
21 *12154:DI[24] *480:66 1.79536e-05
22 *12154:DI[24] *484:55 1.79536e-05
23 *12154:DI[24] *638:184 0
24 *467:8 *627:144 0.000158385
25 *467:12 *12114:A 1.98978e-05
26 *467:28 *550:43 0.000112136
27 *467:52 *476:56 0.0292895
28 *467:52 *489:34 6.77134e-05
29 *467:52 *489:59 0.0002799
30 *467:52 *493:51 0.00035758
31 *467:52 *498:26 0.000164021
32 *467:52 *498:47 0.0254188
33 *133:14 *12124:DI[24] 1.79483e-05
34 *202:13 *12124:DI[24] 1.16646e-05
35 *234:17 *12124:DI[24] 0
36 *234:17 *12134:DI[24] 4.26079e-05
37 *234:17 *467:28 0
38 *238:11 *467:8 0.010382
39 *266:9 *12144:DI[24] 0
40 *298:19 *12144:DI[24] 0.00225143
41 *298:19 *12154:DI[24] 0.00020748
42 *307:25 *467:52 0
43 *458:12 *467:28 8.81476e-05
*RES
1 *12122:X *467:6 3.6
2 *467:6 *467:8 123.015
3 *467:8 *467:12 14.525
4 *467:12 *12134:DI[24] 1.215
5 *467:12 *467:28 4.79577
6 *467:28 *12124:DI[24] 48.4544
7 *467:28 *467:50 0.5
8 *467:50 *467:52 55.594
9 *467:52 *467:54 0.5
10 *467:54 *12144:DI[24] 47.5762
11 *467:54 *12154:DI[24] 4.62903
*END

*D_NET *468 0.000314802
*CONN
*I *12121:A I *D sky130_fd_sc_hd__dlygate4sd3_1
*I *12123:X O *D sky130_fd_sc_hd__dlygate4sd3_1
*CAP
1 *12121:A 0.000157401
2 *12123:X 0.000157401
*RES
1 *12123:X *12121:A 9.375
*END

*D_NET *469 5.97061e-05
*CONN
*I *12188:A I *D sky130_fd_sc_hd__buf_12
*I *11939:X O *D sky130_fd_sc_hd__dlygate4sd3_1
*CAP
1 *12188:A 2.9853e-05
2 *11939:X 2.9853e-05
*RES
1 *11939:X *12188:A 3.65
*END

*D_NET *470 0.000133079
*CONN
*I *11943:A I *D sky130_fd_sc_hd__dlygate4sd3_1
*I *11940:X O *D sky130_fd_sc_hd__dlygate4sd3_1
*CAP
1 *11943:A 6.65395e-05
2 *11940:X 6.65395e-05
*RES
1 *11940:X *11943:A 3.995
*END

*D_NET *471 0.184153
*CONN
*I *12124:DI[25] I *D CF_SRAM_1024x32
*I *12144:DI[25] I *D CF_SRAM_1024x32
*I *12154:DI[25] I *D CF_SRAM_1024x32
*I *12134:DI[25] I *D CF_SRAM_1024x32
*I *11941:X O *D sky130_fd_sc_hd__buf_12
*CAP
1 *12124:DI[25] 0.000147592
2 *12144:DI[25] 0.0170051
3 *12154:DI[25] 6.42984e-05
4 *12134:DI[25] 0.000676315
5 *11941:X 0.000891003
6 *471:104 0.0135035
7 *471:56 0.0170942
8 *471:54 0.0143457
9 *471:52 0.0144662
10 *471:42 0.0135519
11 *471:30 0.00255262
12 *471:28 0.00281796
13 *12144:DI[25] *12144:BEN[25] 6.32637e-06
14 *12144:DI[25] *638:184 0
15 *12154:DI[25] *480:66 8.41703e-06
16 *12154:DI[25] *484:71 1.16624e-05
17 *471:28 *11963:A 8.5002e-05
18 *471:28 *476:14 0.000609352
19 *471:28 *489:10 0.00038674
20 *471:28 *493:8 8.23457e-05
21 *471:28 *569:22 0.00105792
22 *471:42 *12134:BEN[25] 0
23 *471:52 *12134:BEN[25] 0.000195983
24 *471:54 *480:66 1.46455e-05
25 *471:54 *484:53 2.71234e-05
26 *471:54 *484:55 0.0257068
27 *471:54 *489:59 0.00686731
28 *471:54 *550:82 0.000722924
29 *471:54 *550:92 0.00071781
30 *471:54 *550:102 0.000728884
31 *471:54 *550:114 0.000728884
32 *471:104 *12134:BEN[25] 4.00541e-06
33 *471:104 *12216:A 0
34 *471:104 *515:64 0
35 *471:104 *524:14 1.94516e-05
36 *471:104 *550:43 0
37 *471:104 *636:20 2.24445e-05
38 *12134:ScanInCC *471:28 2.05839e-06
39 *203:9 *12124:DI[25] 0
40 *235:19 *12134:DI[25] 7.14179e-05
41 *235:19 *471:104 0
42 *236:11 *471:28 0.000569747
43 *236:11 *471:30 0.00871158
44 *239:11 *471:30 0.00871158
45 *239:23 *471:28 0.00141946
46 *258:21 *12124:DI[25] 1.79536e-05
47 *267:9 *12144:DI[25] 0
48 *281:27 *12124:DI[25] 1.93834e-05
49 *299:15 *12144:DI[25] 0.00299941
50 *299:15 *12154:DI[25] 1.72047e-05
51 *300:15 *12144:DI[25] 0
52 *307:25 *471:104 0.000799194
53 *307:37 *471:104 0.0248564
54 *382:88 *471:104 4.11223e-05
55 *454:16 *12134:DI[25] 2.01259e-05
56 *454:16 *471:52 4.01019e-05
57 *454:16 *471:54 3.91272e-05
58 *454:16 *471:104 8.23457e-05
59 *458:12 *471:104 4.11223e-05
60 *462:12 *471:28 0.000573074
*RES
1 *11941:X *471:28 43.85
2 *471:28 *471:30 99.81
3 *471:30 *12134:DI[25] 11.075
4 *12134:DI[25] *471:42 1.14
5 *471:42 *471:52 5.2775
6 *471:52 *471:54 327.525
7 *471:54 *471:56 0.45
8 *471:56 *12154:DI[25] 3.1775
9 *471:56 *12144:DI[25] 48.5564
10 *471:42 *471:104 49.9597
11 *471:104 *12124:DI[25] 4.2425
*END

*D_NET *472 0.0012131
*CONN
*I *11940:A I *D sky130_fd_sc_hd__dlygate4sd3_1
*I *11942:X O *D sky130_fd_sc_hd__dlygate4sd3_1
*CAP
1 *11940:A 0.000510579
2 *11942:X 0.000510579
3 *11940:A *552:10 0
4 *11940:A *563:12 1.56428e-05
5 *11939:A *11940:A 2.97897e-05
6 *11942:A *11940:A 0.000146507
*RES
1 *11942:X *11940:A 13.515
*END

*D_NET *473 0.000370045
*CONN
*I *12189:A I *D sky130_fd_sc_hd__buf_12
*I *11943:X O *D sky130_fd_sc_hd__dlygate4sd3_1
*CAP
1 *12189:A 0.000185022
2 *11943:X 0.000185022
*RES
1 *11943:X *12189:A 9.375
*END

*D_NET *474 0.0506178
*CONN
*I *12087:A I *D sky130_fd_sc_hd__buf_12
*I *12180:X O *D sky130_fd_sc_hd__buf_12
*CAP
1 *12087:A 0.00318562
2 *12180:X 0.00137226
3 *474:16 0.0225063
4 *474:14 0.0206929
5 *12087:A *637:133 0.000157245
6 *474:14 *11907:B1 0
7 *474:14 *627:41 0
8 *1000:DIODE *12087:A 4.18147e-05
9 *163:16 *12087:A 0.000181082
10 *165:14 *12087:A 0.00131804
11 *171:10 *12087:A 0
12 *230:25 *474:14 0.000129461
13 *269:34 *12087:A 0.000425236
14 *287:30 *12087:A 0.000607817
15 *300:25 *12087:A 0
16 *301:25 *12087:A 0
17 *302:23 *12087:A 0
*RES
1 *12180:X *474:14 17.6202
2 *474:14 *474:16 52.4932
3 *474:16 *12087:A 13.0206
*END

*D_NET *475 0.000694226
*CONN
*I *11947:A I *D sky130_fd_sc_hd__dlygate4sd3_1
*I *11944:X O *D sky130_fd_sc_hd__dlygate4sd3_1
*CAP
1 *11947:A 0.000290923
2 *11944:X 0.000290923
3 *11947:A *12238:A 0
4 *11951:A *11947:A 0.00011238
*RES
1 *11944:X *11947:A 11.79
*END

*D_NET *476 0.175631
*CONN
*I *12154:DI[26] I *D CF_SRAM_1024x32
*I *12144:DI[26] I *D CF_SRAM_1024x32
*I *12124:DI[26] I *D CF_SRAM_1024x32
*I *12134:DI[26] I *D CF_SRAM_1024x32
*I *11945:X O *D sky130_fd_sc_hd__buf_12
*CAP
1 *12154:DI[26] 0.000557266
2 *12144:DI[26] 0.0175825
3 *12124:DI[26] 0.0240447
4 *12134:DI[26] 0.000157352
5 *11945:X 0.00123755
6 *476:58 0.0181398
7 *476:56 0.01068
8 *476:54 0.01068
9 *476:36 0.0245357
10 *476:20 0.00138054
11 *476:16 0.00692452
12 *476:14 0.00742993
13 *12144:DI[26] *638:309 4.3606e-06
14 *12154:DI[26] *638:209 1.79483e-05
15 *476:14 *489:10 0.000251915
16 *476:14 *498:20 2.10433e-05
17 *476:14 *569:22 0.000700432
18 *476:16 *480:18 0.00957892
19 *476:16 *489:10 2.25106e-05
20 *476:16 *498:20 0.00205618
21 *476:56 *498:47 0.000847353
22 *204:21 *12124:DI[26] 0.000289011
23 *236:9 *12134:DI[26] 1.77298e-05
24 *236:9 *476:20 6.01059e-05
25 *268:9 *12144:DI[26] 0.000179982
26 *287:24 *476:56 0.00259286
27 *292:19 *476:56 0.00137368
28 *300:15 *12144:DI[26] 0
29 *300:15 *12154:DI[26] 0.000114414
30 *301:15 *12144:DI[26] 0.00158083
31 *301:15 *12154:DI[26] 0.000452359
32 *303:23 *476:56 0
33 *307:25 *476:56 0
34 *312:21 *476:56 0.00210033
35 *382:88 *476:36 6.02846e-05
36 *458:12 *476:36 6.02846e-05
37 *467:52 *476:56 0.0292895
38 *471:28 *476:14 0.000609352
*RES
1 *11945:X *476:14 25.7475
2 *476:14 *476:16 110.137
3 *476:16 *476:20 11.075
4 *476:20 *12134:DI[26] 2.28
5 *476:20 *476:36 4.0671
6 *476:36 *12124:DI[26] 47.4596
7 *476:36 *476:54 0.5
8 *476:54 *476:56 55.594
9 *476:56 *476:58 0.5
10 *476:58 *12144:DI[26] 47.5429
11 *476:58 *12154:DI[26] 6.52537
*END

*D_NET *477 0.00177193
*CONN
*I *11944:A I *D sky130_fd_sc_hd__dlygate4sd3_1
*I *11946:X O *D sky130_fd_sc_hd__dlygate4sd3_1
*CAP
1 *11944:A 0.000787054
2 *11946:X 0.000787054
3 wbs_dat_o[27] *11944:A 0
4 *834:DIODE *11944:A 0.000197822
5 *11951:A *11944:A 0
*RES
1 *11946:X *11944:A 19.575
*END

*D_NET *478 0.000520631
*CONN
*I *12190:A I *D sky130_fd_sc_hd__buf_12
*I *11947:X O *D sky130_fd_sc_hd__dlygate4sd3_1
*CAP
1 *12190:A 0.000210453
2 *11947:X 0.000210453
3 wbs_dat_o[26] *12190:A 6.66916e-05
4 *644:DIODE *12190:A 3.30343e-05
5 *834:DIODE *12190:A 0
*RES
1 *11947:X *12190:A 10.875
*END

*D_NET *479 0.000556439
*CONN
*I *11952:A I *D sky130_fd_sc_hd__dlygate4sd3_1
*I *11948:X O *D sky130_fd_sc_hd__dlygate4sd3_1
*CAP
1 *11952:A 0.000269527
2 *11948:X 0.000269527
3 *11952:A *11948:A 1.7386e-05
4 *11952:A *12191:A 0
5 *11952:A *12239:A 0
*RES
1 *11948:X *11952:A 11.07
*END

*D_NET *480 0.186626
*CONN
*I *12144:DI[27] I *D CF_SRAM_1024x32
*I *12154:DI[27] I *D CF_SRAM_1024x32
*I *12124:DI[27] I *D CF_SRAM_1024x32
*I *12134:DI[27] I *D CF_SRAM_1024x32
*I *11950:X O *D sky130_fd_sc_hd__buf_12
*CAP
1 *12144:DI[27] 0.0199993
2 *12154:DI[27] 0.000110206
3 *12124:DI[27] 0.0268331
4 *12134:DI[27] 0.000162059
5 *11950:X 0.000646546
6 *480:66 0.0212213
7 *480:64 0.00248332
8 *480:58 0.00736208
9 *480:56 0.00670847
10 *480:34 0.0275667
11 *480:22 0.000893994
12 *480:18 0.0032144
13 *480:16 0.00314462
14 *12144:DI[27] *12144:BEN[27] 0
15 *12144:DI[27] *484:71 2.99647e-05
16 *12144:DI[27] *638:221 6.18047e-05
17 *12144:DI[27] *638:325 1.79536e-05
18 *480:16 *484:12 0.000459802
19 *480:16 *489:10 0.000171181
20 *480:16 *493:10 0.000465004
21 *480:16 *570:16 0.000703758
22 *480:18 *489:10 0.0103448
23 *480:18 *498:20 0.00235115
24 *480:56 *12134:BEN[31] 0.000420386
25 *480:56 *484:53 0.000506758
26 *480:56 *484:55 1.10631e-05
27 *480:56 *489:34 3.97748e-05
28 *480:56 *550:128 0.000706776
29 *480:58 *12134:BEN[31] 0.000228106
30 *480:58 *12154:AD[0] 1.79536e-05
31 *480:58 *12154:AD[1] 4.81484e-06
32 *480:58 *12154:AD[2] 3.69766e-05
33 *480:58 *12154:EN 3.97748e-05
34 *480:58 *12154:BEN[15] 2.05004e-05
35 *480:58 *12154:BEN[8] 0.000285539
36 *480:58 *12154:AD[3] 1.7635e-05
37 *480:58 *12154:AD[4] 1.79536e-05
38 *480:58 *12154:AD[5] 1.79483e-05
39 *480:58 *12154:AD[6] 1.79536e-05
40 *480:58 *12154:AD[7] 1.7635e-05
41 *480:58 *12154:AD[8] 1.79536e-05
42 *480:58 *12154:AD[9] 1.79483e-05
43 *480:58 *12154:BEN[0] 0.000322304
44 *480:58 *484:55 0.0194831
45 *480:58 *557:293 0.000404048
46 *480:58 *557:305 0.000285276
47 *480:58 *557:317 0.00043752
48 *480:58 *557:329 0.000336429
49 *480:58 *557:341 0.000360065
50 *480:58 *557:353 0.000359154
51 *480:58 *560:266 4.5636e-05
52 *480:58 *560:278 0.000372655
53 *480:58 *560:290 0.000322304
54 *480:58 *560:302 0.000372655
55 *480:58 *560:314 0.000333349
56 *480:58 *560:334 0.000316828
57 *480:58 *560:346 0.000310077
58 *480:58 *639:174 0.000232744
59 *480:58 *639:194 0.000133176
60 *480:64 *484:55 8.2567e-05
61 *480:64 *639:194 0.000332717
62 *480:64 *639:206 0.000770119
63 *480:64 *639:218 0.000644976
64 *480:64 *639:234 0.000548895
65 *480:64 *639:252 0.000192943
66 *480:66 *12154:BEN[23] 0.000673585
67 *480:66 *484:55 0.00111088
68 *480:66 *484:71 0.000229724
69 *480:66 *638:184 8.38966e-05
70 *480:66 *638:196 0.000612532
71 *480:66 *638:209 0.000723358
72 *480:66 *638:221 0.00032202
73 *480:66 *639:252 0.000304626
74 *12154:CLKin *480:58 3.97748e-05
75 *12154:R_WB *480:58 1.79536e-05
76 *12154:DI[12] *480:58 1.79483e-05
77 *12154:DI[0] *480:58 1.79536e-05
78 *12154:DI[4] *480:58 0.000166107
79 *12154:DI[14] *480:58 3.97748e-05
80 *12154:DI[11] *480:58 1.79536e-05
81 *12154:DI[1] *480:58 1.79536e-05
82 *12154:DI[9] *480:58 1.79536e-05
83 *12154:DI[6] *480:58 1.79536e-05
84 *12154:DI[7] *480:58 1.79536e-05
85 *12154:DI[13] *480:58 1.7635e-05
86 *12154:DI[8] *480:58 1.79536e-05
87 *12154:DI[24] *480:66 1.79536e-05
88 *12154:DI[16] *480:58 3.97748e-05
89 *12154:DI[25] *480:66 8.41703e-06
90 *237:9 *12134:DI[27] 0
91 *237:9 *480:22 0
92 *239:23 *480:16 0.000769671
93 *269:12 *12144:DI[27] 2.47221e-05
94 *281:27 *12124:DI[27] 8.41703e-06
95 *282:25 *480:58 3.97719e-05
96 *283:21 *480:58 6.18018e-05
97 *284:24 *480:58 1.79483e-05
98 *285:21 *480:58 1.79483e-05
99 *287:24 *480:58 3.97748e-05
100 *288:24 *480:58 1.79483e-05
101 *289:21 *480:58 1.7635e-05
102 *290:21 *480:58 0.000252921
103 *291:17 *480:64 1.7635e-05
104 *292:19 *480:64 4.81484e-06
105 *293:17 *480:58 1.79536e-05
106 *295:23 *480:64 1.79483e-05
107 *296:21 *480:64 1.7635e-05
108 *298:19 *480:66 2.0798e-05
109 *299:15 *480:66 1.96602e-05
110 *300:15 *480:66 0.000259564
111 *301:15 *12154:DI[27] 6.47772e-05
112 *301:15 *480:66 0.000650729
113 *302:15 *12144:DI[27] 0
114 *304:21 *480:58 3.97719e-05
115 *307:25 *480:58 1.79536e-05
116 *308:17 *480:58 1.79536e-05
117 *309:17 *480:58 1.79536e-05
118 *310:17 *480:58 1.79536e-05
119 *311:21 *480:58 1.79536e-05
120 *312:21 *480:58 1.79483e-05
121 *313:21 *480:58 1.79483e-05
122 *360:98 *480:58 3.97748e-05
123 *382:88 *480:34 3.91191e-05
124 *382:88 *480:56 0.00281049
125 *382:88 *480:58 0.00155948
126 *400:109 *480:58 1.79536e-05
127 *409:36 *480:58 4.18862e-05
128 *415:84 *480:58 1.79536e-05
129 *426:78 *480:58 1.92979e-05
130 *432:50 *480:58 0
131 *432:54 *480:58 0
132 *432:78 *480:64 4.47054e-05
133 *454:76 *480:64 8.38995e-05
134 *458:12 *480:34 3.91191e-05
135 *458:12 *480:56 0.000709808
136 *458:70 *480:64 4.08276e-05
137 *458:70 *480:66 1.25667e-05
138 *462:88 *480:66 8.38995e-05
139 *471:54 *480:66 1.46455e-05
140 *476:16 *480:18 0.00957892
*RES
1 *11950:X *480:16 27.925
2 *480:16 *480:18 118.425
3 *480:18 *480:22 10.73
4 *480:22 *12134:DI[27] 2.235
5 *480:22 *480:34 2.4875
6 *480:34 *12124:DI[27] 49.2412
7 *480:34 *480:56 33.54
8 *480:56 *480:58 221.955
9 *480:58 *480:64 35.01
10 *480:64 *480:66 40.7775
11 *480:66 *12154:DI[27] 3.98
12 *480:66 *12144:DI[27] 49.2655
*END

*D_NET *481 0.00160547
*CONN
*I *11948:A I *D sky130_fd_sc_hd__dlygate4sd3_1
*I *11951:X O *D sky130_fd_sc_hd__dlygate4sd3_1
*CAP
1 *11948:A 0.000539591
2 *11951:X 0.000539591
3 *11948:A *12191:A 0.000503714
4 *11948:A *568:14 5.18317e-06
5 wbs_dat_o[27] *11948:A 0
6 *11952:A *11948:A 1.7386e-05
*RES
1 *11951:X *11948:A 16.77
*END

*D_NET *482 0.0010031
*CONN
*I *12191:A I *D sky130_fd_sc_hd__buf_12
*I *11952:X O *D sky130_fd_sc_hd__dlygate4sd3_1
*CAP
1 *12191:A 0.000232239
2 *11952:X 0.000232239
3 *12191:A *12239:A 3.49086e-05
4 *11948:A *12191:A 0.000503714
5 *11952:A *12191:A 0
*RES
1 *11952:X *12191:A 12.705
*END

*D_NET *483 6.11763e-05
*CONN
*I *11956:A I *D sky130_fd_sc_hd__dlygate4sd3_1
*I *11953:X O *D sky130_fd_sc_hd__dlygate4sd3_1
*CAP
1 *11956:A 3.05882e-05
2 *11953:X 3.05882e-05
*RES
1 *11953:X *11956:A 3.65
*END

*D_NET *484 0.183522
*CONN
*I *12144:DI[28] I *D CF_SRAM_1024x32
*I *12154:DI[28] I *D CF_SRAM_1024x32
*I *12124:DI[28] I *D CF_SRAM_1024x32
*I *12134:DI[28] I *D CF_SRAM_1024x32
*I *11954:X O *D sky130_fd_sc_hd__buf_12
*CAP
1 *12144:DI[28] 0.0241937
2 *12154:DI[28] 6.10922e-05
3 *12124:DI[28] 0.0188123
4 *12134:DI[28] 0.0001107
5 *11954:X 0.000537151
6 *484:71 0.0253559
7 *484:55 0.00656539
8 *484:53 0.0057371
9 *484:30 0.0191066
10 *484:18 0.000643541
11 *484:14 0.00325936
12 *484:12 0.00328519
13 *12144:DI[28] *638:233 1.02147e-05
14 *12144:DI[28] *638:337 1.79536e-05
15 *484:12 *11954:A 8.23457e-05
16 *484:12 *493:10 1.10631e-05
17 *484:12 *570:16 0.000344608
18 *484:14 *493:10 0.0109364
19 *484:14 *498:20 0.00156753
20 *484:30 *550:102 8.63143e-05
21 *484:53 *489:34 3.97748e-05
22 *484:53 *550:102 0.000309004
23 *484:53 *550:114 0.000737415
24 *484:53 *550:128 6.42222e-05
25 *484:55 *12134:BEN[31] 0.000164432
26 *484:55 *12134:DI[31] 0.000128993
27 *484:55 *493:30 6.32345e-05
28 *484:55 *550:128 0.000343066
29 *484:55 *639:206 0.000161865
30 *484:55 *639:218 0.000200073
31 *484:55 *639:234 0.000686277
32 *484:55 *639:252 0.000411415
33 *484:71 *638:221 0.000139658
34 *484:71 *638:233 0.000209138
35 *12144:DI[27] *484:71 2.99647e-05
36 *12154:DI[24] *484:55 1.79536e-05
37 *12154:DI[25] *484:71 1.16624e-05
38 *135:34 *12124:DI[28] 0
39 *206:9 *12124:DI[28] 0
40 *236:11 *484:12 0.000231239
41 *238:9 *12134:DI[28] 3.37917e-05
42 *238:9 *484:18 0.000240865
43 *239:11 *484:14 0.00419418
44 *239:23 *484:12 0.000816076
45 *239:23 *484:14 1.61461e-05
46 *281:11 *12124:DI[28] 1.79536e-05
47 *291:17 *484:55 7.96104e-06
48 *292:19 *484:55 0.000426898
49 *294:19 *484:55 0.000214508
50 *298:19 *484:55 2.0798e-05
51 *299:15 *484:55 1.96602e-05
52 *299:15 *484:71 2.40721e-05
53 *300:15 *484:71 0.00026941
54 *301:15 *484:71 0.000672081
55 *302:15 *12154:DI[28] 2.36305e-05
56 *302:15 *484:71 0.000353931
57 *303:23 *12144:DI[28] 0
58 *432:78 *484:55 8.53464e-05
59 *443:80 *484:55 8.63143e-05
60 *449:88 *484:55 8.63143e-05
61 *458:10 *484:18 0
62 *458:12 *484:30 8.38995e-05
63 *458:12 *484:53 6.32199e-05
64 *462:56 *484:14 0.0033868
65 *462:88 *484:55 8.63143e-05
66 *471:54 *484:53 2.71234e-05
67 *471:54 *484:55 0.0257068
68 *480:16 *484:12 0.000459802
69 *480:56 *484:53 0.000506758
70 *480:56 *484:55 1.10631e-05
71 *480:58 *484:55 0.0194831
72 *480:64 *484:55 8.2567e-05
73 *480:66 *484:55 0.00111088
74 *480:66 *484:71 0.000229724
*RES
1 *11954:X *484:12 20.5725
2 *484:12 *484:14 125.183
3 *484:14 *484:18 10.385
4 *484:18 *12134:DI[28] 1.875
5 *484:18 *484:30 2.9975
6 *484:30 *12124:DI[28] 48.4647
7 *484:30 *484:53 12.81
8 *484:53 *484:55 292.703
9 *484:55 *484:71 31.2925
10 *484:71 *12154:DI[28] 3.0875
11 *484:71 *12144:DI[28] 48.7497
*END

*D_NET *485 0.05406
*CONN
*I *12098:A I *D sky130_fd_sc_hd__buf_12
*I *12181:X O *D sky130_fd_sc_hd__buf_12
*CAP
1 *12098:A 0.000514843
2 *12181:X 0.00352453
3 *485:16 0.0198705
4 *485:14 0.0228802
5 *485:14 *11907:A2 0.000162898
6 *485:14 *507:14 0.00308603
7 *485:14 *611:28 0.000269081
8 *111:37 *485:14 0.000119831
9 *162:14 *485:14 8.69417e-06
10 *164:30 *485:14 0.000111324
11 *173:10 *12098:A 0
12 *182:42 *485:14 0.00013827
13 *304:25 *12098:A 0.000245661
14 *311:25 *12098:A 0.000476167
15 *463:14 *485:14 0.002652
*RES
1 *12181:X *485:14 13.4285
2 *485:14 *485:16 52.9239
3 *485:16 *12098:A 9.43823
*END

*D_NET *486 0.0019508
*CONN
*I *11953:A I *D sky130_fd_sc_hd__dlygate4sd3_1
*I *11955:X O *D sky130_fd_sc_hd__dlygate4sd3_1
*CAP
1 *11953:A 0.000707254
2 *11955:X 0.000707254
3 *11953:A *569:16 0.000425003
4 wbs_dat_o[28] *11953:A 0
5 *11955:A *11953:A 0.000111285
*RES
1 *11955:X *11953:A 17.52
*END

*D_NET *487 0.000590809
*CONN
*I *12192:A I *D sky130_fd_sc_hd__buf_12
*I *11956:X O *D sky130_fd_sc_hd__dlygate4sd3_1
*CAP
1 *12192:A 0.000240689
2 *11956:X 0.000240689
3 *12192:A *12240:A 0.000109431
4 wbs_dat_o[28] *12192:A 0
*RES
1 *11956:X *12192:A 10.875
*END

*D_NET *488 0.00141807
*CONN
*I *11961:A I *D sky130_fd_sc_hd__dlygate4sd3_1
*I *11957:X O *D sky130_fd_sc_hd__dlygate4sd3_1
*CAP
1 *11961:A 0.00044567
2 *11957:X 0.00044567
3 *11961:A *11957:A 8.64421e-05
4 *11961:A *568:22 0
5 *11961:A *569:16 0.000234164
6 *11961:A *570:14 0
7 wbs_dat_o[29] *11961:A 0.000206123
*RES
1 *11957:X *11961:A 15.195
*END

*D_NET *489 0.180715
*CONN
*I *12154:DI[29] I *D CF_SRAM_1024x32
*I *12144:DI[29] I *D CF_SRAM_1024x32
*I *12124:DI[29] I *D CF_SRAM_1024x32
*I *12134:DI[29] I *D CF_SRAM_1024x32
*I *11958:X O *D sky130_fd_sc_hd__buf_12
*CAP
1 *12154:DI[29] 0.000137302
2 *12144:DI[29] 0.017148
3 *12124:DI[29] 0.0187835
4 *12134:DI[29] 0.000136495
5 *11958:X 6.34343e-05
6 *489:61 0.0172853
7 *489:59 0.0176645
8 *489:34 0.0367638
9 *489:14 0.00099242
10 *489:10 0.00344332
11 *489:8 0.00296666
12 *12144:DI[29] *12144:BEN[29] 0
13 *12144:DI[29] *638:349 1.79536e-05
14 *12154:DI[29] *12154:BEN[29] 0
15 *12154:DI[29] *638:245 5.80184e-06
16 *489:10 *493:10 0.0121415
17 *489:10 *498:20 0.00233305
18 *489:59 *493:51 0.0299938
19 *135:34 *12124:DI[29] 0
20 *207:13 *12124:DI[29] 1.04275e-05
21 *239:9 *12134:DI[29] 4.25256e-05
22 *239:9 *489:14 0.000219268
23 *239:23 *489:10 5.39961e-05
24 *271:9 *12144:DI[29] 0
25 *281:11 *12124:DI[29] 1.79536e-05
26 *303:23 *12144:DI[29] 0
27 *303:23 *12154:DI[29] 2.66619e-05
28 *305:15 *12144:DI[29] 0.0011811
29 *305:15 *12154:DI[29] 2.3062e-05
30 *454:52 *489:10 0.000199062
31 *458:46 *489:10 0.000592103
32 *467:52 *489:34 6.77134e-05
33 *467:52 *489:59 0.0002799
34 *471:28 *489:10 0.00038674
35 *471:54 *489:59 0.00686731
36 *476:14 *489:10 0.000251915
37 *476:16 *489:10 2.25106e-05
38 *480:16 *489:10 0.000171181
39 *480:18 *489:10 0.0103448
40 *480:56 *489:34 3.97748e-05
41 *484:53 *489:34 3.97748e-05
*RES
1 *11958:X *489:8 4.395
2 *489:8 *489:10 143.16
3 *489:10 *489:14 10.73
4 *489:14 *12134:DI[29] 2.235
5 *489:14 *489:34 4.0841
6 *489:34 *12124:DI[29] 48.509
7 *489:34 *489:59 55.594
8 *489:59 *489:61 0.5
9 *489:61 *12144:DI[29] 47.7608
10 *489:61 *12154:DI[29] 3.69617
*END

*D_NET *490 0.00140791
*CONN
*I *11957:A I *D sky130_fd_sc_hd__dlygate4sd3_1
*I *11959:X O *D sky130_fd_sc_hd__dlygate4sd3_1
*CAP
1 *11957:A 0.000522263
2 *11959:X 0.000522263
3 *11957:A *12193:A 0.000136415
4 *11957:A *12240:A 1.19928e-05
5 wbs_dat_o[29] *11957:A 0.000128537
6 *11961:A *11957:A 8.64421e-05
*RES
1 *11959:X *11957:A 14.565
*END

*D_NET *491 0.000826926
*CONN
*I *12193:A I *D sky130_fd_sc_hd__buf_12
*I *11961:X O *D sky130_fd_sc_hd__dlygate4sd3_1
*CAP
1 *12193:A 0.000195823
2 *11961:X 0.000195823
3 *12193:A *569:16 0.000298864
4 *11957:A *12193:A 0.000136415
*RES
1 *11961:X *12193:A 11.325
*END

*D_NET *492 0.00115079
*CONN
*I *11965:A I *D sky130_fd_sc_hd__dlygate4sd3_1
*I *11962:X O *D sky130_fd_sc_hd__dlygate4sd3_1
*CAP
1 *11965:A 0.000496843
2 *11962:X 0.000496843
3 *11965:A *11962:A 3.64998e-06
4 *11965:A *12195:A 0
5 *11965:A *572:8 0.000106422
6 wbs_dat_o[30] *11965:A 4.70343e-05
*RES
1 *11962:X *11965:A 14.175
*END

*D_NET *493 0.181567
*CONN
*I *12154:DI[30] I *D CF_SRAM_1024x32
*I *12144:DI[30] I *D CF_SRAM_1024x32
*I *12124:DI[30] I *D CF_SRAM_1024x32
*I *12134:DI[30] I *D CF_SRAM_1024x32
*I *11963:X O *D sky130_fd_sc_hd__buf_12
*CAP
1 *12154:DI[30] 0.000196678
2 *12144:DI[30] 0.0176423
3 *12124:DI[30] 0.0187214
4 *12134:DI[30] 0.000112449
5 *11963:X 7.13626e-05
6 *493:53 0.017839
7 *493:51 0.00615635
8 *493:49 0.00615635
9 *493:30 0.0189345
10 *493:14 0.000982534
11 *493:10 0.00357368
12 *493:8 0.00298804
13 *12144:DI[30] *12144:BEN[30] 0
14 *12144:DI[30] *638:361 1.79536e-05
15 *12154:DI[30] *12154:BEN[30] 1.38716e-05
16 *493:10 *498:20 0.00261996
17 *493:30 *550:128 6.18047e-05
18 *493:51 *498:26 0.000159162
19 *493:51 *498:47 0.0299582
20 *209:11 *12124:DI[30] 2.57979e-05
21 *241:9 *12134:DI[30] 0
22 *241:9 *493:14 0
23 *273:9 *12144:DI[30] 0
24 *281:11 *12124:DI[30] 1.79536e-05
25 *305:15 *12144:DI[30] 0
26 *305:15 *12154:DI[30] 2.6958e-05
27 *306:23 *12144:DI[30] 0
28 *306:23 *12154:DI[30] 0
29 *458:46 *493:10 0.000419522
30 *462:56 *493:10 0.000820303
31 *467:52 *493:51 0.00035758
32 *471:28 *493:8 8.23457e-05
33 *480:16 *493:10 0.000465004
34 *484:12 *493:10 1.10631e-05
35 *484:14 *493:10 0.0109364
36 *484:55 *493:30 6.32345e-05
37 *489:10 *493:10 0.0121415
38 *489:59 *493:51 0.0299938
*RES
1 *11963:X *493:8 4.74
2 *493:8 *493:10 147.495
3 *493:10 *493:14 10.73
4 *493:14 *12134:DI[30] 1.65
5 *493:14 *493:30 3.60097
6 *493:30 *12124:DI[30] 47.6442
7 *493:30 *493:49 0.5
8 *493:49 *493:51 55.6801
9 *493:51 *493:53 0.5
10 *493:53 *12144:DI[30] 47.8064
11 *493:53 *12154:DI[30] 4.0827
*END

*D_NET *494 0.00113159
*CONN
*I *11962:A I *D sky130_fd_sc_hd__dlygate4sd3_1
*I *11964:X O *D sky130_fd_sc_hd__dlygate4sd3_1
*CAP
1 *11962:A 0.000460086
2 *11964:X 0.000460086
3 *11962:A *12195:A 5.42386e-05
4 *11962:A *12242:A 1.47256e-05
5 wbs_dat_o[30] *11962:A 0.000138808
6 *11965:A *11962:A 3.64998e-06
*RES
1 *11964:X *11962:A 13.875
*END

*D_NET *495 0.000607638
*CONN
*I *12195:A I *D sky130_fd_sc_hd__buf_12
*I *11965:X O *D sky130_fd_sc_hd__dlygate4sd3_1
*CAP
1 *12195:A 0.0002767
2 *11965:X 0.0002767
3 wbs_dat_o[30] *12195:A 0
4 *11962:A *12195:A 5.42386e-05
5 *11965:A *12195:A 0
*RES
1 *11965:X *12195:A 11.325
*END

*D_NET *496 0.0568039
*CONN
*I *12081:A I *D sky130_fd_sc_hd__buf_12
*I *12182:X O *D sky130_fd_sc_hd__buf_12
*CAP
1 *12081:A 0.000117813
2 *12182:X 0.00153404
3 *496:36 0.00443787
4 *496:34 0.00575517
5 *496:18 0.00296915
6 *496:18 *588:20 4.43871e-06
7 *496:18 *628:75 0
8 *496:18 *628:86 0
9 *496:34 *12124:BEN[15] 0.00100461
10 *496:34 *575:24 9.59256e-05
11 *496:34 *575:36 0.000561879
12 *496:36 *571:18 0.0179669
13 *496:36 *575:36 0.00251523
14 *496:36 *575:38 0.00021288
15 *496:36 *576:24 0.0148625
16 *496:36 *618:14 8.08116e-05
17 *496:36 *631:218 1.08129e-05
18 *678:DIODE *496:18 7.46313e-05
19 *11829:B2 *496:18 0.00012389
20 *11829:B2 *496:34 0.000700848
21 *11844:B2 *496:18 0.00119332
22 *11871:B2 *496:34 9.90522e-05
23 *12124:vpwrpc *496:34 0.00132028
24 *113:18 *496:18 0
25 *113:18 *496:34 0.000201899
26 *124:28 *496:34 0.000959931
27 *205:11 *496:36 0
*RES
1 *12182:X *496:18 34.1075
2 *496:18 *496:34 45.1575
3 *496:34 *496:36 212.01
4 *496:36 *12081:A 5.085
*END

*D_NET *497 6.11763e-05
*CONN
*I *11969:A I *D sky130_fd_sc_hd__dlygate4sd3_1
*I *11966:X O *D sky130_fd_sc_hd__dlygate4sd3_1
*CAP
1 *11969:A 3.05882e-05
2 *11966:X 3.05882e-05
*RES
1 *11966:X *11969:A 3.65
*END

*D_NET *498 0.180107
*CONN
*I *12134:DI[31] I *D CF_SRAM_1024x32
*I *12154:DI[31] I *D CF_SRAM_1024x32
*I *12144:DI[31] I *D CF_SRAM_1024x32
*I *12124:DI[31] I *D CF_SRAM_1024x32
*I *11967:X O *D sky130_fd_sc_hd__buf_12
*CAP
1 *12134:DI[31] 0.000108545
2 *12154:DI[31] 0.00023263
3 *12144:DI[31] 0.0179764
4 *12124:DI[31] 0.0186464
5 *11967:X 0.0109454
6 *498:49 0.0182091
7 *498:47 0.00698561
8 *498:26 0.0259175
9 *498:20 0.0113394
10 *12134:DI[31] *12134:BEN[31] 0.000124687
11 *12144:DI[31] *12144:BEN[31] 1.79536e-05
12 *12154:DI[31] *12154:BEN[31] 3.95441e-05
13 *210:11 *12124:DI[31] 2.79492e-05
14 *242:9 *12134:DI[31] 0
15 *274:12 *12144:DI[31] 0.000457734
16 *281:11 *12124:DI[31] 1.79536e-05
17 *303:23 *498:47 0
18 *306:23 *12144:DI[31] 0
19 *306:23 *12154:DI[31] 2.74511e-05
20 *454:52 *498:20 0.000468639
21 *458:46 *498:20 0.000429505
22 *462:56 *498:20 0.000509657
23 *467:52 *498:26 0.000164021
24 *467:52 *498:47 0.0254188
25 *476:14 *498:20 2.10433e-05
26 *476:16 *498:20 0.00205618
27 *476:56 *498:47 0.000847353
28 *480:18 *498:20 0.00235115
29 *484:14 *498:20 0.00156753
30 *484:55 *12134:DI[31] 0.000128993
31 *489:10 *498:20 0.00233305
32 *493:10 *498:20 0.00261996
33 *493:51 *498:26 0.000159162
34 *493:51 *498:47 0.0299582
*RES
1 *11967:X *498:20 32.5456
2 *498:20 *498:26 1.2714
3 *498:26 *12124:DI[31] 48.0277
4 *498:26 *498:47 55.6801
5 *498:47 *498:49 0.5
6 *498:49 *12144:DI[31] 47.6898
7 *498:49 *12154:DI[31] 4.13923
8 *498:20 *12134:DI[31] 5.0575
*END

*D_NET *499 0.000383791
*CONN
*I *11966:A I *D sky130_fd_sc_hd__dlygate4sd3_1
*I *11968:X O *D sky130_fd_sc_hd__dlygate4sd3_1
*CAP
1 *11966:A 7.95156e-05
2 *11968:X 7.95156e-05
3 *11966:A *12243:A 0.00011238
4 *11966:A *573:10 0.00011238
*RES
1 *11968:X *11966:A 9.03
*END

*D_NET *500 0.000573122
*CONN
*I *12196:A I *D sky130_fd_sc_hd__buf_12
*I *11969:X O *D sky130_fd_sc_hd__dlygate4sd3_1
*CAP
1 *12196:A 0.000286561
2 *11969:X 0.000286561
3 wbs_dat_o[31] *12196:A 0
*RES
1 *11969:X *12196:A 11.325
*END

*D_NET *501 0.000301925
*CONN
*I *12000:A I *D sky130_fd_sc_hd__dlygate4sd3_1
*I *11970:X O *D sky130_fd_sc_hd__dlygate4sd3_1
*CAP
1 *12000:A 6.7621e-05
2 *11970:X 6.7621e-05
3 *12000:A *596:22 8.33414e-05
4 *12000:A *618:14 8.33414e-05
*RES
1 *11970:X *12000:A 9.09
*END

*D_NET *502 0.167459
*CONN
*I *12154:AD[3] I *D CF_SRAM_1024x32
*I *12144:AD[3] I *D CF_SRAM_1024x32
*I *12134:AD[3] I *D CF_SRAM_1024x32
*I *12124:AD[3] I *D CF_SRAM_1024x32
*I *11972:X O *D sky130_fd_sc_hd__buf_12
*CAP
1 *12154:AD[3] 0.0185458
2 *12144:AD[3] 0.00107774
3 *12134:AD[3] 0.0128423
4 *12124:AD[3] 0.000998357
5 *11972:X 7.34602e-05
6 *502:62 0.0250937
7 *502:31 6.77883e-07
8 *502:22 0.0142579
9 *502:10 0.00185879
10 *502:8 0.00698442
11 *12124:AD[3] *12124:AD[9] 0
12 *12134:AD[3] *12134:AD[9] 0
13 *12134:AD[3] *509:42 0.0151499
14 *12144:AD[3] *12144:AD[9] 0
15 *12154:AD[3] *12154:AD[9] 0
16 *502:10 *504:78 0.00377216
17 *502:10 *504:84 0.000995251
18 *502:10 *509:34 2.90704e-05
19 *502:62 *504:78 2.29603e-05
20 *502:62 *524:20 0.00125812
21 *502:62 *524:54 0.0216041
22 *12124:ScanInCC *12124:AD[3] 0.000934356
23 *12124:ScanInCC *502:31 1.16578e-05
24 *12134:ScanInCC *12134:AD[3] 0.000101317
25 *12134:DI[0] *12134:AD[3] 0
26 *12144:ScanInCC *12144:AD[3] 0.000382211
27 *12154:ScanInCC *12154:AD[3] 0.000156142
28 *12154:DI[0] *12144:AD[3] 2.89193e-05
29 *12154:DI[0] *12154:AD[3] 0.00570029
30 *201:9 *502:8 0.00022707
31 *218:19 *12134:AD[3] 8.89862e-05
32 *225:42 *12134:AD[3] 1.4256e-05
33 *228:13 *12134:AD[3] 1.4256e-05
34 *258:23 *502:8 0.000123642
35 *282:25 *12154:AD[3] 0.00045747
36 *311:27 *502:62 0.000766173
37 *369:10 *502:10 1.75833e-05
38 *369:22 *502:10 0.000454285
39 *395:56 *502:10 7.00066e-05
40 *395:56 *502:62 6.81383e-05
41 *395:58 *502:62 0.00266939
42 *415:10 *502:22 0.000503378
43 *415:18 *12124:AD[3] 1.93834e-05
44 *415:18 *502:22 0.000696842
45 *415:58 *502:62 0.000141543
46 *417:72 *502:10 0.00015848
47 *424:28 *502:10 2.13396e-05
48 *424:32 *502:10 0.00328543
49 *424:32 *502:22 0.000445507
50 *424:34 *12124:AD[3] 1.79536e-05
51 *424:34 *502:22 0.000759701
52 *424:70 *502:62 0.0217915
53 *432:54 *12154:AD[3] 4.61701e-06
54 *438:20 *502:10 0.00235395
55 *438:76 *502:10 0.000137578
56 *438:76 *502:62 0.000212493
57 *462:36 *502:62 4.08469e-05
58 *480:58 *12154:AD[3] 1.7635e-05
*RES
1 *11972:X *502:8 5.775
2 *502:8 *502:10 67.17
3 *502:10 *502:22 19.6075
4 *502:22 *12124:AD[3] 17.5175
5 *12124:AD[3] *502:31 0.108889
6 *502:22 *12134:AD[3] 46.2612
7 *502:8 *502:62 45.7654
8 *502:62 *12144:AD[3] 17.4965
9 *502:62 *12154:AD[3] 46.7394
*END

*D_NET *503 0.000627864
*CONN
*I *12005:A I *D sky130_fd_sc_hd__dlygate4sd3_1
*I *11973:X O *D sky130_fd_sc_hd__dlygate4sd3_1
*CAP
1 *12005:A 0.000236875
2 *11973:X 0.000236875
3 *12005:A *12247:A 8.33414e-05
4 *319:14 *12005:A 7.07713e-05
*RES
1 *11973:X *12005:A 11.265
*END

*D_NET *504 0.163736
*CONN
*I *12134:AD[4] I *D CF_SRAM_1024x32
*I *12124:AD[4] I *D CF_SRAM_1024x32
*I *12154:AD[4] I *D CF_SRAM_1024x32
*I *12144:AD[4] I *D CF_SRAM_1024x32
*I *11974:X O *D sky130_fd_sc_hd__buf_12
*CAP
1 *12134:AD[4] 0.0114867
2 *12124:AD[4] 0.00102251
3 *12154:AD[4] 0.0128944
4 *12144:AD[4] 0.000693358
5 *11974:X 0.00010263
6 *504:84 0.0129924
7 *504:78 0.00266803
8 *504:20 0.0212897
9 *504:14 0.00998942
10 *12124:AD[4] *12124:AD[5] 0.000376259
11 *12124:AD[4] *506:38 0.000450382
12 *12134:AD[4] *12134:AD[1] 0
13 *12134:AD[4] *12134:AD[5] 0.0277562
14 *12144:AD[4] *12144:AD[5] 0.000254276
15 *12154:AD[4] *12144:AD[5] 0.000158178
16 *12154:AD[4] *12154:AD[1] 0
17 *12154:AD[4] *12154:AD[5] 0.015856
18 *504:14 *506:12 1.79483e-05
19 *504:20 *511:20 0.000293527
20 *504:20 *511:54 0.0136445
21 *504:78 *509:8 1.99922e-05
22 *504:78 *524:20 0.00104311
23 *504:84 *12124:AD[2] 0.000101323
24 *504:84 *509:34 0.00010355
25 *203:11 *504:14 2.10433e-05
26 *228:11 *12134:AD[4] 1.79536e-05
27 *231:13 *12134:AD[4] 1.79536e-05
28 *250:11 *504:20 0.00170134
29 *257:11 *12144:AD[4] 1.03833e-05
30 *257:11 *504:20 0.00123526
31 *273:11 *504:20 0.00123614
32 *355:8 *504:20 0.00131698
33 *360:10 *504:84 0.000172177
34 *360:12 *12124:AD[4] 1.79536e-05
35 *360:12 *504:84 0.00115142
36 *369:10 *504:78 0.000294681
37 *369:22 *504:84 1.99922e-05
38 *369:76 *504:20 0.0134609
39 *369:76 *504:78 7.53239e-05
40 *417:72 *504:78 0.00332445
41 *424:14 *504:78 2.22315e-05
42 *424:32 *504:84 0.000181737
43 *424:34 *12124:AD[4] 1.93834e-05
44 *424:34 *504:84 8.76033e-05
45 *424:70 *504:78 0.000743877
46 *426:36 *504:78 3.3846e-05
47 *432:54 *12154:AD[4] 5.05716e-06
48 *438:38 *504:78 0.000103019
49 *458:24 *504:78 1.69297e-05
50 *462:36 *504:14 7.78567e-05
51 *462:36 *504:78 0.000347549
52 *480:58 *12154:AD[4] 1.79536e-05
53 *502:10 *504:78 0.00377216
54 *502:10 *504:84 0.000995251
55 *502:62 *504:78 2.29603e-05
*RES
1 *11974:X *504:14 4.9079
2 *504:14 *504:20 44.1047
3 *504:20 *12144:AD[4] 14.0463
4 *504:20 *12154:AD[4] 47.1337
5 *504:14 *504:78 49.9307
6 *504:78 *504:84 18.0704
7 *504:84 *12124:AD[4] 18.4062
8 *504:84 *12134:AD[4] 46.0415
*END

*D_NET *505 0.000353437
*CONN
*I *12007:A I *D sky130_fd_sc_hd__dlygate4sd3_1
*I *11975:X O *D sky130_fd_sc_hd__dlygate4sd3_1
*CAP
1 *12007:A 0.000113512
2 *11975:X 0.000113512
3 *12007:A *592:12 8.52845e-05
4 *341:10 *12007:A 4.11281e-05
*RES
1 *11975:X *12007:A 9.375
*END

*D_NET *506 0.15916
*CONN
*I *12154:AD[5] I *D CF_SRAM_1024x32
*I *12144:AD[5] I *D CF_SRAM_1024x32
*I *12134:AD[5] I *D CF_SRAM_1024x32
*I *12124:AD[5] I *D CF_SRAM_1024x32
*I *11976:X O *D sky130_fd_sc_hd__buf_12
*CAP
1 *12154:AD[5] 0.0082435
2 *12144:AD[5] 0.00112533
3 *12134:AD[5] 0.00886701
4 *12124:AD[5] 0.000396246
5 *11976:X 0
6 *506:64 0.00936883
7 *506:62 0.00738302
8 *506:60 0.00992467
9 *506:38 0.00941757
10 *506:27 6.71993e-06
11 *506:22 0.00206202
12 *506:12 0.00387448
13 *506:6 0.0052942
14 *12124:AD[5] *12124:AD[6] 0
15 *12134:AD[5] *12134:AD[6] 0
16 *12134:AD[5] *12134:AD[7] 0.00590261
17 *12144:AD[5] *12144:AD[6] 0.000158865
18 *12154:AD[5] *12154:AD[6] 0.0112942
19 *506:12 *11935:A 0.000386059
20 *506:22 *575:38 0.00293867
21 *506:38 *12124:AD[6] 0
22 *506:60 *11935:A 0.000509317
23 *506:62 *12144:AD[6] 1.83975e-05
24 *506:62 *12144:AD[7] 1.83975e-05
25 *506:62 *12144:AD[8] 1.87271e-05
26 *506:62 *12144:AD[9] 1.87271e-05
27 *506:62 *509:68 0.00962076
28 *12124:AD[4] *12124:AD[5] 0.000376259
29 *12124:AD[4] *506:38 0.000450382
30 *12134:AD[4] *12134:AD[5] 0.0277562
31 *12144:AD[4] *12144:AD[5] 0.000254276
32 *12154:AD[4] *12144:AD[5] 0.000158178
33 *12154:AD[4] *12154:AD[5] 0.015856
34 *12154:DI[0] *506:62 0
35 *12154:DI[6] *506:62 1.7635e-05
36 *129:10 *506:60 0.00035588
37 *203:11 *506:12 0.000534411
38 *203:11 *506:60 6.81237e-05
39 *205:11 *506:22 0.00294002
40 *228:11 *12134:AD[5] 1.31182e-05
41 *231:13 *12134:AD[5] 1.31182e-05
42 *250:11 *506:60 0.00141342
43 *283:27 *506:62 0.00308776
44 *311:27 *506:62 2.40201e-05
45 *369:76 *506:12 0.000736652
46 *369:76 *506:60 0.000626144
47 *395:58 *506:62 0.0041219
48 *400:18 *506:12 0.0017882
49 *400:20 *506:12 8.76548e-05
50 *400:80 *506:12 0.00110575
51 *400:82 *506:62 0
52 *400:109 *506:62 1.7635e-05
53 *402:56 *506:62 0
54 *402:76 *506:62 0.00016234
55 *409:50 *506:38 1.93834e-05
56 *415:18 *506:38 1.79536e-05
57 *415:60 *506:62 0
58 *415:84 *506:62 0.000108956
59 *432:54 *12154:AD[5] 5.05066e-06
60 *438:80 *506:60 0.000159109
61 *438:82 *506:62 0
62 *480:58 *12154:AD[5] 1.79483e-05
63 *504:14 *506:12 1.79483e-05
*RES
1 *11976:X *506:6 3.6
2 *506:6 *506:12 48.345
3 *506:12 *506:22 44.775
4 *506:22 *12124:AD[5] 6.66
5 *12124:AD[5] *506:27 0.11625
6 *506:22 *506:38 10.7725
7 *506:38 *12134:AD[5] 45.4595
8 *506:6 *506:60 43.975
9 *506:60 *506:62 212.648
10 *506:62 *506:64 0.5
11 *506:64 *12144:AD[5] 17.3946
12 *506:64 *12154:AD[5] 46.5505
*END

*D_NET *507 0.0538033
*CONN
*I *12105:A I *D sky130_fd_sc_hd__buf_12
*I *12183:X O *D sky130_fd_sc_hd__buf_12
*CAP
1 *12105:A 0.000545179
2 *12183:X 0.00338597
3 *507:16 0.0200053
4 *507:14 0.0228461
5 *507:14 *518:18 0.000364349
6 *507:14 *541:12 0.000158131
7 *507:14 *611:28 0.000160492
8 *507:14 *612:26 0.000290025
9 *507:14 *615:14 0.000446199
10 *669:DIODE *507:14 0
11 *1012:DIODE *12105:A 7.9642e-06
12 *11919:B1 *507:14 0.000123864
13 *12108:A *507:14 0.000280132
14 *12110:A *507:14 0.000323867
15 *12111:A *507:14 0
16 *164:24 *507:14 7.9642e-06
17 *166:14 *507:14 0.000518666
18 *176:22 *507:14 0.00033166
19 *304:25 *12105:A 0.00046072
20 *311:25 *12105:A 0.00046072
21 *485:14 *507:14 0.00308603
*RES
1 *12183:X *507:14 18.5655
2 *507:14 *507:16 53.0961
3 *507:16 *12105:A 9.3361
*END

*D_NET *508 0.00144087
*CONN
*I *12002:A I *D sky130_fd_sc_hd__dlygate4sd3_1
*I *11977:X O *D sky130_fd_sc_hd__dlygate4sd3_1
*CAP
1 *12002:A 0.000285538
2 *11977:X 0.000285538
3 *12002:A *11977:A 0.000444709
4 wbs_dat_o[7] *12002:A 8.35068e-05
5 *12001:A *12002:A 0
6 *12053:A *12002:A 0.00034158
*RES
1 *11977:X *12002:A 14.25
*END

*D_NET *509 0.1716
*CONN
*I *12144:AD[6] I *D CF_SRAM_1024x32
*I *12154:AD[6] I *D CF_SRAM_1024x32
*I *12124:AD[6] I *D CF_SRAM_1024x32
*I *12134:AD[6] I *D CF_SRAM_1024x32
*I *11978:X O *D sky130_fd_sc_hd__buf_12
*CAP
1 *12144:AD[6] 0.00118504
2 *12154:AD[6] 0.00715178
3 *12124:AD[6] 0.00180281
4 *12134:AD[6] 0.000295009
5 *11978:X 0
6 *509:70 0.00837069
7 *509:68 0.0112376
8 *509:42 0.0186306
9 *509:34 0.0214361
10 *509:8 0.00254772
11 *509:6 0.0124538
12 *12124:AD[6] *12124:AD[7] 0.000938668
13 *12124:AD[6] *12124:AD[8] 0
14 *12134:AD[6] *12134:AD[7] 0.000100971
15 *12134:AD[6] *12134:AD[9] 0.000166036
16 *12144:AD[6] *12144:AD[7] 0.000324134
17 *12154:AD[6] *12144:AD[7] 0.000443123
18 *12154:AD[6] *12154:AD[7] 0.0275359
19 *509:8 *12217:A 7.15209e-05
20 *509:8 *517:10 0.00443349
21 *509:8 *547:28 0.00023185
22 *509:34 *517:20 5.83121e-06
23 *509:34 *578:10 0.0007303
24 *509:42 *578:10 0.000403772
25 *509:68 *11823:S 0.00012366
26 *509:68 *12144:AD[7] 1.7635e-05
27 *509:68 *12144:AD[8] 1.79483e-05
28 *509:68 *12144:AD[9] 1.79483e-05
29 *509:68 *517:10 0.00102069
30 *509:68 *517:56 0
31 *509:68 *635:37 0.000692278
32 *509:68 *635:48 0.000528539
33 *509:68 *635:59 0.000167548
34 *509:68 *636:20 0.00039388
35 *509:68 *636:43 0.00121123
36 *509:68 *636:47 2.92017e-05
37 *509:68 *636:68 0.000648812
38 *509:68 *636:87 0
39 *909:DIODE *509:68 0.000152634
40 *1035:DIODE *509:68 6.88421e-05
41 *1060:DIODE *509:68 0.000155056
42 *12124:AD[5] *12124:AD[6] 0
43 *12124:DI[16] *509:34 1.1392e-05
44 *12134:AD[3] *509:42 0.0151499
45 *12134:AD[5] *12134:AD[6] 0
46 *12144:AD[5] *12144:AD[6] 0.000158865
47 *12154:AD[5] *12154:AD[6] 0.0112942
48 *185:10 *509:34 0.000721769
49 *185:10 *509:42 0.000405669
50 *225:30 *12134:AD[6] 7.39642e-05
51 *225:42 *12134:AD[6] 6.02792e-05
52 *228:13 *12134:AD[6] 1.96564e-05
53 *259:23 *509:68 0.000344315
54 *283:27 *509:68 1.44177e-05
55 *293:35 *509:68 2.55941e-05
56 *360:10 *509:34 0.000159109
57 *369:10 *509:8 0.000337576
58 *369:22 *509:8 0.000118309
59 *369:22 *509:34 0.00015635
60 *371:70 *509:68 0
61 *382:88 *12134:AD[6] 0.000359809
62 *387:12 *509:34 0.000887376
63 *393:14 *509:34 0.000886094
64 *393:49 *509:68 0
65 *417:16 *509:68 0.000406261
66 *417:22 *509:68 0
67 *417:72 *509:8 0.00362983
68 *417:72 *509:68 0.000356736
69 *432:54 *12154:AD[6] 5.05716e-06
70 *438:76 *509:68 0.000464907
71 *480:58 *12154:AD[6] 1.79536e-05
72 *502:10 *509:34 2.90704e-05
73 *504:78 *509:8 1.99922e-05
74 *504:84 *509:34 0.00010355
75 *506:38 *12124:AD[6] 0
76 *506:62 *12144:AD[6] 1.83975e-05
77 *506:62 *509:68 0.00962076
*RES
1 *11978:X *509:6 3.6
2 *509:6 *509:8 52.89
3 *509:8 *509:34 43.905
4 *509:34 *509:42 46.1228
5 *509:42 *12134:AD[6] 8.30375
6 *509:34 *12124:AD[6] 28.8838
7 *509:6 *509:68 255.997
8 *509:68 *509:70 0.45
9 *509:70 *12154:AD[6] 46.9697
10 *509:70 *12144:AD[6] 19.0812
*END

*D_NET *510 0.00208693
*CONN
*I *12009:A I *D sky130_fd_sc_hd__dlygate4sd3_1
*I *11979:X O *D sky130_fd_sc_hd__dlygate4sd3_1
*CAP
1 *12009:A 0.00027142
2 *11979:X 0.00027142
3 *12009:A *11979:A 0.000160635
4 *12009:A *12245:A 0.000450085
5 *12009:A *592:12 2.49909e-05
6 *12009:A *618:12 0.000228752
7 *12009:A *620:22 0.000343267
8 *12008:A *12009:A 0.000336361
*RES
1 *11979:X *12009:A 16.08
*END

*D_NET *511 0.185318
*CONN
*I *12154:AD[2] I *D CF_SRAM_1024x32
*I *12144:AD[2] I *D CF_SRAM_1024x32
*I *12134:AD[2] I *D CF_SRAM_1024x32
*I *12124:AD[2] I *D CF_SRAM_1024x32
*I *11980:X O *D sky130_fd_sc_hd__buf_12
*CAP
1 *12154:AD[2] 0.00861391
2 *12144:AD[2] 0.00067751
3 *12134:AD[2] 0.00799605
4 *12124:AD[2] 0.0012144
5 *11980:X 0.000106473
6 *511:83 0
7 *511:67 0
8 *511:54 0.0176171
9 *511:47 0
10 *511:20 0.0120041
11 *511:14 0.0112258
12 *12124:AD[2] *12124:AD[1] 0.000299413
13 *12134:AD[2] *12134:AD[0] 0.00828429
14 *12134:AD[2] *12134:AD[1] 0.0277849
15 *12144:AD[2] *12144:AD[1] 0.00117709
16 *12154:AD[2] *12144:AD[0] 2.30604e-05
17 *12154:AD[2] *12154:AD[0] 0.00606601
18 *12154:AD[2] *12154:AD[1] 0.0283436
19 *511:20 *12124:AD[1] 9.37179e-05
20 *511:20 *12134:AD[0] 1.88023e-05
21 *511:20 *12134:AD[1] 0.000253367
22 *511:20 *520:18 0.00659502
23 *511:20 *524:20 2.41398e-05
24 *511:20 *577:28 0.00440108
25 *511:54 *520:18 0.000379514
26 *511:54 *520:54 0.0222428
27 *511:54 *524:54 2.40445e-05
28 *12124:DI[24] *511:14 8.54618e-06
29 *139:42 *12124:AD[2] 0.0002386
30 *181:47 *511:20 1.77261e-05
31 *225:30 *12134:AD[2] 8.38995e-05
32 *228:11 *12134:AD[2] 8.21058e-05
33 *257:11 *12144:AD[2] 2.06083e-05
34 *350:16 *12124:AD[2] 3.0807e-05
35 *351:8 *12124:AD[2] 0.000133051
36 *369:76 *511:20 0.00073282
37 *395:10 *511:20 0.000767928
38 *409:14 *511:14 4.13769e-05
39 *424:32 *12124:AD[2] 0.000101323
40 *432:54 *12154:AD[2] 2.97206e-06
41 *438:82 *511:54 0.00351364
42 *480:58 *12154:AD[2] 3.69766e-05
43 *504:20 *511:20 0.000293527
44 *504:20 *511:54 0.0136445
45 *504:84 *12124:AD[2] 0.000101323
*RES
1 *11980:X *511:14 5.2129
2 *511:14 *511:20 13.6467
3 *511:20 *12124:AD[2] 19.7087
4 *511:20 *12134:AD[2] 46.9725
5 *12134:AD[2] *511:47 0.154737
6 *511:14 *511:54 43.6047
7 *511:54 *12144:AD[2] 14.4327
8 *12144:AD[2] *511:67 0.108889
9 *511:54 *12154:AD[2] 46.9578
10 *12154:AD[2] *511:83 0.108889
*END

*D_NET *512 0.000393607
*CONN
*I *11996:A I *D sky130_fd_sc_hd__dlygate4sd3_1
*I *11981:X O *D sky130_fd_sc_hd__dlygate4sd3_1
*CAP
1 *11996:A 0.000154161
2 *11981:X 0.000154161
3 *11996:A *630:64 8.52845e-05
*RES
1 *11981:X *11996:A 9.375
*END

*D_NET *513 0.173508
*CONN
*I *12154:AD[8] I *D CF_SRAM_1024x32
*I *12144:AD[8] I *D CF_SRAM_1024x32
*I *12134:AD[8] I *D CF_SRAM_1024x32
*I *12124:AD[8] I *D CF_SRAM_1024x32
*I *11983:X O *D sky130_fd_sc_hd__buf_12
*CAP
1 *12154:AD[8] 0.00847541
2 *12144:AD[8] 0.00117977
3 *12134:AD[8] 0.0153434
4 *12124:AD[8] 0.00142564
5 *11983:X 0
6 *513:54 0.01952
7 *513:12 0.0167962
8 *513:10 0.00231747
9 *513:8 0.00238079
10 *513:4 0.00995528
11 *12124:AD[8] *12124:AD[7] 0
12 *12124:AD[8] *12124:AD[9] 7.78655e-05
13 *12134:AD[8] *12124:AD[9] 0.000160545
14 *12134:AD[8] *12134:AD[7] 1.8935e-05
15 *12134:AD[8] *12134:AD[9] 0.027575
16 *12144:AD[8] *12144:AD[7] 7.3354e-05
17 *12144:AD[8] *12144:AD[9] 0.00135252
18 *12144:AD[8] *12154:AD[7] 7.9419e-06
19 *12144:AD[8] *12154:AD[9] 0.000183547
20 *12154:AD[8] *12154:AD[7] 0.00805362
21 *12154:AD[8] *12154:AD[9] 0.0165826
22 *513:10 *12124:AD[9] 5.21725e-05
23 *513:10 *12134:AD[7] 1.7635e-05
24 *513:10 *515:10 0.0021221
25 *513:10 *515:22 0.000606778
26 *513:10 *517:10 0.00638444
27 *513:10 *635:10 0.000153139
28 *513:10 *635:37 0.000146747
29 *513:54 *515:64 0.0221096
30 *981:DIODE *513:10 0.000132456
31 *1036:DIODE *513:8 0.000139949
32 *11976:A *513:8 0.000262702
33 *12124:AD[6] *12124:AD[8] 0
34 *12124:DI[24] *513:54 7.6252e-05
35 *178:16 *513:10 0.000150292
36 *178:18 *513:10 0.000176543
37 *181:51 *513:54 0
38 *228:13 *12134:AD[8] 8.91298e-05
39 *282:27 *513:54 0.000552307
40 *362:80 *513:54 0.00630813
41 *369:22 *12124:AD[8] 1.87328e-05
42 *369:22 *513:10 0.000104211
43 *371:24 *513:10 0.00232811
44 *389:52 *513:54 1.79536e-05
45 *417:68 *513:54 1.93834e-05
46 *432:54 *12154:AD[8] 5.05716e-06
47 *480:58 *12154:AD[8] 1.79536e-05
48 *506:62 *12144:AD[8] 1.87271e-05
49 *509:68 *12144:AD[8] 1.79483e-05
*RES
1 *11983:X *513:4 1.6
2 *513:4 *513:8 4.52
3 *513:8 *513:10 86.1675
4 *513:10 *513:12 0.45
5 *513:12 *12124:AD[8] 20.1612
6 *513:12 *12134:AD[8] 46.8849
7 *513:4 *513:54 45.0119
8 *513:54 *12144:AD[8] 19.8771
9 *513:54 *12154:AD[8] 45.8452
*END

*D_NET *514 0.000561028
*CONN
*I *11998:A I *D sky130_fd_sc_hd__dlygate4sd3_1
*I *11984:X O *D sky130_fd_sc_hd__dlygate4sd3_1
*CAP
1 *11998:A 0.000252538
2 *11984:X 0.000252538
3 *11998:A *540:14 2.22081e-05
4 *352:14 *11998:A 3.37446e-05
*RES
1 *11984:X *11998:A 10.41
*END

*D_NET *515 0.174016
*CONN
*I *12154:AD[7] I *D CF_SRAM_1024x32
*I *12144:AD[7] I *D CF_SRAM_1024x32
*I *12124:AD[7] I *D CF_SRAM_1024x32
*I *12134:AD[7] I *D CF_SRAM_1024x32
*I *11985:X O *D sky130_fd_sc_hd__buf_12
*CAP
1 *12154:AD[7] 0.00750946
2 *12144:AD[7] 0.00145796
3 *12124:AD[7] 0.00127637
4 *12134:AD[7] 0.00984761
5 *11985:X 6.1837e-05
6 *515:64 0.0217728
7 *515:22 0.0119387
8 *515:10 0.00251222
9 *515:8 0.0145647
10 *12134:AD[7] *12124:AD[9] 7.3162e-05
11 *12134:AD[7] *12134:AD[9] 0.0155034
12 *515:8 *12216:A 0.000153816
13 *515:10 *635:10 0.000153139
14 *515:10 *635:37 0.000155056
15 *515:64 *517:56 0.00334403
16 *981:DIODE *515:10 0.000234951
17 *1001:DIODE *515:8 6.33103e-05
18 *12124:AD[6] *12124:AD[7] 0.000938668
19 *12124:AD[8] *12124:AD[7] 0
20 *12124:DI[24] *515:64 0
21 *12134:AD[5] *12134:AD[7] 0.00590261
22 *12134:AD[6] *12134:AD[7] 0.000100971
23 *12134:AD[8] *12134:AD[7] 1.8935e-05
24 *12144:AD[6] *12144:AD[7] 0.000324134
25 *12144:AD[8] *12144:AD[7] 7.3354e-05
26 *12144:AD[8] *12154:AD[7] 7.9419e-06
27 *12154:AD[6] *12144:AD[7] 0.000443123
28 *12154:AD[6] *12154:AD[7] 0.0275359
29 *12154:AD[8] *12154:AD[7] 0.00805362
30 *178:16 *515:22 0.00156225
31 *181:51 *515:64 0
32 *225:30 *12134:AD[7] 2.07638e-05
33 *228:13 *12134:AD[7] 2.07638e-05
34 *293:35 *515:10 0.00024345
35 *293:35 *515:64 1.10474e-05
36 *369:22 *12134:AD[7] 1.83975e-05
37 *369:22 *515:22 0.000600407
38 *371:24 *515:10 0.000726483
39 *371:24 *515:22 1.88889e-05
40 *371:70 *515:10 0.00448113
41 *371:70 *515:64 1.79536e-05
42 *387:12 *515:10 6.37908e-05
43 *387:12 *515:22 0.00161092
44 *389:52 *515:64 0.0020143
45 *417:18 *515:64 0.00310752
46 *417:22 *515:64 0.000169048
47 *417:96 *515:10 0.000391887
48 *432:54 *12154:AD[7] 5.05716e-06
49 *471:104 *515:64 0
50 *480:58 *12154:AD[7] 1.7635e-05
51 *506:62 *12144:AD[7] 1.83975e-05
52 *509:68 *12144:AD[7] 1.7635e-05
53 *513:10 *12134:AD[7] 1.7635e-05
54 *513:10 *515:10 0.0021221
55 *513:10 *515:22 0.000606778
56 *513:54 *515:64 0.0221096
*RES
1 *11985:X *515:8 5.085
2 *515:8 *515:10 62.1975
3 *515:10 *515:22 32.5375
4 *515:22 *12134:AD[7] 46.2924
5 *515:22 *12124:AD[7] 19.4638
6 *515:8 *515:64 42.9283
7 *515:64 *12144:AD[7] 19.9293
8 *515:64 *12154:AD[7] 45.4846
*END

*D_NET *516 0.000207054
*CONN
*I *11991:A I *D sky130_fd_sc_hd__dlygate4sd3_1
*I *11986:X O *D sky130_fd_sc_hd__dlygate4sd3_1
*CAP
1 *11991:A 7.20849e-05
2 *11986:X 7.20849e-05
3 *11991:A *11981:A 6.28843e-05
*RES
1 *11986:X *11991:A 8.58
*END

*D_NET *517 0.188947
*CONN
*I *12154:AD[9] I *D CF_SRAM_1024x32
*I *12144:AD[9] I *D CF_SRAM_1024x32
*I *12134:AD[9] I *D CF_SRAM_1024x32
*I *12124:AD[9] I *D CF_SRAM_1024x32
*I *11987:X O *D sky130_fd_sc_hd__buf_12
*CAP
1 *12154:AD[9] 0.0186325
2 *12144:AD[9] 0.00113538
3 *12134:AD[9] 0.00661084
4 *12124:AD[9] 0.0015837
5 *11987:X 0
6 *517:58 0.0197679
7 *517:56 0.00667639
8 *517:54 0.00667639
9 *517:20 0.00865314
10 *517:10 0.00234134
11 *517:8 0.00210094
12 *517:4 0.000218202
13 *981:DIODE *517:10 5.30143e-05
14 *11823:A1 *517:56 0.000239914
15 *11878:A1 *517:56 8.53307e-05
16 *12124:AD[3] *12124:AD[9] 0
17 *12124:AD[8] *12124:AD[9] 7.78655e-05
18 *12134:AD[3] *12134:AD[9] 0
19 *12134:AD[6] *12134:AD[9] 0.000166036
20 *12134:AD[7] *12124:AD[9] 7.3162e-05
21 *12134:AD[7] *12134:AD[9] 0.0155034
22 *12134:AD[8] *12124:AD[9] 0.000160545
23 *12134:AD[8] *12134:AD[9] 0.027575
24 *12134:ScanInCC *12134:AD[9] 0
25 *12144:AD[3] *12144:AD[9] 0
26 *12144:AD[8] *12144:AD[9] 0.00135252
27 *12144:AD[8] *12154:AD[9] 0.000183547
28 *12154:AD[3] *12154:AD[9] 0
29 *12154:AD[8] *12154:AD[9] 0.0165826
30 *131:24 *12124:AD[9] 5.41654e-05
31 *178:18 *12124:AD[9] 0.000162345
32 *225:30 *12134:AD[9] 9.48119e-06
33 *228:13 *12134:AD[9] 3.6138e-05
34 *293:35 *517:10 4.81295e-05
35 *307:37 *517:56 1.93834e-05
36 *369:22 *12124:AD[9] 3.00414e-05
37 *369:22 *517:10 0.00112041
38 *387:12 *517:20 0.000784442
39 *389:52 *517:56 0.000768445
40 *393:14 *517:20 0.000784442
41 *393:49 *517:56 0.014891
42 *417:18 *517:56 0.0173014
43 *417:22 *517:56 0.000725667
44 *417:68 *517:56 0.000461569
45 *432:54 *12154:AD[9] 5.05066e-06
46 *480:58 *12154:AD[9] 1.79483e-05
47 *506:62 *12144:AD[9] 1.87271e-05
48 *509:8 *517:10 0.00443349
49 *509:34 *517:20 5.83121e-06
50 *509:68 *12144:AD[9] 1.79483e-05
51 *509:68 *517:10 0.00102069
52 *509:68 *517:56 0
53 *513:10 *12124:AD[9] 5.21725e-05
54 *513:10 *517:10 0.00638444
55 *515:64 *517:56 0.00334403
*RES
1 *11987:X *517:4 1.6
2 *517:4 *517:8 4.52
3 *517:8 *517:10 78.645
4 *517:10 *517:20 16.0875
5 *517:20 *12124:AD[9] 22.6498
6 *517:20 *12134:AD[9] 47.5711
7 *517:4 *517:54 2
8 *517:54 *517:56 240.188
9 *517:56 *517:58 0.5
10 *517:58 *12144:AD[9] 19.8062
11 *517:58 *12154:AD[9] 45.7578
*END

*D_NET *518 0.0748774
*CONN
*I *12109:A I *D sky130_fd_sc_hd__buf_12
*I *12184:X O *D sky130_fd_sc_hd__buf_12
*CAP
1 *12109:A 0.000203674
2 *12184:X 0.00136263
3 *518:24 0.00523618
4 *518:22 0.00503251
5 *518:20 0.00111076
6 *518:18 0.00247339
7 *518:18 *541:12 0.000678608
8 *518:18 *611:28 0.000953719
9 *518:18 *612:24 0.000320322
10 *518:20 *541:12 0.000866948
11 *518:20 *552:12 0.00555583
12 *518:20 *563:14 0.00506076
13 *518:20 *611:28 0.000462533
14 *518:24 *529:20 0.0214649
15 *669:DIODE *518:18 0
16 *1107:DIODE *518:18 2.49909e-05
17 *11916:A1 *518:18 0.000232214
18 *11919:A2 *518:18 0.000109878
19 *11919:C1 *518:18 0.000129413
20 *12111:A *518:18 0
21 *111:46 *518:18 0.000372481
22 *164:24 *518:18 0.000102494
23 *167:16 *518:24 0.0175092
24 *175:10 *518:24 0.00160255
25 *209:25 *518:18 0.000253822
26 *238:9 *12109:A 2.92221e-05
27 *353:10 *518:24 6.23541e-06
28 *354:10 *518:24 0.00291041
29 *454:16 *12109:A 0.000447414
30 *507:14 *518:18 0.000364349
*RES
1 *12184:X *518:18 38.7275
2 *518:18 *518:20 59.9625
3 *518:20 *518:22 2
4 *518:22 *518:24 271.425
5 *518:24 *12109:A 7.845
*END

*D_NET *519 0.00146274
*CONN
*I *12011:A I *D sky130_fd_sc_hd__dlygate4sd3_1
*I *11988:X O *D sky130_fd_sc_hd__dlygate4sd3_1
*CAP
1 *12011:A 0.000445807
2 *11988:X 0.000445807
3 *12011:A *11856:B1 9.09788e-06
4 *12011:A *584:16 0.000279334
5 *12011:A *588:36 3.9232e-05
6 *676:DIODE *12011:A 0.000199922
7 *12010:A *12011:A 4.35432e-05
*RES
1 *11988:X *12011:A 14.175
*END

*D_NET *520 0.192571
*CONN
*I *12154:AD[1] I *D CF_SRAM_1024x32
*I *12144:AD[1] I *D CF_SRAM_1024x32
*I *12134:AD[1] I *D CF_SRAM_1024x32
*I *12124:AD[1] I *D CF_SRAM_1024x32
*I *11989:X O *D sky130_fd_sc_hd__buf_12
*CAP
1 *12154:AD[1] 0.0114816
2 *12144:AD[1] 0.000841904
3 *12134:AD[1] 0.0116407
4 *12124:AD[1] 0.00103971
5 *11989:X 6.51417e-05
6 *520:54 0.0180946
7 *520:18 0.014808
8 *520:14 0.00796388
9 *12124:AD[1] *12124:AD[0] 0
10 *12134:AD[1] *12134:AD[0] 0
11 *12144:AD[1] *12144:AD[0] 0
12 *12154:AD[1] *12154:AD[0] 0
13 *520:18 *524:20 0.00709259
14 *520:18 *577:28 2.40495e-05
15 *520:54 *524:20 0.000443334
16 *520:54 *524:54 0.0227941
17 *12124:AD[2] *12124:AD[1] 0.000299413
18 *12124:R_WB *12124:AD[1] 3.16092e-05
19 *12124:DI[24] *520:14 1.19545e-05
20 *12134:AD[2] *12134:AD[1] 0.0277849
21 *12134:AD[4] *12134:AD[1] 0
22 *12144:AD[2] *12144:AD[1] 0.00117709
23 *12154:AD[2] *12154:AD[1] 0.0283436
24 *12154:AD[4] *12154:AD[1] 0
25 *129:10 *12124:AD[1] 1.7635e-05
26 *181:47 *12124:AD[1] 0
27 *184:8 *12124:AD[1] 1.88904e-05
28 *228:11 *12134:AD[1] 1.31182e-05
29 *231:13 *12134:AD[1] 1.31182e-05
30 *319:34 *520:18 0.000961457
31 *382:46 *12124:AD[1] 0
32 *402:10 *520:18 0.000956957
33 *402:54 *520:18 0.000165398
34 *409:14 *520:14 4.13769e-05
35 *409:14 *520:54 0.00311688
36 *415:60 *520:54 0.00360516
37 *432:54 *12154:AD[1] 2.04976e-05
38 *438:38 *520:18 0.000132645
39 *480:58 *12154:AD[1] 4.81484e-06
40 *511:20 *12124:AD[1] 9.37179e-05
41 *511:20 *12134:AD[1] 0.000253367
42 *511:20 *520:18 0.00659502
43 *511:54 *520:18 0.000379514
44 *511:54 *520:54 0.0222428
*RES
1 *11989:X *520:14 5.15463
2 *520:14 *520:18 13.8887
3 *520:18 *12124:AD[1] 13.496
4 *520:18 *12134:AD[1] 45.6634
5 *520:14 *520:54 42.8295
6 *520:54 *12144:AD[1] 16.4538
7 *520:54 *12154:AD[1] 47.5249
*END

*D_NET *521 0.000668934
*CONN
*I *11986:A I *D sky130_fd_sc_hd__dlygate4sd3_1
*I *11990:X O *D sky130_fd_sc_hd__dlygate4sd3_1
*CAP
1 *11986:A 0.000162897
2 *11990:X 0.000162897
3 *11990:A *11986:A 0.00034314
*RES
1 *11990:X *11986:A 6.41
*END

*D_NET *522 0.000212769
*CONN
*I *12186:A I *D sky130_fd_sc_hd__buf_12
*I *11991:X O *D sky130_fd_sc_hd__dlygate4sd3_1
*CAP
1 *12186:A 0.000106384
2 *11991:X 0.000106384
*RES
1 *11991:X *12186:A 8.58
*END

*D_NET *523 0.00216891
*CONN
*I *12013:A I *D sky130_fd_sc_hd__dlygate4sd3_1
*I *11992:X O *D sky130_fd_sc_hd__dlygate4sd3_1
*CAP
1 *12013:A 0.00045529
2 *11992:X 0.00045529
3 *12013:A *11847:A2 6.88502e-05
4 *12013:A *12212:A 8.69756e-05
5 *12013:A *12241:A 0.000159964
6 *12013:A *588:20 0.00056914
7 *670:DIODE *12013:A 1.53463e-05
8 *675:DIODE *12013:A 7.19946e-05
9 *12012:A *12013:A 0
10 *128:22 *12013:A 0.00013757
11 *208:29 *12013:A 6.41825e-07
12 *211:27 *12013:A 0.00014785
*RES
1 *11992:X *12013:A 18.195
*END

*D_NET *524 0.191356
*CONN
*I *12154:AD[0] I *D CF_SRAM_1024x32
*I *12144:AD[0] I *D CF_SRAM_1024x32
*I *12134:AD[0] I *D CF_SRAM_1024x32
*I *12124:AD[0] I *D CF_SRAM_1024x32
*I *11994:X O *D sky130_fd_sc_hd__buf_12
*CAP
1 *12154:AD[0] 0.00885505
2 *12144:AD[0] 0.00112479
3 *12134:AD[0] 0.00805038
4 *12124:AD[0] 0.00118602
5 *11994:X 0.000157082
6 *524:54 0.015353
7 *524:20 0.0122632
8 *524:14 0.00855705
9 *524:20 *636:20 0.000228627
10 *12124:AD[1] *12124:AD[0] 0
11 *12124:R_WB *12124:AD[0] 0.000557958
12 *12134:AD[1] *12134:AD[0] 0
13 *12134:AD[2] *12134:AD[0] 0.00828429
14 *12134:R_WB *12134:AD[0] 0.026739
15 *12144:AD[1] *12144:AD[0] 0
16 *12144:R_WB *12144:AD[0] 0.000254276
17 *12144:R_WB *12154:AD[0] 0.000577276
18 *12154:AD[1] *12154:AD[0] 0
19 *12154:AD[2] *12144:AD[0] 2.30604e-05
20 *12154:AD[2] *12154:AD[0] 0.00606601
21 *12154:R_WB *12154:AD[0] 0.0268501
22 *181:47 *12134:AD[0] 0.00105862
23 *181:47 *524:20 4.3428e-05
24 *225:30 *12134:AD[0] 3.97748e-05
25 *226:20 *12134:AD[0] 0
26 *228:11 *12134:AD[0] 3.97748e-05
27 *400:80 *524:20 0.000112036
28 *400:82 *524:54 0.00317689
29 *402:56 *524:54 0.00297053
30 *409:14 *524:14 4.13879e-05
31 *409:50 *524:20 0.000845241
32 *415:10 *12124:AD[0] 4.01548e-05
33 *415:10 *524:20 0.00095051
34 *424:28 *524:20 0.00149615
35 *424:32 *12124:AD[0] 4.01548e-05
36 *424:32 *524:20 0.000422328
37 *424:70 *524:20 3.09998e-05
38 *432:54 *12154:AD[0] 5.05716e-06
39 *438:38 *12134:AD[0] 2.22315e-05
40 *438:38 *524:20 0.000554092
41 *471:104 *524:14 1.94516e-05
42 *480:58 *12154:AD[0] 1.79536e-05
43 *502:62 *524:20 0.00125812
44 *502:62 *524:54 0.0216041
45 *504:78 *524:20 0.00104311
46 *511:20 *12134:AD[0] 1.88023e-05
47 *511:20 *524:20 2.41398e-05
48 *511:54 *524:54 2.40445e-05
49 *520:18 *524:20 0.00709259
50 *520:54 *524:20 0.000443334
51 *520:54 *524:54 0.0227941
*RES
1 *11994:X *524:14 5.27117
2 *524:14 *524:20 14.4169
3 *524:20 *12124:AD[0] 18.1038
4 *524:20 *12134:AD[0] 46.7553
5 *524:14 *524:54 42.5711
6 *524:54 *12144:AD[0] 17.1024
7 *524:54 *12154:AD[0] 46.6235
*END

*D_NET *525 0.00463268
*CONN
*I *11981:A I *D sky130_fd_sc_hd__dlygate4sd3_1
*I *11995:X O *D sky130_fd_sc_hd__dlygate4sd3_1
*CAP
1 *11981:A 0.000851489
2 *11995:X 0.000851489
3 *11981:A *630:64 0.00129058
4 *11981:A *630:80 0
5 *11981:A *634:42 0.00129058
6 *655:DIODE *11981:A 6.28765e-05
7 *11991:A *11981:A 6.28843e-05
8 *11995:A *11981:A 8.65961e-05
9 *12035:A *11981:A 0.000136183
*RES
1 *11995:X *11981:A 28.35
*END

*D_NET *526 0.000383717
*CONN
*I *12175:A I *D sky130_fd_sc_hd__buf_12
*I *11996:X O *D sky130_fd_sc_hd__dlygate4sd3_1
*CAP
1 *12175:A 0.000168901
2 *11996:X 0.000168901
3 *12175:A *540:14 1.04258e-05
4 *12041:A *12175:A 3.54892e-05
*RES
1 *11996:X *12175:A 9.63
*END

*D_NET *527 0.000569626
*CONN
*I *11984:A I *D sky130_fd_sc_hd__dlygate4sd3_1
*I *11997:X O *D sky130_fd_sc_hd__dlygate4sd3_1
*CAP
1 *11984:A 0.000237371
2 *11997:X 0.000237371
3 *11984:A *540:14 9.48835e-05
*RES
1 *11997:X *11984:A 11.265
*END

*D_NET *528 0.00033874
*CONN
*I *12168:A I *D sky130_fd_sc_hd__buf_12
*I *11998:X O *D sky130_fd_sc_hd__dlygate4sd3_1
*CAP
1 *12168:A 0.000130014
2 *11998:X 0.000130014
3 *12044:A *12168:A 7.87127e-05
*RES
1 *11998:X *12168:A 9.03
*END

*D_NET *529 0.0733442
*CONN
*I *12114:A I *D sky130_fd_sc_hd__buf_12
*I *12185:X O *D sky130_fd_sc_hd__buf_12
*CAP
1 *12114:A 0.000820014
2 *12185:X 0.00223494
3 *529:20 0.00536914
4 *529:18 0.00669913
5 *529:14 0.00438494
6 *529:14 *12236:A 0.00274161
7 *529:18 *567:14 0.00297134
8 *529:20 *572:8 0
9 *11964:A *529:20 0.000142806
10 *172:10 *529:20 0
11 *175:10 *529:20 0.0118735
12 *176:18 *529:20 0.00731499
13 *241:11 *12114:A 0.00316688
14 *242:11 *529:20 0.000780206
15 *443:18 *12114:A 0.00316521
16 *458:10 *12114:A 0.000194694
17 *467:12 *12114:A 1.98978e-05
18 *518:24 *529:20 0.0214649
*RES
1 *12185:X *529:14 36.2525
2 *529:14 *529:18 46.7825
3 *529:18 *529:20 250.26
4 *529:20 *12114:A 47.155
*END

*D_NET *530 0.0013571
*CONN
*I *11970:A I *D sky130_fd_sc_hd__dlygate4sd3_1
*I *11999:X O *D sky130_fd_sc_hd__dlygate4sd3_1
*CAP
1 *11970:A 0.000452467
2 *11999:X 0.000452467
3 *11970:A *12245:A 7.35729e-05
4 *11970:A *12246:A 1.56428e-05
5 *11970:A *582:20 0.000215558
6 *11999:A *11970:A 4.10113e-05
7 *12199:A *11970:A 0.000106377
*RES
1 *11999:X *11970:A 13.83
*END

*D_NET *531 0.00063098
*CONN
*I *12215:A I *D sky130_fd_sc_hd__buf_12
*I *12000:X O *D sky130_fd_sc_hd__dlygate4sd3_1
*CAP
1 *12215:A 0.000124183
2 *12000:X 0.000124183
3 *12215:A *607:16 0.000101381
4 *12066:A *12215:A 0.000281233
*RES
1 *12000:X *12215:A 10.62
*END

*D_NET *532 0.00159436
*CONN
*I *11977:A I *D sky130_fd_sc_hd__dlygate4sd3_1
*I *12001:X O *D sky130_fd_sc_hd__dlygate4sd3_1
*CAP
1 *11977:A 0.000528678
2 *12001:X 0.000528678
3 wbs_dat_o[7] *11977:A 4.40028e-05
4 wbs_dat_o[8] *11977:A 4.82919e-05
5 *12001:A *11977:A 0
6 *12002:A *11977:A 0.000444709
*RES
1 *12001:X *11977:A 16.71
*END

*D_NET *533 0.000341467
*CONN
*I *12167:A I *D sky130_fd_sc_hd__buf_12
*I *12002:X O *D sky130_fd_sc_hd__dlygate4sd3_1
*CAP
1 *12167:A 0.000158238
2 *12002:X 0.000158238
3 *12053:A *12167:A 2.49909e-05
*RES
1 *12002:X *12167:A 9.03
*END

*D_NET *534 0.00111239
*CONN
*I *11973:A I *D sky130_fd_sc_hd__dlygate4sd3_1
*I *12003:X O *D sky130_fd_sc_hd__dlygate4sd3_1
*CAP
1 *11973:A 0.000424774
2 *12003:X 0.000424774
3 *11973:A *12247:A 0
4 *11973:A *577:28 0
5 wbs_dat_o[5] *11973:A 2.75229e-05
6 *12003:A *11973:A 0.0001276
7 *12200:A *11973:A 0.000107721
*RES
1 *12003:X *11973:A 13.485
*END

*D_NET *535 0.000395746
*CONN
*I *12165:A I *D sky130_fd_sc_hd__buf_12
*I *12005:X O *D sky130_fd_sc_hd__dlygate4sd3_1
*CAP
1 *12165:A 0.000116942
2 *12005:X 0.000116942
3 *12063:A *12165:A 0.000161861
4 *407:16 *12165:A 0
*RES
1 *12005:X *12165:A 9.285
*END

*D_NET *536 0.000490112
*CONN
*I *11975:A I *D sky130_fd_sc_hd__dlygate4sd3_1
*I *12006:X O *D sky130_fd_sc_hd__dlygate4sd3_1
*CAP
1 *11975:A 0.000164244
2 *12006:X 0.000164244
3 *330:8 *11975:A 0
4 *396:16 *11975:A 0.000161623
*RES
1 *12006:X *11975:A 10.23
*END

*D_NET *537 0.000889027
*CONN
*I *12166:A I *D sky130_fd_sc_hd__buf_12
*I *12007:X O *D sky130_fd_sc_hd__dlygate4sd3_1
*CAP
1 *12166:A 0.000317042
2 *12007:X 0.000317042
3 *12166:A *592:12 3.49355e-05
4 *12166:A *593:22 4.66826e-05
5 *12061:A *12166:A 9.098e-05
6 *341:8 *12166:A 8.23457e-05
*RES
1 *12007:X *12166:A 11.205
*END

*D_NET *538 0.00226637
*CONN
*I *11979:A I *D sky130_fd_sc_hd__dlygate4sd3_1
*I *12008:X O *D sky130_fd_sc_hd__dlygate4sd3_1
*CAP
1 *11979:A 0.000673676
2 *12008:X 0.000673676
3 *11979:A *12209:A 0.000437521
4 *11979:A *12245:A 0.000131791
5 *12009:A *11979:A 0.000160635
6 *12020:A *11979:A 8.45948e-05
7 *363:39 *11979:A 0.000104482
*RES
1 *12008:X *11979:A 19.17
*END

*D_NET *539 0.000707216
*CONN
*I *12214:A I *D sky130_fd_sc_hd__buf_12
*I *12009:X O *D sky130_fd_sc_hd__dlygate4sd3_1
*CAP
1 *12214:A 0.000223643
2 *12009:X 0.000223643
3 *12214:A *575:24 0.000128578
4 *12214:A *586:14 4.17658e-05
5 *12214:A *592:12 1.1392e-05
6 *12214:A *620:22 7.81925e-05
7 *12068:A *12214:A 0
*RES
1 *12009:X *12214:A 11.325
*END

*D_NET *540 0.0599614
*CONN
*I *11987:A I *D sky130_fd_sc_hd__buf_12
*I *12186:X O *D sky130_fd_sc_hd__buf_12
*CAP
1 *11987:A 0.000485939
2 *12186:X 0.00370369
3 *540:18 0.00529536
4 *540:16 0.00480942
5 *540:14 0.00370369
6 *540:14 *12222:A 0.000111901
7 *540:14 *600:14 0.000106135
8 *11983:A *11987:A 0
9 *11984:A *540:14 9.48835e-05
10 *11985:A *11987:A 0
11 *11990:A *540:14 0.000180054
12 *11998:A *540:14 2.22081e-05
13 *12038:A *540:14 3.45588e-05
14 *12042:A *540:14 0.000171148
15 *12048:A *540:14 2.11084e-05
16 *12171:A *540:14 5.1211e-05
17 *12175:A *540:14 1.04258e-05
18 *149:18 *540:18 0
19 *207:15 *540:18 0.0195084
20 *209:13 *540:18 0.000220062
21 *330:8 *540:18 0
22 *341:10 *540:18 4.28483e-05
23 *352:16 *540:18 0.021287
24 *385:14 *540:14 0
25 *429:18 *540:18 0.000101403
*RES
1 *12186:X *540:14 49.835
2 *540:14 *540:16 2
3 *540:16 *540:18 244.395
4 *540:18 *11987:A 10.26
*END

*D_NET *541 0.0356073
*CONN
*I *12118:A I *D sky130_fd_sc_hd__buf_12
*I *12187:X O *D sky130_fd_sc_hd__buf_12
*CAP
1 *12118:A 0.000104182
2 *12187:X 0.00039476
3 *541:16 0.0024044
4 *541:14 0.00230021
5 *541:12 0.00358997
6 *541:10 0.00398473
7 *541:12 *563:14 0.00532208
8 *541:16 *572:8 0.0102272
9 *541:16 *627:94 0
10 *12117:A *541:10 8.75204e-05
11 *171:16 *541:16 6.31066e-05
12 *172:10 *541:16 0.0052359
13 *176:18 *541:16 0
14 *242:11 *541:16 0
15 *462:10 *12118:A 0.00018955
16 *507:14 *541:12 0.000158131
17 *518:18 *541:12 0.000678608
18 *518:20 *541:12 0.000866948
*RES
1 *12187:X *541:10 11.57
2 *541:10 *541:12 68.415
3 *541:12 *541:14 2
4 *541:14 *541:16 114.6
5 *541:16 *12118:A 5.43
*END

*D_NET *542 0.000825272
*CONN
*I *11988:A I *D sky130_fd_sc_hd__dlygate4sd3_1
*I *12010:X O *D sky130_fd_sc_hd__dlygate4sd3_1
*CAP
1 *11988:A 6.72772e-05
2 *12010:X 6.72772e-05
3 *11988:A *588:20 0.000345359
4 *12010:A *11988:A 0.000345359
*RES
1 *12010:X *11988:A 6.41
*END

*D_NET *543 0.00134158
*CONN
*I *12213:A I *D sky130_fd_sc_hd__buf_12
*I *12011:X O *D sky130_fd_sc_hd__dlygate4sd3_1
*CAP
1 *12213:A 0.000358624
2 *12011:X 0.000358624
3 *12213:A *11816:B 3.95347e-05
4 *12213:A *12245:A 0.000199411
5 *12213:A *587:16 0.000250153
6 *12213:A *631:10 2.75145e-05
7 *12075:A *12213:A 0
8 *12198:A *12213:A 0.000107721
9 *110:22 *12213:A 0
*RES
1 *12011:X *12213:A 15.405
*END

*D_NET *544 0.000905253
*CONN
*I *11992:A I *D sky130_fd_sc_hd__dlygate4sd3_1
*I *12012:X O *D sky130_fd_sc_hd__dlygate4sd3_1
*CAP
1 *11992:A 0.000265235
2 *12012:X 0.000265235
3 *11835:B2 *11992:A 0.000117407
4 *11847:A1 *11992:A 0.00019558
5 *211:27 *11992:A 6.17964e-05
*RES
1 *12012:X *11992:A 12.135
*END

*D_NET *545 0.00118416
*CONN
*I *12212:A I *D sky130_fd_sc_hd__buf_12
*I *12013:X O *D sky130_fd_sc_hd__dlygate4sd3_1
*CAP
1 *12212:A 0.000344595
2 *12013:X 0.000344595
3 *12212:A *12241:A 0.0001249
4 wbs_dat_o[2] *12212:A 0.000118933
5 *12012:A *12212:A 0.000164164
6 *12013:A *12212:A 8.69756e-05
7 *12090:A *12212:A 0
*RES
1 *12013:X *12212:A 13.5
*END

*D_NET *546 0.000743744
*CONN
*I *12207:A I *D sky130_fd_sc_hd__buf_12
*I *12014:X O *D sky130_fd_sc_hd__dlygate4sd3_1
*CAP
1 *12207:A 0.000201441
2 *12014:X 0.000201441
3 *12207:A *582:6 0.000200615
4 *12207:A *624:12 0
5 *12010:A *12207:A 0
6 *12017:A *12207:A 0.000140248
*RES
1 *12014:X *12207:A 10.665
*END

*D_NET *547 0.0784103
*CONN
*I *12134:BEN[23] I *D CF_SRAM_1024x32
*I *12134:BEN[22] I *D CF_SRAM_1024x32
*I *12134:BEN[21] I *D CF_SRAM_1024x32
*I *12134:BEN[20] I *D CF_SRAM_1024x32
*I *12134:BEN[19] I *D CF_SRAM_1024x32
*I *12134:BEN[18] I *D CF_SRAM_1024x32
*I *12134:BEN[17] I *D CF_SRAM_1024x32
*I *12134:BEN[16] I *D CF_SRAM_1024x32
*I *12217:A I *D sky130_fd_sc_hd__clkbuf_16
*I *1063:DIODE I *D sky130_fd_sc_hd__diode_2
*I *12016:X O *D sky130_fd_sc_hd__buf_12
*CAP
1 *12134:BEN[23] 0.000339749
2 *12134:BEN[22] 6.90761e-05
3 *12134:BEN[21] 0.000164741
4 *12134:BEN[20] 0.000163877
5 *12134:BEN[19] 0.000132548
6 *12134:BEN[18] 0.000134438
7 *12134:BEN[17] 0.000136282
8 *12134:BEN[16] 0.000186241
9 *12217:A 8.95978e-05
10 *1063:DIODE 0
11 *12016:X 0.012698
12 *547:132 0.000737785
13 *547:116 0.000720958
14 *547:100 0.000629422
15 *547:88 0.00062665
16 *547:76 0.000590689
17 *547:64 0.000517154
18 *547:52 0.0110028
19 *547:28 0.00766333
20 *547:18 0.0309078
21 *547:18 *12226:A 0
22 *547:28 *579:24 0.000582698
23 *12058:A *547:28 9.15457e-05
24 *12134:CLKin *12134:BEN[17] 4.51961e-05
25 *12134:CLKin *547:64 3.97748e-05
26 *12134:TM *12134:BEN[16] 5.31524e-05
27 *12134:DI[21] *12134:BEN[21] 1.78959e-05
28 *12134:DI[16] *547:28 0.00230803
29 *12134:DI[16] *547:52 0
30 *12134:DI[22] *12134:BEN[22] 0
31 *12134:DI[20] *547:100 6.09321e-06
32 *153:26 *547:18 0
33 *203:31 *547:18 0
34 *204:31 *547:18 0
35 *226:16 *547:52 8.33742e-05
36 *226:16 *547:64 0.00018445
37 *227:27 *547:18 5.20496e-06
38 *228:11 *547:64 0.00019245
39 *228:11 *547:76 0.000382763
40 *228:11 *547:88 0.000178151
41 *230:19 *547:88 5.05066e-06
42 *230:19 *547:100 0.000142361
43 *230:25 *547:18 0
44 *231:11 *547:116 0.000138201
45 *231:13 *547:88 0
46 *231:13 *547:100 0
47 *231:13 *547:116 0
48 *232:15 *547:116 0.000152342
49 *232:15 *547:132 0.000240499
50 *233:19 *12134:BEN[23] 0.000215727
51 *362:80 *547:28 0.00028994
52 *369:22 *12217:A 6.2423e-05
53 *369:22 *547:28 0.000233177
54 *382:88 *547:52 8.33742e-05
55 *382:88 *547:64 0.00058978
56 *382:88 *547:76 0.000705693
57 *382:88 *547:88 0.000711261
58 *382:88 *547:100 0.000691207
59 *382:88 *547:116 0.00043523
60 *426:16 *12134:BEN[17] 0
61 *443:24 *12134:BEN[19] 0
62 *443:44 *547:88 5.05066e-06
63 *454:18 *547:116 0.00010506
64 *454:18 *547:132 0.000499074
65 *454:30 *547:116 8.38966e-05
66 *458:12 *12134:BEN[23] 0.00070703
67 *458:12 *547:132 0.000204665
68 *458:24 *547:132 8.38966e-05
69 *462:36 *12134:BEN[23] 4.01548e-05
70 *509:8 *12217:A 7.15209e-05
71 *509:8 *547:28 0.00023185
*RES
1 *12016:X *547:18 37.8555
2 *547:18 *547:28 22.5903
3 *547:28 *1063:DIODE 3.6
4 *547:28 *12217:A 5.265
5 *547:18 *547:52 24.58
6 *547:52 *12134:BEN[16] 5.075
7 *547:52 *547:64 6.99
8 *547:64 *12134:BEN[17] 4.325
9 *547:64 *547:76 8.265
10 *547:76 *12134:BEN[18] 3.995
11 *547:76 *547:88 8.265
12 *547:88 *12134:BEN[19] 4.01
13 *547:88 *547:100 8.01
14 *547:100 *12134:BEN[20] 4.625
15 *547:100 *547:116 8.055
16 *547:116 *12134:BEN[21] 4.715
17 *547:116 *547:132 10.0125
18 *547:132 *12134:BEN[22] 3.0875
19 *547:132 *12134:BEN[23] 11.3675
*END

*D_NET *548 0.00232252
*CONN
*I *12014:A I *D sky130_fd_sc_hd__dlygate4sd3_1
*I *12017:X O *D sky130_fd_sc_hd__dlygate4sd3_1
*CAP
1 *12014:A 0.000675561
2 *12017:X 0.000675561
3 *12014:A *12244:A 9.77731e-05
4 *12014:A *571:12 0
5 *12014:A *593:10 0.00020508
6 *12014:A *631:18 0.000331014
7 *12014:A *631:20 0.000120655
8 *12017:A *12014:A 0
9 *132:18 *12014:A 4.44131e-05
10 *363:30 *12014:A 0.000172462
*RES
1 *12017:X *12014:A 19.2
*END

*D_NET *549 0.0011242
*CONN
*I *12209:A I *D sky130_fd_sc_hd__buf_12
*I *12018:X O *D sky130_fd_sc_hd__dlygate4sd3_1
*CAP
1 *12209:A 0.000262832
2 *12018:X 0.000262832
3 *11979:A *12209:A 0.000437521
4 *12020:A *12209:A 0.000149019
5 *363:39 *12209:A 1.19928e-05
*RES
1 *12018:X *12209:A 12.45
*END

*D_NET *550 0.0753321
*CONN
*I *12134:BEN[31] I *D CF_SRAM_1024x32
*I *12134:BEN[30] I *D CF_SRAM_1024x32
*I *12134:BEN[29] I *D CF_SRAM_1024x32
*I *12134:BEN[28] I *D CF_SRAM_1024x32
*I *12134:BEN[27] I *D CF_SRAM_1024x32
*I *12134:BEN[26] I *D CF_SRAM_1024x32
*I *12134:BEN[25] I *D CF_SRAM_1024x32
*I *12134:BEN[24] I *D CF_SRAM_1024x32
*I *12216:A I *D sky130_fd_sc_hd__clkbuf_16
*I *12019:X O *D sky130_fd_sc_hd__buf_12
*CAP
1 *12134:BEN[31] 0.000354351
2 *12134:BEN[30] 0.000106847
3 *12134:BEN[29] 5.48277e-05
4 *12134:BEN[28] 5.47463e-05
5 *12134:BEN[27] 5.47463e-05
6 *12134:BEN[26] 5.47463e-05
7 *12134:BEN[25] 0.000630959
8 *12134:BEN[24] 4.59557e-05
9 *12216:A 0.000864208
10 *12019:X 0
11 *550:155 6.44594e-06
12 *550:135 0
13 *550:128 0.000702731
14 *550:114 0.000433115
15 *550:102 0.000322038
16 *550:92 0.000341167
17 *550:82 0.000391938
18 *550:43 0.0157578
19 *550:18 0.016811
20 *550:8 0.00702619
21 *550:6 0.006348
22 *12216:A *635:37 4.41506e-05
23 *966:DIODE *550:18 0.000118081
24 *1001:DIODE *12216:A 9.59423e-05
25 *1036:DIODE *550:18 0.00033166
26 *11978:A *550:18 0.000405125
27 *12074:A *12216:A 3.92756e-05
28 *12124:DI[24] *12216:A 0
29 *12124:DI[24] *550:43 0.0012784
30 *12134:DI[31] *12134:BEN[31] 0.000124687
31 *117:12 *12216:A 4.01548e-05
32 *131:16 *550:18 0.000226563
33 *147:10 *550:8 0.00953516
34 *149:10 *550:18 0.0004439
35 *185:10 *550:18 0.000144655
36 *235:19 *12134:BEN[25] 0.000312412
37 *235:19 *550:43 0.00199517
38 *237:9 *12134:BEN[26] 0
39 *241:9 *12134:BEN[29] 0
40 *362:80 *550:8 0.000581094
41 *365:24 *550:8 0.000480844
42 *365:74 *550:18 0
43 *382:88 *12134:BEN[31] 0.000128341
44 *454:16 *12134:BEN[25] 5.33085e-05
45 *454:16 *550:82 0.000722924
46 *454:16 *550:92 0.000726341
47 *454:16 *550:102 0.000123852
48 *458:12 *12134:BEN[25] 0.000396755
49 *458:12 *550:43 1.00941e-05
50 *458:12 *550:102 0.000125398
51 *467:28 *550:43 0.000112136
52 *471:42 *12134:BEN[25] 0
53 *471:52 *12134:BEN[25] 0.000195983
54 *471:54 *550:82 0.000722924
55 *471:54 *550:92 0.00071781
56 *471:54 *550:102 0.000728884
57 *471:54 *550:114 0.000728884
58 *471:104 *12134:BEN[25] 4.00541e-06
59 *471:104 *12216:A 0
60 *471:104 *550:43 0
61 *480:56 *12134:BEN[31] 0.000420386
62 *480:56 *550:128 0.000706776
63 *480:58 *12134:BEN[31] 0.000228106
64 *484:30 *550:102 8.63143e-05
65 *484:53 *550:102 0.000309004
66 *484:53 *550:114 0.000737415
67 *484:53 *550:128 6.42222e-05
68 *484:55 *12134:BEN[31] 0.000164432
69 *484:55 *550:128 0.000343066
70 *493:30 *550:128 6.18047e-05
71 *515:8 *12216:A 0.000153816
*RES
1 *12019:X *550:6 3.6
2 *550:6 *550:8 110.265
3 *550:8 *550:18 22.6575
4 *550:18 *12216:A 11.9264
5 *550:18 *550:43 43.218
6 *550:43 *12134:BEN[24] 0.795
7 *550:43 *12134:BEN[25] 15.085
8 *12134:BEN[25] *550:82 11.0225
9 *550:82 *12134:BEN[26] 2.7425
10 *550:82 *550:92 8.28
11 *550:92 *12134:BEN[27] 2.7425
12 *550:92 *550:102 8.28
13 *550:102 *12134:BEN[28] 2.7425
14 *550:102 *550:114 10.28
15 *550:114 *12134:BEN[29] 0.7425
16 *550:114 *550:128 11.1875
17 *550:128 *12134:BEN[30] 3.485
18 *12134:BEN[30] *550:135 0.1225
19 *550:128 *12134:BEN[31] 15.96
20 *12134:BEN[31] *550:155 0.105
*END

*D_NET *551 0.000307301
*CONN
*I *12018:A I *D sky130_fd_sc_hd__dlygate4sd3_1
*I *12020:X O *D sky130_fd_sc_hd__dlygate4sd3_1
*CAP
1 *12018:A 6.42436e-05
2 *12020:X 6.42436e-05
3 *12018:A *588:44 9.50342e-06
4 *12020:A *12018:A 0.000136182
5 *110:22 *12018:A 3.31282e-05
*RES
1 *12020:X *12018:A 8.835
*END

*D_NET *552 0.0306826
*CONN
*I *12122:A I *D sky130_fd_sc_hd__buf_12
*I *12188:X O *D sky130_fd_sc_hd__buf_12
*CAP
1 *12122:A 0.000506139
2 *12188:X 0.000574972
3 *552:16 0.00452394
4 *552:14 0.00401781
5 *552:12 0.00194528
6 *552:10 0.00252025
7 *12122:A *627:148 0
8 *552:12 *611:28 0.00210969
9 *552:16 *557:38 2.18993e-05
10 *552:16 *557:50 0.000279806
11 *552:16 *557:62 0.000233115
12 *552:16 *557:72 0.000268063
13 *552:16 *557:84 0.000279806
14 *552:16 *557:100 0.000279806
15 *552:16 *557:112 0
16 *552:16 *569:16 0
17 *845:DIODE *12122:A 7.83396e-05
18 *11940:A *552:10 0
19 *11942:A *552:10 0
20 *174:8 *12122:A 0
21 *174:10 *552:16 0.00499974
22 *228:19 *552:16 0
23 *382:74 *552:16 0
24 *382:88 *552:16 0.00248807
25 *518:20 *552:12 0.00555583
*RES
1 *12188:X *552:10 14.12
2 *552:10 *552:12 50.82
3 *552:12 *552:14 2
4 *552:14 *552:16 117.915
5 *552:16 *12122:A 10.605
*END

*D_NET *553 0.000388958
*CONN
*I *12197:A I *D sky130_fd_sc_hd__buf_2
*I *12021:X O *D sky130_fd_sc_hd__dlygate4sd3_1
*CAP
1 *12197:A 0.000153354
2 *12021:X 0.000153354
3 *12197:A *12222:A 3.30017e-05
4 wbs_dat_o[12] *12197:A 4.92488e-05
5 *652:DIODE *12197:A 0
6 *12015:A *12197:A 0
7 *149:61 *12197:A 0
*RES
1 *12021:X *12197:A 9.63
*END

*D_NET *554 0.028669
*CONN
*I *11818:A I *D sky130_fd_sc_hd__and3_4
*I *11821:A I *D sky130_fd_sc_hd__or2_4
*I *11819:A_N I *D sky130_fd_sc_hd__and4b_2
*I *11820:C I *D sky130_fd_sc_hd__and3b_1
*I *12022:X O *D sky130_fd_sc_hd__dlygate4sd3_1
*CAP
1 *11818:A 0.000828416
2 *11821:A 2.12116e-05
3 *11819:A_N 0.00130226
4 *11820:C 5.09507e-05
5 *12022:X 0.000152449
6 *554:57 0.00210219
7 *554:55 0.00147511
8 *554:31 0.00210489
9 *554:14 0.0010247
10 *554:6 0.000546118
11 *11818:A *11818:B 0.00193804
12 *11819:A_N *11819:B 0.000608019
13 *11819:A_N *598:14 0.000864312
14 *11819:A_N *625:45 0.00158771
15 *11820:C *11820:A_N 4.41506e-05
16 *11821:A *11821:B 4.82863e-05
17 *554:14 *11820:A_N 4.08514e-05
18 *554:31 *625:45 0.000344576
19 *554:55 *12022:A 1.19928e-05
20 *554:55 *625:26 8.35106e-05
21 *554:57 *11818:B 0.000772201
22 *554:57 *11837:S 0.000516179
23 *554:57 *625:109 2.05661e-05
24 *11818:C *11818:A 0.0012025
25 *11927:A *11820:C 1.16578e-05
26 *11927:A *554:14 8.40213e-05
27 *12036:A *11818:A 0.000303707
28 *12058:A *554:57 0.000417673
29 *12074:A *11819:A_N 0.000112534
30 *12074:A *554:14 0.000146796
31 *115:10 *554:57 0.000344392
32 *145:10 *11818:A 1.34361e-05
33 *147:10 *554:14 0.00074088
34 *147:10 *554:31 0.000558509
35 *180:36 *554:57 0.00468152
36 *220:51 *554:57 0.000262696
37 *221:40 *554:57 0.00168654
38 *221:54 *554:57 0.000248254
39 *248:59 *554:57 0.000201389
40 *248:76 *554:57 0.000312785
41 *365:24 *554:31 0.000105913
42 *407:16 *554:14 0.00074088
43 *407:16 *554:31 4.24292e-06
*RES
1 *12022:X *554:6 3.085
2 *554:6 *554:14 13.315
3 *554:14 *11820:C 2.395
4 *554:14 *554:31 15.26
5 *554:31 *11819:A_N 32.865
6 *554:31 *11821:A 4.05
7 *554:6 *554:55 4.175
8 *554:55 *554:57 54.675
9 *554:57 *11818:A 30.61
*END

*D_NET *555 0.0609397
*CONN
*I *12154:EN I *D CF_SRAM_1024x32
*I *12023:X O *D sky130_fd_sc_hd__dlygate4sd3_1
*CAP
1 *12154:EN 0.00674419
2 *12023:X 0.00356097
3 *555:16 0.0103052
4 *555:16 *637:122 0.000119756
5 *12154:WLOFF *12154:EN 0.000131943
6 *12154:R_WB *12154:EN 0.001341
7 *286:15 *555:16 0.000118081
8 *289:21 *12154:EN 0
9 *296:27 *555:16 0.0068805
10 *299:25 *555:16 0.00115643
11 *300:19 *12154:EN 0.0152619
12 *303:33 *12154:EN 0.0152668
13 *432:54 *12154:EN 1.31846e-05
14 *480:58 *12154:EN 3.97748e-05
*RES
1 *12023:X *555:16 32.4178
2 *555:16 *12154:EN 42.6469
*END

*D_NET *556 0.00073171
*CONN
*I *12206:A I *D sky130_fd_sc_hd__clkbuf_16
*I *12024:X O *D sky130_fd_sc_hd__dlygate4sd3_1
*CAP
1 *12206:A 0.00023803
2 *12024:X 0.00023803
3 *12206:A *582:6 7.35729e-05
4 *12206:A *588:20 4.75991e-05
5 wbs_dat_o[1] *12206:A 0
6 *12027:A *12206:A 0.000134478
*RES
1 *12024:X *12206:A 11.88
*END

*D_NET *557 0.185061
*CONN
*I *12124:BEN[10] I *D CF_SRAM_1024x32
*I *12144:BEN[8] I *D CF_SRAM_1024x32
*I *12144:BEN[9] I *D CF_SRAM_1024x32
*I *12144:BEN[10] I *D CF_SRAM_1024x32
*I *12144:BEN[11] I *D CF_SRAM_1024x32
*I *12144:BEN[12] I *D CF_SRAM_1024x32
*I *12144:BEN[13] I *D CF_SRAM_1024x32
*I *12144:BEN[14] I *D CF_SRAM_1024x32
*I *12154:BEN[8] I *D CF_SRAM_1024x32
*I *12154:BEN[9] I *D CF_SRAM_1024x32
*I *12154:BEN[10] I *D CF_SRAM_1024x32
*I *12154:BEN[11] I *D CF_SRAM_1024x32
*I *12154:BEN[12] I *D CF_SRAM_1024x32
*I *12154:BEN[13] I *D CF_SRAM_1024x32
*I *12154:BEN[14] I *D CF_SRAM_1024x32
*I *12154:BEN[15] I *D CF_SRAM_1024x32
*I *12144:BEN[15] I *D CF_SRAM_1024x32
*I *12124:BEN[8] I *D CF_SRAM_1024x32
*I *12124:BEN[9] I *D CF_SRAM_1024x32
*I *12124:BEN[11] I *D CF_SRAM_1024x32
*I *12124:BEN[12] I *D CF_SRAM_1024x32
*I *12124:BEN[13] I *D CF_SRAM_1024x32
*I *12124:BEN[14] I *D CF_SRAM_1024x32
*I *12134:BEN[8] I *D CF_SRAM_1024x32
*I *12134:BEN[9] I *D CF_SRAM_1024x32
*I *12134:BEN[10] I *D CF_SRAM_1024x32
*I *12134:BEN[11] I *D CF_SRAM_1024x32
*I *12134:BEN[12] I *D CF_SRAM_1024x32
*I *12134:BEN[13] I *D CF_SRAM_1024x32
*I *12134:BEN[14] I *D CF_SRAM_1024x32
*I *12134:BEN[15] I *D CF_SRAM_1024x32
*I *12124:BEN[15] I *D CF_SRAM_1024x32
*I *12025:X O *D sky130_fd_sc_hd__clkbuf_16
*CAP
1 *12124:BEN[10] 0.000251226
2 *12144:BEN[8] 0.000399403
3 *12144:BEN[9] 0.000122428
4 *12144:BEN[10] 0.000123295
5 *12144:BEN[11] 9.46814e-05
6 *12144:BEN[12] 0.000129273
7 *12144:BEN[13] 0.000382215
8 *12144:BEN[14] 0.000594262
9 *12154:BEN[8] 0.000420371
10 *12154:BEN[9] 0.000179599
11 *12154:BEN[10] 0.000180466
12 *12154:BEN[11] 0.000175967
13 *12154:BEN[12] 0.000208728
14 *12154:BEN[13] 0.000132179
15 *12154:BEN[14] 0.000208049
16 *12154:BEN[15] 0.000145891
17 *12144:BEN[15] 0.000511909
18 *12124:BEN[8] 0.0003734
19 *12124:BEN[9] 0.000376752
20 *12124:BEN[11] 0.000263747
21 *12124:BEN[12] 0.000142413
22 *12124:BEN[13] 7.46893e-05
23 *12124:BEN[14] 4.52548e-05
24 *12134:BEN[8] 0.000277738
25 *12134:BEN[9] 8.18468e-05
26 *12134:BEN[10] 8.48816e-05
27 *12134:BEN[11] 0.000125079
28 *12134:BEN[12] 0.000132073
29 *12134:BEN[13] 0.000121865
30 *12134:BEN[14] 0.000187764
31 *12134:BEN[15] 0.000190456
32 *12124:BEN[15] 0.00257137
33 *12025:X 0.00117112
34 *557:461 0.000879126
35 *557:449 0.000836487
36 *557:437 0.000797117
37 *557:425 0.00124711
38 *557:397 0.00142945
39 *557:392 0
40 *557:377 0.00117708
41 *557:353 0.000812432
42 *557:341 0.000568875
43 *557:329 0.000543303
44 *557:317 0.000626028
45 *557:312 0
46 *557:305 0.000511475
47 *557:293 0.000560078
48 *557:281 0.0188868
49 *557:263 0.0198467
50 *557:259 0.0122012
51 *557:239 0.0119216
52 *557:234 6.90636e-06
53 *557:219 0.00134506
54 *557:213 0.00101046
55 *557:191 0.000801525
56 *557:171 0.000591725
57 *557:161 0.000567836
58 *557:136 0.00203237
59 *557:112 0.000621242
60 *557:105 0
61 *557:100 0.000627906
62 *557:91 0
63 *557:84 0.000630974
64 *557:79 0
65 *557:72 0.00061061
66 *557:62 0.00060446
67 *557:50 0.000643042
68 *557:38 0.0178331
69 *557:30 0.0204521
70 *557:30 *631:218 7.27298e-06
71 *557:191 *12124:EN 0.00099649
72 *557:213 *12124:EN 0.000773651
73 *557:219 *12124:EN 0.000359861
74 *557:239 *12124:EN 0.000500049
75 *557:259 *12124:EN 0.00184276
76 *557:259 *560:82 0.000773144
77 *557:259 *560:102 0.000680362
78 *557:259 *560:122 0.00131164
79 *557:259 *560:158 0.0198286
80 *557:377 *560:158 0.000741365
81 *557:397 *560:158 0.000699033
82 *557:425 *560:158 0.0009665
83 *557:437 *638:156 0.000268278
84 *557:449 *638:156 0.000406587
85 *557:461 *638:156 0.000382956
86 *11829:B2 *12124:BEN[15] 0.000106915
87 *11859:B2 *12124:BEN[15] 0
88 *11863:A1 *557:425 0
89 *11865:A1 *12124:BEN[12] 0
90 *11868:A1 *12124:BEN[15] 0
91 *11868:A1 *557:161 5.83121e-06
92 *11869:A1 *12144:BEN[14] 0
93 *11869:A1 *557:263 0
94 *11871:A1 *12124:BEN[14] 0
95 *11871:B2 *12124:BEN[15] 0.000728084
96 *12124:DI[14] *557:161 2.49909e-05
97 *12124:DI[15] *557:30 0
98 *12134:DI[14] *12134:BEN[14] 0
99 *12134:DI[14] *557:62 3.97748e-05
100 *12134:DI[9] *12134:BEN[8] 3.97719e-05
101 *12134:DI[15] *12134:BEN[15] 0
102 *12134:DI[15] *557:38 0
103 *12134:DI[13] *557:72 3.91191e-05
104 *12144:DI[12] *12144:BEN[12] 0
105 *12144:DI[9] *12144:BEN[9] 0
106 *12144:DI[10] *12144:BEN[10] 0
107 *12154:DI[12] *12154:BEN[12] 0
108 *12154:DI[12] *557:329 1.79483e-05
109 *12154:DI[14] *12154:BEN[14] 0
110 *12154:DI[14] *557:305 3.97748e-05
111 *12154:DI[11] *557:341 1.79536e-05
112 *12154:DI[9] *12154:BEN[8] 1.79536e-05
113 *12154:DI[13] *557:317 1.7635e-05
114 *12154:DI[10] *12154:BEN[10] 0
115 *120:18 *557:30 1.87328e-05
116 *120:18 *557:136 0.000650766
117 *124:28 *12124:BEN[15] 0.00021448
118 *142:16 *12124:BEN[9] 3.64998e-06
119 *142:20 *12124:BEN[10] 1.79536e-05
120 *142:20 *12124:BEN[11] 1.79536e-05
121 *142:20 *557:161 0.000261714
122 *142:20 *557:171 0.000620444
123 *142:20 *557:191 0.000456907
124 *142:20 *557:213 0.000212642
125 *142:28 *557:161 0.00033637
126 *187:30 *12124:BEN[10] 0
127 *187:30 *557:219 0
128 *188:30 *12124:BEN[10] 0
129 *188:30 *12124:BEN[11] 0
130 *188:30 *557:219 0
131 *189:34 *12124:BEN[11] 0
132 *189:34 *557:191 0
133 *194:44 *557:136 1.04292e-05
134 *195:23 *557:191 0.000411872
135 *195:23 *557:213 0.000328355
136 *206:37 *12124:BEN[15] 0.000120149
137 *216:31 *12124:BEN[8] 0
138 *217:27 *12124:BEN[9] 0
139 *217:27 *12124:BEN[15] 0.000128703
140 *219:13 *12134:BEN[9] 0
141 *219:13 *12134:BEN[8] 0.000344017
142 *219:13 *557:112 0.000108205
143 *220:15 *557:100 0.00011938
144 *221:20 *557:84 3.97748e-05
145 *228:13 *12134:BEN[8] 0.000714051
146 *228:13 *557:84 0.000176086
147 *228:13 *557:100 0.000203694
148 *228:13 *557:112 0.000729592
149 *228:19 *557:38 3.30483e-05
150 *228:19 *557:50 0.000394219
151 *228:19 *557:62 0.000308779
152 *228:19 *557:72 0.000360737
153 *228:19 *557:84 0.000125127
154 *249:32 *12134:BEN[8] 3.97748e-05
155 *251:11 *12144:BEN[15] 1.79536e-05
156 *253:11 *12144:BEN[15] 1.79536e-05
157 *255:7 *12144:BEN[13] 0
158 *272:11 *12144:BEN[14] 1.79483e-05
159 *278:11 *12144:BEN[14] 1.79483e-05
160 *279:11 *12144:BEN[8] 0.00014055
161 *281:11 *12144:BEN[13] 1.79483e-05
162 *281:11 *12144:BEN[8] 0.000257693
163 *281:11 *557:425 3.91137e-05
164 *281:11 *557:437 0.00067943
165 *281:11 *557:449 0.000786179
166 *281:11 *557:461 0.000740019
167 *283:21 *557:353 6.18018e-05
168 *284:24 *557:341 1.79483e-05
169 *285:21 *557:329 1.79483e-05
170 *287:24 *557:305 3.97748e-05
171 *288:24 *557:293 1.79483e-05
172 *313:21 *12154:BEN[8] 1.79483e-05
173 *319:22 *557:30 1.79536e-05
174 *319:22 *557:136 0.000658316
175 *351:24 *12124:BEN[9] 8.41015e-06
176 *351:24 *12124:BEN[8] 8.41703e-06
177 *351:26 *12124:BEN[10] 1.79536e-05
178 *351:26 *12124:BEN[11] 1.79536e-05
179 *351:26 *557:161 0.000261714
180 *351:26 *557:171 0.000628975
181 *351:26 *557:191 0.000249303
182 *351:26 *557:213 0.000163707
183 *360:98 *557:263 0
184 *360:98 *557:281 0
185 *360:98 *557:293 3.97748e-05
186 *369:56 *557:84 3.97748e-05
187 *371:60 *557:100 1.79536e-05
188 *382:74 *557:112 3.97719e-05
189 *382:88 *12154:BEN[15] 3.97748e-05
190 *382:88 *557:112 4.73411e-05
191 *382:88 *557:293 0.000790932
192 *382:88 *557:305 0.000602828
193 *382:88 *557:317 0.000815645
194 *382:88 *557:329 0.000662025
195 *382:88 *557:341 0.000691207
196 *382:88 *557:353 0.000227216
197 *432:50 *12154:BEN[8] 0.000216241
198 *432:50 *557:353 0.000189804
199 *480:58 *12154:BEN[15] 2.05004e-05
200 *480:58 *12154:BEN[8] 0.000285539
201 *480:58 *557:293 0.000404048
202 *480:58 *557:305 0.000285276
203 *480:58 *557:317 0.00043752
204 *480:58 *557:329 0.000336429
205 *480:58 *557:341 0.000360065
206 *480:58 *557:353 0.000359154
207 *496:34 *12124:BEN[15] 0.00100461
208 *552:16 *557:38 2.18993e-05
209 *552:16 *557:50 0.000279806
210 *552:16 *557:62 0.000233115
211 *552:16 *557:72 0.000268063
212 *552:16 *557:84 0.000279806
213 *552:16 *557:100 0.000279806
214 *552:16 *557:112 0
*RES
1 *12025:X *12124:BEN[15] 34.6425
2 *12124:BEN[15] *557:30 19.235
3 *557:30 *557:38 43.6742
4 *557:38 *12134:BEN[15] 4.9325
5 *557:38 *557:50 8.265
6 *557:50 *12134:BEN[14] 4.9175
7 *557:50 *557:62 7.245
8 *557:62 *12134:BEN[13] 3.7775
9 *557:62 *557:72 8.265
10 *557:72 *12134:BEN[12] 3.83
11 *12134:BEN[12] *557:79 0.163333
12 *557:72 *557:84 8.265
13 *557:84 *12134:BEN[11] 3.83
14 *12134:BEN[11] *557:91 0.133636
15 *557:84 *557:100 11.06
16 *557:100 *12134:BEN[10] 1.14
17 *12134:BEN[10] *557:105 0.113077
18 *557:100 *557:112 10.325
19 *557:112 *12134:BEN[9] 3.0875
20 *557:112 *12134:BEN[8] 11.3675
21 *557:30 *557:136 25.5125
22 *557:136 *12124:BEN[14] 0.795
23 *557:136 *557:161 15.03
24 *557:161 *12124:BEN[13] 3.0875
25 *557:161 *557:171 7.245
26 *557:171 *12124:BEN[12] 4.2275
27 *557:171 *557:191 3.43183
28 *557:191 *12124:BEN[11] 5.85367
29 *557:191 *557:213 1.91613
30 *557:213 *557:219 2.04533
31 *557:219 *12124:BEN[9] 4.5025
32 *12124:BEN[9] *557:234 0.1125
33 *557:219 *557:239 1.5884
34 *557:239 *12124:BEN[8] 5.245
35 *557:239 *557:259 46.0332
36 *557:259 *557:263 1.90727
37 *557:263 *12144:BEN[15] 9.355
38 *557:263 *557:281 44.1215
39 *557:281 *12154:BEN[15] 4.265
40 *557:281 *557:293 9.1575
41 *557:293 *12154:BEN[14] 5.1425
42 *557:293 *557:305 6.99
43 *557:305 *12154:BEN[13] 3.83
44 *12154:BEN[13] *557:312 0.133636
45 *557:305 *557:317 9.54
46 *557:317 *12154:BEN[12] 5.1125
47 *557:317 *557:329 7.755
48 *557:329 *12154:BEN[11] 4.5875
49 *557:329 *557:341 8.01
50 *557:341 *12154:BEN[10] 4.6625
51 *557:341 *557:353 8.265
52 *557:353 *12154:BEN[9] 4.6475
53 *557:353 *12154:BEN[8] 11.7425
54 *557:259 *557:377 1.33
55 *557:377 *12144:BEN[14] 6.51883
56 *12144:BEN[14] *557:392 0.163333
57 *557:377 *557:397 1.24387
58 *557:397 *12144:BEN[13] 5.605
59 *557:397 *557:425 3.72317
60 *557:425 *12144:BEN[12] 4.0775
61 *557:425 *557:437 7.755
62 *557:437 *12144:BEN[11] 3.5525
63 *557:437 *557:449 8.775
64 *557:449 *12144:BEN[10] 4.0475
65 *557:449 *557:461 8.265
66 *557:461 *12144:BEN[9] 4.0325
67 *557:461 *12144:BEN[8] 9.9425
68 *557:213 *12124:BEN[10] 5.33867
*END

*D_NET *558 0.000588556
*CONN
*I *12024:A I *D sky130_fd_sc_hd__dlygate4sd3_1
*I *12027:X O *D sky130_fd_sc_hd__dlygate4sd3_1
*CAP
1 *12024:A 0.000136053
2 *12027:X 0.000136053
3 *12024:A *582:6 0.000198618
4 wbs_dat_o[1] *12024:A 0
5 *12095:A *12024:A 0.000117832
*RES
1 *12027:X *12024:A 10.41
*END

*D_NET *559 0.00151447
*CONN
*I *12205:A I *D sky130_fd_sc_hd__clkbuf_16
*I *12028:X O *D sky130_fd_sc_hd__dlygate4sd3_1
*CAP
1 *12205:A 0.000611646
2 *12028:X 0.000611646
3 *12205:A *12230:A 0
4 *12205:A *582:6 2.49909e-05
5 *12095:A *12205:A 0.00020253
6 *12096:A *12205:A 6.36578e-05
*RES
1 *12028:X *12205:A 15.195
*END

*D_NET *560 0.220129
*CONN
*I *12134:BEN[0] I *D CF_SRAM_1024x32
*I *12134:BEN[1] I *D CF_SRAM_1024x32
*I *12134:BEN[2] I *D CF_SRAM_1024x32
*I *12134:BEN[3] I *D CF_SRAM_1024x32
*I *12134:BEN[4] I *D CF_SRAM_1024x32
*I *12134:BEN[5] I *D CF_SRAM_1024x32
*I *12134:BEN[6] I *D CF_SRAM_1024x32
*I *12134:BEN[7] I *D CF_SRAM_1024x32
*I *12124:BEN[7] I *D CF_SRAM_1024x32
*I *12124:BEN[4] I *D CF_SRAM_1024x32
*I *12154:BEN[0] I *D CF_SRAM_1024x32
*I *12154:BEN[1] I *D CF_SRAM_1024x32
*I *12154:BEN[2] I *D CF_SRAM_1024x32
*I *12154:BEN[3] I *D CF_SRAM_1024x32
*I *12154:BEN[4] I *D CF_SRAM_1024x32
*I *12154:BEN[5] I *D CF_SRAM_1024x32
*I *12154:BEN[6] I *D CF_SRAM_1024x32
*I *12154:BEN[7] I *D CF_SRAM_1024x32
*I *12144:BEN[0] I *D CF_SRAM_1024x32
*I *12144:BEN[1] I *D CF_SRAM_1024x32
*I *12144:BEN[2] I *D CF_SRAM_1024x32
*I *12144:BEN[3] I *D CF_SRAM_1024x32
*I *12144:BEN[4] I *D CF_SRAM_1024x32
*I *12144:BEN[5] I *D CF_SRAM_1024x32
*I *12144:BEN[6] I *D CF_SRAM_1024x32
*I *12144:BEN[7] I *D CF_SRAM_1024x32
*I *12124:BEN[0] I *D CF_SRAM_1024x32
*I *12124:BEN[1] I *D CF_SRAM_1024x32
*I *12124:BEN[2] I *D CF_SRAM_1024x32
*I *12124:BEN[3] I *D CF_SRAM_1024x32
*I *12124:BEN[5] I *D CF_SRAM_1024x32
*I *12124:BEN[6] I *D CF_SRAM_1024x32
*I *12029:X O *D sky130_fd_sc_hd__clkbuf_16
*CAP
1 *12134:BEN[0] 0.000355241
2 *12134:BEN[1] 0.00020798
3 *12134:BEN[2] 0.000172335
4 *12134:BEN[3] 0.000134183
5 *12134:BEN[4] 0.00013505
6 *12134:BEN[5] 0.000142936
7 *12134:BEN[6] 0.000134183
8 *12134:BEN[7] 0.000160069
9 *12124:BEN[7] 0.000123748
10 *12124:BEN[4] 0.000196064
11 *12154:BEN[0] 0.000379386
12 *12154:BEN[1] 0.000129119
13 *12154:BEN[2] 0.000197644
14 *12154:BEN[3] 0.000198511
15 *12154:BEN[4] 0.000140416
16 *12154:BEN[5] 0.000141284
17 *12154:BEN[6] 0.000201113
18 *12154:BEN[7] 0.000203805
19 *12144:BEN[0] 0.000481666
20 *12144:BEN[1] 0.000115491
21 *12144:BEN[2] 0.000116359
22 *12144:BEN[3] 0.000117226
23 *12144:BEN[4] 0.000122428
24 *12144:BEN[5] 0.000121561
25 *12144:BEN[6] 0.000120694
26 *12144:BEN[7] 6.14832e-05
27 *12124:BEN[0] 0.00020248
28 *12124:BEN[1] 0.000234668
29 *12124:BEN[2] 0.0002574
30 *12124:BEN[3] 0.000297211
31 *12124:BEN[5] 0.000311466
32 *12124:BEN[6] 0.000318222
33 *12029:X 0.0013369
34 *560:485 0.000709022
35 *560:473 0.000485182
36 *560:461 0.000509584
37 *560:449 0.000525369
38 *560:437 0.000508039
39 *560:425 0.000523911
40 *560:411 0.0121599
41 *560:346 0.000692244
42 *560:334 0.000646835
43 *560:314 0.0007135
44 *560:302 0.000598569
45 *560:290 0.000534555
46 *560:278 0.000594384
47 *560:266 0.0226763
48 *560:234 0.00114017
49 *560:222 0.0011856
50 *560:210 0.00126866
51 *560:198 0.00113348
52 *560:186 0.000892456
53 *560:174 0.000804784
54 *560:162 0.000378866
55 *560:158 0.0294441
56 *560:128 0.000617861
57 *560:122 0.00754907
58 *560:102 0.000575359
59 *560:82 0.000727722
60 *560:76 0.00103026
61 *560:54 0.00127646
62 *560:30 0.000990681
63 *560:24 0.00217629
64 *560:20 0.0139189
65 *560:18 0.00163261
66 *12144:BEN[0] *638:156 0.000288434
67 *560:18 *588:46 0.0022804
68 *560:18 *627:27 0.000506237
69 *560:30 *12124:EN 0.000610603
70 *560:54 *12124:EN 0.00101041
71 *560:76 *12124:EN 0.00089386
72 *560:82 *12124:EN 0.000763416
73 *560:102 *12124:EN 0.000692286
74 *560:122 *12124:EN 0.00132357
75 *560:158 *12124:EN 0.0027112
76 *560:158 *639:94 0.00082898
77 *560:158 *639:114 0.000834347
78 *560:158 *639:134 0.0167992
79 *560:174 *638:156 0.000268278
80 *560:186 *638:156 0.000382956
81 *560:198 *638:156 0.000382956
82 *560:210 *638:156 0.000244647
83 *560:222 *638:156 0.000221017
84 *560:234 *638:156 0.000309632
85 *11829:B2 *560:18 0.000507176
86 *11834:A0 *560:24 0.000110538
87 *11834:A1 *560:20 0.000181898
88 *11840:A0 *12124:BEN[4] 5.83121e-06
89 *11840:A0 *560:54 0.000236272
90 *12124:DI[3] *12124:BEN[3] 0
91 *12124:DI[4] *12124:BEN[4] 0
92 *12124:DI[7] *12124:BEN[6] 0
93 *12124:DI[8] *560:411 0
94 *12134:ScanInDL *12134:BEN[0] 0
95 *12134:DI[3] *560:473 8.93064e-06
96 *12134:DI[4] *560:461 4.05958e-05
97 *12134:DI[5] *560:449 3.80347e-05
98 *12134:DI[6] *560:437 1.04715e-05
99 *12134:DI[7] *12134:BEN[7] 0
100 *12134:DI[7] *560:411 0
101 *12134:DI[7] *560:425 1.79536e-05
102 *12134:DI[8] *560:411 0
103 *12144:DI[3] *12144:BEN[3] 0
104 *12144:DI[1] *12144:BEN[1] 0
105 *12144:DI[2] *12144:BEN[2] 0
106 *12154:DI[4] *560:314 0.000166107
107 *12154:DI[1] *12154:BEN[0] 1.79536e-05
108 *12154:DI[6] *12154:BEN[6] 0
109 *12154:DI[6] *560:290 1.79536e-05
110 *12154:DI[2] *12154:BEN[2] 0
111 *12154:DI[7] *12154:BEN[7] 0
112 *12154:DI[7] *560:266 0
113 *12154:DI[7] *560:278 1.79536e-05
114 *118:12 *560:18 2.72764e-05
115 *118:14 *560:18 0.0022498
116 *120:16 *560:18 0.000177401
117 *123:18 *12124:BEN[0] 0.000109393
118 *123:18 *12124:BEN[1] 0.000470612
119 *124:14 *560:18 1.97849e-05
120 *133:16 *560:158 0.000593907
121 *135:34 *12124:BEN[6] 4.13707e-05
122 *139:42 *560:128 5.18735e-06
123 *146:10 *560:18 1.29415e-05
124 *146:10 *560:20 0.000851162
125 *146:10 *560:411 8.42277e-05
126 *193:18 *12124:BEN[0] 0.000100677
127 *193:18 *12124:BEN[1] 0.000470612
128 *193:18 *12124:BEN[2] 1.79536e-05
129 *193:18 *12124:BEN[3] 1.79536e-05
130 *193:18 *12124:BEN[4] 1.79536e-05
131 *193:18 *12124:BEN[6] 1.79536e-05
132 *193:18 *560:30 0.0002262
133 *193:18 *560:54 0.000109931
134 *193:28 *12124:BEN[7] 3.64998e-06
135 *194:30 *12124:BEN[5] 1.79483e-05
136 *195:23 *560:30 0.000250569
137 *195:23 *560:54 0.000419416
138 *195:23 *560:76 0.000368964
139 *195:23 *560:158 0
140 *197:27 *12124:BEN[0] 0
141 *197:27 *560:128 0.00016156
142 *204:21 *560:158 0
143 *208:29 *12124:BEN[2] 0
144 *211:27 *12124:BEN[2] 0
145 *211:27 *12124:BEN[3] 4.33297e-05
146 *212:27 *12124:BEN[3] 0
147 *213:25 *12124:BEN[4] 0
148 *213:25 *560:82 0
149 *214:27 *12124:BEN[5] 0
150 *215:29 *12124:BEN[6] 0.00011129
151 *216:31 *560:30 0
152 *219:13 *560:411 2.67006e-05
153 *219:29 *560:411 0.0185365
154 *225:42 *12134:BEN[0] 0.000704994
155 *225:42 *560:485 0.000499968
156 *228:13 *560:411 8.24845e-05
157 *228:13 *560:425 0.00023589
158 *228:13 *560:437 0.000285582
159 *228:13 *560:449 0.000132869
160 *228:13 *560:461 0.000233003
161 *228:13 *560:473 0.000275624
162 *228:13 *560:485 3.84048e-05
163 *229:19 *12134:BEN[0] 0
164 *240:17 *12134:BEN[1] 0
165 *240:17 *560:485 1.79536e-05
166 *240:27 *560:411 0
167 *243:17 *560:473 1.79536e-05
168 *243:27 *560:20 1.05878e-05
169 *244:15 *560:461 3.41543e-05
170 *245:21 *560:437 3.97719e-05
171 *245:21 *560:449 0.00032415
172 *246:23 *560:437 1.79536e-05
173 *247:29 *560:425 3.97748e-05
174 *248:27 *560:411 0.00469009
175 *261:9 *12144:BEN[0] 0
176 *271:11 *12144:BEN[0] 0
177 *271:11 *560:234 0
178 *272:11 *560:210 0
179 *272:11 *560:222 0
180 *272:11 *560:234 0
181 *276:11 *560:174 9.87163e-05
182 *276:11 *560:186 0.000319442
183 *276:11 *560:198 0.000319442
184 *276:11 *560:210 0.000179354
185 *279:9 *12144:BEN[6] 0
186 *279:11 *560:162 8.41015e-06
187 *279:11 *560:174 0.000239551
188 *293:17 *12154:BEN[0] 1.79536e-05
189 *304:21 *560:346 3.97719e-05
190 *308:17 *560:314 1.79536e-05
191 *309:17 *560:302 1.79536e-05
192 *310:17 *560:290 1.79536e-05
193 *311:21 *560:278 1.79536e-05
194 *319:34 *560:18 0.000199469
195 *351:24 *12124:BEN[5] 1.79483e-05
196 *351:24 *12124:BEN[7] 1.79483e-05
197 *351:24 *560:30 0.000119921
198 *362:10 *560:18 0.000543546
199 *362:10 *560:20 0.000169055
200 *371:36 *560:18 4.41506e-05
201 *382:88 *12134:BEN[0] 0.000713302
202 *382:88 *560:411 7.61888e-06
203 *382:88 *560:425 0.000602828
204 *382:88 *560:437 0.000735397
205 *382:88 *560:449 0.000705876
206 *382:88 *560:461 0.000705876
207 *382:88 *560:473 0.000669112
208 *382:88 *560:485 0.000647018
209 *389:18 *560:20 0.000311364
210 *389:18 *560:411 9.13873e-05
211 *400:109 *560:302 1.79536e-05
212 *409:36 *560:334 0.000104483
213 *415:84 *560:346 1.79536e-05
214 *432:54 *12154:BEN[0] 0.000354082
215 *432:54 *560:266 4.5636e-05
216 *432:54 *560:278 0.000404432
217 *432:54 *560:290 0.000354082
218 *432:54 *560:302 0.000404432
219 *432:54 *560:314 0.000442659
220 *432:54 *560:334 0.000474162
221 *432:54 *560:346 0.000354082
222 *480:58 *12154:BEN[0] 0.000322304
223 *480:58 *560:266 4.5636e-05
224 *480:58 *560:278 0.000372655
225 *480:58 *560:290 0.000322304
226 *480:58 *560:302 0.000372655
227 *480:58 *560:314 0.000333349
228 *480:58 *560:334 0.000316828
229 *480:58 *560:346 0.000310077
230 *557:259 *560:82 0.000773144
231 *557:259 *560:102 0.000680362
232 *557:259 *560:122 0.00131164
233 *557:259 *560:158 0.0198286
234 *557:377 *560:158 0.000741365
235 *557:397 *560:158 0.000699033
236 *557:425 *560:158 0.0009665
*RES
1 *12029:X *560:18 48.6925
2 *560:18 *560:20 10.305
3 *560:20 *560:24 3.56787
4 *560:24 *560:30 1.75527
5 *560:30 *12124:BEN[6] 8.0154
6 *560:30 *560:54 1.8468
7 *560:54 *12124:BEN[5] 5.5352
8 *560:54 *560:76 2.17453
9 *560:76 *560:82 2.1872
10 *560:82 *12124:BEN[3] 5.56347
11 *560:82 *560:102 1.24387
12 *560:102 *12124:BEN[2] 4.52847
13 *560:102 *560:122 2.3636
14 *560:122 *560:128 1.475
15 *560:128 *12124:BEN[1] 9.455
16 *560:128 *12124:BEN[0] 6.005
17 *560:122 *560:158 47.3223
18 *560:158 *560:162 0.7325
19 *560:162 *12144:BEN[7] 2.9675
20 *560:162 *560:174 7.245
21 *560:174 *12144:BEN[6] 4.0025
22 *560:174 *560:186 8.265
23 *560:186 *12144:BEN[5] 4.0175
24 *560:186 *560:198 8.265
25 *560:198 *12144:BEN[4] 4.0325
26 *560:198 *560:210 10.56
27 *560:210 *12144:BEN[3] 3.9425
28 *560:210 *560:222 8.265
29 *560:222 *12144:BEN[2] 3.9275
30 *560:222 *560:234 8.265
31 *560:234 *12144:BEN[1] 3.9125
32 *560:234 *12144:BEN[0] 10.0625
33 *560:158 *560:266 46.2134
34 *560:266 *12154:BEN[7] 5.0375
35 *560:266 *560:278 8.265
36 *560:278 *12154:BEN[6] 5.0225
37 *560:278 *560:290 7.245
38 *560:290 *12154:BEN[5] 3.9875
39 *560:290 *560:302 8.265
40 *560:302 *12154:BEN[4] 3.9725
41 *560:302 *560:314 9.285
42 *560:314 *12154:BEN[3] 4.9775
43 *560:314 *560:334 9.375
44 *560:334 *12154:BEN[2] 4.9625
45 *560:334 *560:346 7.245
46 *560:346 *12154:BEN[1] 3.83
47 *560:346 *12154:BEN[0] 12.1175
48 *560:76 *12124:BEN[4] 4.8454
49 *560:24 *12124:BEN[7] 4.525
50 *560:20 *560:411 46.4716
51 *560:411 *12134:BEN[7] 2.3775
52 *560:411 *560:425 9.785
53 *560:425 *12134:BEN[6] 3.9875
54 *560:425 *560:437 8.52
55 *560:437 *12134:BEN[5] 4.0175
56 *560:437 *560:449 8.265
57 *560:449 *12134:BEN[4] 4.0025
58 *560:449 *560:461 8.265
59 *560:461 *12134:BEN[3] 3.9875
60 *560:461 *560:473 7.755
61 *560:473 *12134:BEN[2] 4.6475
62 *560:473 *560:485 7.5
63 *560:485 *12134:BEN[1] 5.0825
64 *560:485 *12134:BEN[0] 13.3625
*END

*D_NET *561 0.000259161
*CONN
*I *12028:A I *D sky130_fd_sc_hd__dlygate4sd3_1
*I *12030:X O *D sky130_fd_sc_hd__dlygate4sd3_1
*CAP
1 *12028:A 0.000129581
2 *12030:X 0.000129581
3 *12028:A *12219:A 0
*RES
1 *12030:X *12028:A 9.03
*END

*D_NET *562 0.00117504
*CONN
*I *12208:A I *D sky130_fd_sc_hd__buf_2
*I *12031:X O *D sky130_fd_sc_hd__dlygate4sd3_1
*CAP
1 *12208:A 0.0002389
2 *12031:X 0.0002389
3 *12208:A *12223:A 0.000327654
4 *12208:A *12224:A 0
5 *11886:B2 *12208:A 0.000134922
6 *11889:B2 *12208:A 0.000234669
7 *12004:A *12208:A 0
*RES
1 *12031:X *12208:A 13.305
*END

*D_NET *563 0.0388253
*CONN
*I *11941:A I *D sky130_fd_sc_hd__buf_12
*I *12189:X O *D sky130_fd_sc_hd__buf_12
*CAP
1 *11941:A 3.76639e-05
2 *12189:X 0.00052123
3 *563:18 0.0026966
4 *563:16 0.00265894
5 *563:14 0.000974649
6 *563:12 0.00149588
7 *563:18 *568:24 0.00937285
8 *563:18 *570:16 0.00999857
9 *563:18 *572:8 0.000237944
10 *11940:A *563:12 1.56428e-05
11 *11942:A *563:12 4.77757e-05
12 *236:11 *563:18 0.000384681
13 *518:20 *563:14 0.00506076
14 *541:12 *563:14 0.00532208
*RES
1 *12189:X *563:12 12.275
2 *563:12 *563:14 50.13
3 *563:14 *563:16 2
4 *563:16 *563:18 122.505
5 *563:18 *11941:A 4.05
*END

*D_NET *564 0.0408358
*CONN
*I *11818:B I *D sky130_fd_sc_hd__and3_4
*I *11820:A_N I *D sky130_fd_sc_hd__and3b_1
*I *11821:B I *D sky130_fd_sc_hd__or2_4
*I *11819:B I *D sky130_fd_sc_hd__and4b_2
*I *12032:X O *D sky130_fd_sc_hd__dlygate4sd3_1
*CAP
1 *11818:B 0.000770483
2 *11820:A_N 0.000219201
3 *11821:B 0.000199265
4 *11819:B 0.00109524
5 *12032:X 0.000640866
6 *564:51 0.00174676
7 *564:49 0.00111881
8 *564:38 0.000615331
9 *564:25 0.00106224
10 *564:10 0.00226257
11 *564:8 0.00119882
12 *11818:B *578:10 0.00124518
13 *564:8 *584:18 0.00338623
14 *564:10 *578:10 0.000998649
15 *564:25 *578:10 0.00095749
16 *564:38 *574:16 0.0010193
17 *564:51 *578:10 0.00483017
18 *564:51 *625:174 0.000702523
19 *564:51 *625:209 0.000190127
20 *11818:A *11818:B 0.00193804
21 *11818:C *11818:B 0.000589512
22 *11819:A_N *11819:B 0.000608019
23 *11820:B *11820:A_N 0.000143827
24 *11820:B *564:49 7.66388e-05
25 *11820:C *11820:A_N 4.41506e-05
26 *11821:A *11821:B 4.82863e-05
27 *11824:A0 *11818:B 7.21296e-06
28 *11824:A0 *564:51 0.00156718
29 *11873:A0 *11818:B 8.247e-05
30 *11927:A *11820:A_N 3.74359e-05
31 *11927:A *564:49 3.64998e-06
32 *12036:A *11818:B 0.000278732
33 *12036:A *564:10 0.000153582
34 *12036:A *564:25 0.000222737
35 *12058:A *11818:B 0.000119961
36 *12074:A *564:38 0.000158482
37 *111:10 *11821:B 2.49909e-05
38 *115:10 *11818:B 0.000796253
39 *148:12 *564:10 0.000957811
40 *148:12 *564:25 0.000462885
41 *149:22 *564:8 0.00301582
42 *180:25 *564:25 0.00081791
43 *180:36 *564:51 6.01281e-05
44 *185:8 *11818:B 2.16917e-05
45 *221:40 *564:51 0.00111796
46 *243:27 *564:51 0.00024146
47 *246:39 *564:51 0.00114498
48 *418:16 *564:38 0.00102167
49 *554:14 *11820:A_N 4.08514e-05
50 *554:57 *11818:B 0.000772201
*RES
1 *12032:X *564:8 34.755
2 *564:8 *564:10 20.25
3 *564:10 *11819:B 18.54
4 *564:10 *564:25 23.06
5 *564:25 *11821:B 4.12
6 *564:25 *564:38 15.835
7 *564:38 *11820:A_N 5.5
8 *564:38 *564:49 4.175
9 *564:49 *564:51 54.675
10 *564:51 *11818:B 43.865
*END

*D_NET *565 0.000264656
*CONN
*I *12169:A I *D sky130_fd_sc_hd__clkbuf_2
*I *12033:X O *D sky130_fd_sc_hd__dlygate4sd3_1
*CAP
1 *12169:A 0.000108182
2 *12033:X 0.000108182
3 *12033:A *12169:A 4.82919e-05
*RES
1 *12033:X *12169:A 4.685
*END

*D_NET *566 0.000299756
*CONN
*I *12211:A I *D sky130_fd_sc_hd__buf_4
*I *12034:X O *D sky130_fd_sc_hd__dlygate4sd3_1
*CAP
1 *12211:A 0.000149878
2 *12034:X 0.000149878
*RES
1 *12034:X *12211:A 9.285
*END

*D_NET *567 0.036615
*CONN
*I *11945:A I *D sky130_fd_sc_hd__buf_12
*I *12190:X O *D sky130_fd_sc_hd__buf_12
*CAP
1 *11945:A 0
2 *12190:X 0.000826347
3 *567:24 0.00227094
4 *567:22 0.00341986
5 *567:14 0.00197526
6 *567:14 *568:14 0.00194588
7 *567:22 *568:22 0.00082068
8 *567:22 *569:16 0.00196375
9 *567:22 *569:20 5.8825e-05
10 *567:22 *570:14 0.00133331
11 *567:24 *569:22 0.000136423
12 *567:24 *570:16 0.00975343
13 wbs_dat_o[29] *567:22 0
14 *835:DIODE *567:24 6.11097e-05
15 *837:DIODE *567:24 0.00018471
16 *11918:A0 *567:24 0.00107783
17 *11951:A *567:14 0
18 *168:10 *567:24 0.00518185
19 *176:16 *567:24 0.00126258
20 *237:33 *567:24 0.000209178
21 *239:23 *567:24 0.00116171
22 *529:18 *567:14 0.00297134
*RES
1 *12190:X *567:14 35.995
2 *567:14 *567:22 37.06
3 *567:22 *567:24 112.05
4 *567:24 *11945:A 3.6
*END

*D_NET *568 0.0348694
*CONN
*I *11950:A I *D sky130_fd_sc_hd__buf_12
*I *12191:X O *D sky130_fd_sc_hd__buf_12
*CAP
1 *11950:A 6.05382e-05
2 *12191:X 0.00128704
3 *568:24 0.00236902
4 *568:22 0.00415508
5 *568:14 0.00313364
6 *568:22 *569:20 0.000783264
7 *568:22 *570:14 0
8 *568:24 *570:16 0.000404211
9 wbs_dat_o[27] *568:14 5.39718e-05
10 wbs_dat_o[29] *568:22 0
11 *11948:A *568:14 5.18317e-06
12 *11959:A *568:22 0.000117436
13 *11961:A *568:22 0
14 *168:20 *568:22 0.000270436
15 *236:11 *568:24 0.0100902
16 *563:18 *568:24 0.00937285
17 *567:14 *568:14 0.00194588
18 *567:22 *568:22 0.00082068
*RES
1 *12191:X *568:14 26.425
2 *568:14 *568:22 39.82
3 *568:22 *568:24 115.875
4 *568:24 *11950:A 4.395
*END

*D_NET *569 0.0290321
*CONN
*I *11954:A I *D sky130_fd_sc_hd__buf_12
*I *12192:X O *D sky130_fd_sc_hd__buf_12
*CAP
1 *11954:A 4.61528e-05
2 *12192:X 0.00155454
3 *569:22 0.00499638
4 *569:20 0.00536151
5 *569:16 0.00196583
6 *569:16 *12242:A 0
7 *835:DIODE *569:22 0.000181376
8 *837:DIODE *569:22 9.86532e-05
9 *11918:A0 *569:22 0.000329052
10 *11953:A *569:16 0.000425003
11 *11955:A *569:16 0.000624281
12 *11961:A *569:16 0.000234164
13 *12193:A *569:16 0.000298864
14 *168:10 *569:22 0.0028751
15 *168:16 *569:20 0.000153054
16 *168:20 *569:20 0.000308594
17 *237:31 *569:22 0.00196012
18 *237:33 *569:22 0.00238588
19 *239:23 *569:22 0.000450566
20 *471:28 *569:22 0.00105792
21 *476:14 *569:22 0.000700432
22 *484:12 *11954:A 8.23457e-05
23 *552:16 *569:16 0
24 *567:22 *569:16 0.00196375
25 *567:22 *569:20 5.8825e-05
26 *567:24 *569:22 0.000136423
27 *568:22 *569:20 0.000783264
*RES
1 *12192:X *569:16 41.555
2 *569:16 *569:20 11.42
3 *569:20 *569:22 119.7
4 *569:22 *11954:A 4.395
*END

*D_NET *570 0.0316495
*CONN
*I *11958:A I *D sky130_fd_sc_hd__buf_12
*I *12193:X O *D sky130_fd_sc_hd__buf_12
*CAP
1 *11958:A 0
2 *12193:X 0.00146302
3 *570:16 0.00277303
4 *570:14 0.00423605
5 *570:14 *627:92 0.000211257
6 wbs_dat_o[29] *570:14 6.44134e-05
7 *11961:A *570:14 0
8 *236:11 *570:16 0.000156842
9 *239:23 *570:16 0.000206974
10 *480:16 *570:16 0.000703758
11 *484:12 *570:16 0.000344608
12 *563:18 *570:16 0.00999857
13 *567:22 *570:14 0.00133331
14 *567:24 *570:16 0.00975343
15 *568:22 *570:14 0
16 *568:24 *570:16 0.000404211
*RES
1 *12193:X *570:14 31.99
2 *570:14 *570:16 131.175
3 *570:16 *11958:A 3.6
*END

*D_NET *571 0.0564522
*CONN
*I *12072:A I *D sky130_fd_sc_hd__buf_12
*I *12194:X O *D sky130_fd_sc_hd__buf_12
*CAP
1 *12072:A 9.54152e-05
2 *12194:X 0.000875916
3 *571:18 0.00498587
4 *571:16 0.00573664
5 *571:12 0.0017221
6 *571:12 *11838:C1 0
7 *571:12 *11841:A2 0
8 *571:12 *12025:A 0.000188719
9 *571:12 *12244:A 3.75246e-05
10 *571:12 *593:10 0
11 *571:12 *623:12 9.04308e-05
12 *571:16 *584:18 0.00253734
13 *571:18 *618:14 0.0182019
14 *571:18 *631:218 0.000323267
15 *681:DIODE *571:12 4.31189e-05
16 *11841:B2 *571:12 0
17 *12014:A *571:12 0
18 *12017:A *571:12 0.000396461
19 *109:12 *571:12 0.000491113
20 *122:36 *571:16 0.00275949
21 *189:34 *571:12 0
22 *496:36 *571:18 0.0179669
*RES
1 *12194:X *571:12 23.36
2 *571:12 *571:16 31.43
3 *571:16 *571:18 218.13
4 *571:18 *12072:A 4.74
*END

*D_NET *572 0.0310751
*CONN
*I *11963:A I *D sky130_fd_sc_hd__buf_12
*I *12195:X O *D sky130_fd_sc_hd__buf_12
*CAP
1 *11963:A 9.01135e-05
2 *12195:X 0
3 *572:8 0.00287282
4 *572:6 0.00278271
5 wbs_dat_o[30] *572:8 0
6 *11964:A *572:8 0
7 *11965:A *572:8 0.000106422
8 *171:16 *572:8 0
9 *176:18 *572:8 0
10 *236:11 *572:8 0.0121564
11 *462:12 *572:8 0.00251648
12 *471:28 *11963:A 8.5002e-05
13 *529:20 *572:8 0
14 *541:16 *572:8 0.0102272
15 *563:18 *572:8 0.000237944
*RES
1 *12195:X *572:6 3.6
2 *572:6 *572:8 151.065
3 *572:8 *11963:A 5.085
*END

*D_NET *573 0.0194923
*CONN
*I *11967:A I *D sky130_fd_sc_hd__buf_12
*I *12196:X O *D sky130_fd_sc_hd__buf_12
*CAP
1 *11967:A 0.000217315
2 *12196:X 0.00122452
3 *573:12 0.00837928
4 *573:10 0.00938648
5 *573:10 *12243:A 9.47971e-05
6 wbs_dat_o[31] *573:10 0
7 *11966:A *573:10 0.00011238
8 *11968:A *573:10 7.75325e-05
9 *170:8 *573:10 0
10 *170:8 *573:12 0
*RES
1 *12196:X *573:10 25.0575
2 *573:10 *573:12 134.242
3 *573:12 *11967:A 6.81
*END

*D_NET *574 0.0305872
*CONN
*I *12022:A I *D sky130_fd_sc_hd__dlygate4sd3_1
*I *12197:X O *D sky130_fd_sc_hd__buf_2
*CAP
1 *12022:A 3.03538e-05
2 *12197:X 0.000137098
3 *574:16 0.0022814
4 *574:14 0.00225105
5 *574:12 0.000818638
6 *574:10 0.000955736
7 *12022:A *625:26 5.83121e-06
8 *574:16 *578:10 0
9 *574:16 *625:26 1.38481e-05
10 wbs_dat_o[12] *574:10 0
11 wbs_dat_o[6] *574:16 0.00016439
12 *11927:A *574:16 0.000650923
13 *12006:A *574:16 0
14 *12015:A *574:10 0
15 *12074:A *574:16 0.000841218
16 *12201:A *574:16 0.000101381
17 *111:10 *574:16 0.000556886
18 *111:14 *574:16 0.00214717
19 *148:12 *574:16 0.0013684
20 *220:51 *574:16 0.000509641
21 *223:31 *574:16 0.00226718
22 *396:16 *574:16 0
23 *407:12 *574:12 0.00664124
24 *407:16 *574:16 7.17605e-06
25 *418:12 *574:12 0.00663842
26 *418:16 *574:16 0.0011679
27 *554:55 *12022:A 1.19928e-05
28 *564:38 *574:16 0.0010193
*RES
1 *12197:X *574:10 7.49
2 *574:10 *574:12 60.135
3 *574:12 *574:14 2
4 *574:14 *574:16 77.88
5 *574:16 *12022:A 4.05
*END

*D_NET *575 0.0492143
*CONN
*I *12065:A I *D sky130_fd_sc_hd__buf_12
*I *12198:X O *D sky130_fd_sc_hd__buf_12
*CAP
1 *12065:A 0.000116879
2 *12198:X 0.00178501
3 *575:38 0.00384488
4 *575:36 0.00462338
5 *575:24 0.00268039
6 *575:24 *586:14 0.000206972
7 *575:24 *593:12 0.000311739
8 *575:24 *624:16 0.000825435
9 *575:36 *11865:C1 2.62861e-05
10 *575:36 *631:218 0.000580104
11 *575:38 *576:24 0.0148653
12 *575:38 *629:8 2.26301e-05
13 *11859:B2 *575:24 0
14 *11865:B2 *575:36 0.00026286
15 *11871:B2 *575:24 0.000155601
16 *11871:B2 *575:36 5.9964e-05
17 *11931:A *575:24 0
18 *12068:A *575:24 0
19 *12214:A *575:24 0.000128578
20 *124:28 *575:36 0.000191069
21 *130:26 *575:24 0.000109782
22 *132:18 *575:24 0.000347911
23 *140:10 *575:36 1.99922e-05
24 *140:10 *575:38 0.00665193
25 *142:28 *575:24 0.000111012
26 *196:37 *575:36 0.00158169
27 *197:27 *575:38 1.79536e-05
28 *200:9 *12065:A 0.00022707
29 *205:11 *575:38 0.00153897
30 *205:19 *575:38 0.00159637
31 *206:37 *575:24 0
32 *496:34 *575:24 9.59256e-05
33 *496:34 *575:36 0.000561879
34 *496:36 *575:36 0.00251523
35 *496:36 *575:38 0.00021288
36 *506:22 *575:38 0.00293867
*RES
1 *12198:X *575:24 44.745
2 *575:24 *575:36 38.6975
3 *575:36 *575:38 178.223
4 *575:38 *12065:A 5.775
*END

*D_NET *576 0.0499617
*CONN
*I *12059:A I *D sky130_fd_sc_hd__buf_12
*I *12199:X O *D sky130_fd_sc_hd__buf_12
*CAP
1 *12059:A 0.000150234
2 *12199:X 0.00150442
3 *576:24 0.00354953
4 *576:22 0.004374
5 *576:14 0.00247911
6 *576:14 *11819:D 0.000576917
7 *576:22 *11865:B1 0.00122928
8 *576:22 *633:20 0.00244613
9 *11819:C *576:22 0.00122465
10 *11859:B2 *576:14 0
11 *12057:A *576:14 0
12 *12068:A *576:14 0
13 *12094:A *576:22 0.000399674
14 *113:16 *576:14 0.000196472
15 *113:18 *576:14 8.34281e-06
16 *132:18 *576:14 5.83121e-06
17 *134:14 *576:14 0.000170307
18 *184:8 *576:22 0.000168539
19 *194:44 *576:14 0.000766102
20 *195:23 *576:14 0.000117111
21 *196:39 *576:14 0.000372956
22 *203:11 *576:22 0.000304285
23 *203:17 *576:22 3.17579e-05
24 *206:37 *576:14 0.00015829
25 *496:36 *576:24 0.0148625
26 *575:38 *576:24 0.0148653
*RES
1 *12199:X *576:14 35.455
2 *576:14 *576:22 39.355
3 *576:22 *576:24 173.76
4 *576:24 *12059:A 5.43
*END

*D_NET *577 0.0445204
*CONN
*I *12056:A I *D sky130_fd_sc_hd__buf_12
*I *12200:X O *D sky130_fd_sc_hd__buf_12
*CAP
1 *12056:A 0
2 *12200:X 0.00889719
3 *577:28 0.00889719
4 *577:28 *589:12 0.00044915
5 *11817:A *577:28 0.000306936
6 *11829:B2 *577:28 0.00178897
7 *11920:RESET_B *577:28 0.000121276
8 *11973:A *577:28 0
9 *12055:A *577:28 2.10025e-05
10 *12066:A *577:28 0
11 *12094:A *577:28 0.00107708
12 *110:33 *577:28 0.000112534
13 *181:18 *577:28 0.00916599
14 *196:19 *577:28 0.000581686
15 *203:17 *577:28 0.000406243
16 *220:129 *577:28 0.000193679
17 *224:25 *577:28 0.00052773
18 *319:32 *577:28 0.000423095
19 *319:34 *577:28 0.000150837
20 *369:76 *577:28 0.00172515
21 *382:46 *577:28 0.00465688
22 *400:20 *577:28 0.000296841
23 *402:10 *577:28 0.000247908
24 *438:38 *577:28 4.78663e-05
25 *511:20 *577:28 0.00440108
26 *520:18 *577:28 2.40495e-05
*RES
1 *12200:X *577:28 49.466
2 *577:28 *12056:A 1.6
*END

*D_NET *578 0.0465406
*CONN
*I *12052:A I *D sky130_fd_sc_hd__buf_12
*I *12201:X O *D sky130_fd_sc_hd__buf_12
*CAP
1 *12052:A 0.00111183
2 *12201:X 5.43909e-05
3 *578:10 0.00537482
4 *578:8 0.00431738
5 *12052:A *12050:A 0.000224767
6 *578:8 *12250:A 0.000141643
7 *578:8 *593:12 9.56217e-05
8 *578:10 *12050:A 0.000500235
9 *11818:B *578:10 0.00124518
10 *11818:C *578:10 0.000107727
11 *11824:A0 *578:10 1.97849e-05
12 *11873:A0 *578:10 0.000885635
13 *11960:A *578:10 0.000316326
14 *12036:A *578:10 0.00072386
15 *12058:A *578:10 1.79483e-05
16 *12074:A *12052:A 0.000165398
17 *12201:A *578:10 9.63435e-05
18 *117:14 *12052:A 0.00103453
19 *131:16 *12052:A 0.000242528
20 *131:16 *578:10 6.71803e-06
21 *131:20 *578:10 1.79098e-05
22 *145:10 *578:10 0
23 *148:12 *578:10 0
24 *180:25 *578:10 0.000146753
25 *181:51 *578:10 0.000200844
26 *185:10 *578:10 0.00181182
27 *221:40 *578:10 0.000396153
28 *243:27 *578:10 0.000425301
29 *330:16 *12052:A 0.00103051
30 *365:72 *12052:A 7.05863e-06
31 *365:72 *578:10 0.000765017
32 *365:74 *578:10 1.10631e-05
33 *396:16 *578:10 0.0171251
34 *509:34 *578:10 0.0007303
35 *509:42 *578:10 0.000403772
36 *564:10 *578:10 0.000998649
37 *564:25 *578:10 0.00095749
38 *564:51 *578:10 0.00483017
39 *574:16 *578:10 0
*RES
1 *12201:X *578:8 5.775
2 *578:8 *578:10 203.977
3 *578:10 *12052:A 32.5375
*END

*D_NET *579 0.042321
*CONN
*I *12050:A I *D sky130_fd_sc_hd__buf_12
*I *12202:X O *D sky130_fd_sc_hd__buf_12
*CAP
1 *12050:A 0.000944252
2 *12202:X 0.0114092
3 *579:24 0.0123534
4 *12050:A *12045:A 0.000468668
5 *579:24 *581:26 0.0100534
6 wbs_dat_o[7] *579:24 3.59531e-06
7 *11960:A *12050:A 5.83121e-06
8 *12049:A *579:24 8.40269e-05
9 *12052:A *12050:A 0.000224767
10 *12134:DI[16] *579:24 0.000299283
11 *131:16 *12050:A 0.00039571
12 *131:20 *12050:A 0.00126976
13 *181:51 *12050:A 0.000151862
14 *185:10 *12050:A 0.000781722
15 *200:11 *12050:A 0.00126745
16 *341:10 *579:24 0.00100921
17 *352:16 *579:24 0.000220919
18 *429:18 *579:24 0.000220919
19 *430:14 *579:24 7.40972e-05
20 *547:28 *579:24 0.000582698
21 *578:10 *12050:A 0.000500235
*RES
1 *12202:X *579:24 39.229
2 *579:24 *12050:A 43.2775
*END

*D_NET *580 0.0308068
*CONN
*I *12045:A I *D sky130_fd_sc_hd__buf_12
*I *12203:X O *D sky130_fd_sc_hd__buf_12
*CAP
1 *12045:A 0.000270651
2 *12203:X 0.0141404
3 *580:22 0.014411
4 *580:22 *581:26 0.000465304
5 *12050:A *12045:A 0.000468668
6 *185:10 *12045:A 0.000470971
7 *443:44 *580:22 0.000272012
8 *452:22 *580:22 0.000307792
*RES
1 *12203:X *580:22 44.7655
2 *580:22 *12045:A 11.1075
*END

*D_NET *581 0.0403144
*CONN
*I *12043:A I *D sky130_fd_sc_hd__buf_12
*I *12204:X O *D sky130_fd_sc_hd__buf_12
*CAP
1 *12043:A 0
2 *12204:X 0.0100509
3 *581:26 0.0100509
4 *117:14 *581:26 2.10433e-05
5 *222:27 *581:26 0.00722024
6 *240:27 *581:26 0.000506694
7 *330:16 *581:26 1.92979e-05
8 *430:14 *581:26 0.00151198
9 *443:44 *581:26 0.000414741
10 *579:24 *581:26 0.0100534
11 *580:22 *581:26 0.000465304
*RES
1 *12204:X *581:26 49.1481
2 *581:26 *12043:A 1.6
*END

*D_NET *582 0.0204338
*CONN
*I *12029:A I *D sky130_fd_sc_hd__clkbuf_16
*I *12205:X O *D sky130_fd_sc_hd__clkbuf_16
*CAP
1 *12029:A 0.00024334
2 *12205:X 0.00291779
3 *582:20 0.00174095
4 *582:16 0.00192912
5 *582:6 0.0033493
6 *582:6 *12241:A 0.000275548
7 *582:6 *12245:A 0.00153783
8 *582:16 *624:16 0.000528371
9 *582:20 *596:22 0
10 *582:20 *629:8 0.00387076
11 wbs_dat_o[2] *582:6 0.000261044
12 *11970:A *582:20 0.000215558
13 *12024:A *582:6 0.000198618
14 *12064:A *582:6 0.000313062
15 *12068:A *582:16 3.68769e-05
16 *12076:A *582:6 0.000130157
17 *12124:DI[13] *12029:A 0.000121948
18 *12205:A *582:6 2.49909e-05
19 *12206:A *582:6 7.35729e-05
20 *12207:A *582:6 0.000200615
21 *128:10 *582:20 8.58015e-05
22 *136:14 *582:20 0.00237854
23 *138:18 *582:20 0
*RES
1 *12205:X *582:6 48.97
2 *582:6 *582:16 12.06
3 *582:16 *582:20 49.28
4 *582:20 *12029:A 5.155
*END

*D_NET *583 0.00468286
*CONN
*I *12025:A I *D sky130_fd_sc_hd__clkbuf_16
*I *12206:X O *D sky130_fd_sc_hd__clkbuf_16
*CAP
1 *12025:A 0.0011049
2 *12206:X 0.0011049
3 *12025:A *584:16 0.000633944
4 *12025:A *593:12 0.000820672
5 *12025:A *620:22 8.90199e-05
6 *12025:A *624:12 0
7 *12025:A *624:16 0.000116155
8 *676:DIODE *12025:A 0.00011507
9 *11856:B2 *12025:A 0.000338943
10 *12010:A *12025:A 0
11 *12064:A *12025:A 4.01469e-05
12 *122:36 *12025:A 0
13 *212:27 *12025:A 0.000130386
14 *571:12 *12025:A 0.000188719
*RES
1 *12206:X *12025:A 31.92
*END

*D_NET *584 0.0290228
*CONN
*I *12016:A I *D sky130_fd_sc_hd__buf_12
*I *12207:X O *D sky130_fd_sc_hd__buf_12
*CAP
1 *12016:A 0.00136326
2 *12207:X 0.00056373
3 *584:18 0.00661195
4 *584:16 0.00581242
5 *584:16 *11856:B1 0.000152925
6 *584:16 *593:12 1.31227e-05
7 *584:16 *624:16 4.89295e-05
8 *584:18 *585:14 0.00351576
9 *718:DIODE *12016:A 3.23663e-05
10 *787:DIODE *12016:A 8.23457e-05
11 *11856:B2 *584:16 0.000509371
12 *12011:A *584:16 0.000279334
13 *12025:A *584:16 0.000633944
14 *12064:A *584:16 1.4918e-05
15 *12076:A *584:16 6.00231e-05
16 *122:36 *584:18 0.000430952
17 *149:22 *584:18 0.000154196
18 *151:33 *12016:A 3.03684e-05
19 *151:40 *12016:A 5.9964e-05
20 *151:124 *12016:A 1.41165e-05
21 *151:131 *12016:A 0.000150689
22 *153:24 *12016:A 0.000143828
23 *187:30 *584:16 0.000238569
24 *227:29 *12016:A 0.000234656
25 *227:29 *584:18 0.00084627
26 *227:31 *584:18 6.60042e-05
27 *227:33 *584:18 4.40028e-05
28 *227:35 *584:18 6.50242e-05
29 *227:37 *584:18 6.6564e-05
30 *227:39 *584:18 5.05521e-05
31 *228:33 *12016:A 0.000393024
32 *228:35 *12016:A 8.696e-05
33 *228:37 *12016:A 8.35106e-05
34 *228:57 *12016:A 8.52845e-05
35 *228:59 *12016:A 0.000160314
36 *564:8 *584:18 0.00338623
37 *571:16 *584:18 0.00253734
*RES
1 *12207:X *584:16 21.245
2 *584:16 *584:18 114.473
3 *584:18 *12016:A 27.4225
*END

*D_NET *585 0.00954725
*CONN
*I *12032:A I *D sky130_fd_sc_hd__dlygate4sd3_1
*I *12208:X O *D sky130_fd_sc_hd__buf_2
*CAP
1 *12032:A 0
2 *12208:X 0.00128314
3 *585:14 0.00128314
4 *585:14 *11889:B1 1.7635e-05
5 *585:14 *604:12 0
6 *585:14 *632:151 0.000208433
7 *585:14 *634:90 9.01962e-05
8 *663:DIODE *585:14 2.49909e-05
9 *11886:B2 *585:14 4.82919e-05
10 *11889:B2 *585:14 0.000132167
11 *149:22 *585:14 0.00223415
12 *149:31 *585:14 4.47209e-05
13 *149:38 *585:14 5.30673e-05
14 *149:45 *585:14 0.00013493
15 *199:27 *585:14 0.000369651
16 *204:31 *585:14 0.000106983
17 *584:18 *585:14 0.00351576
*RES
1 *12208:X *585:14 49.055
2 *585:14 *12032:A 1.6
*END

*D_NET *586 0.0306993
*CONN
*I *12019:A I *D sky130_fd_sc_hd__buf_12
*I *12209:X O *D sky130_fd_sc_hd__buf_12
*CAP
1 *12019:A 0.00111388
2 *12209:X 0.00134515
3 *586:16 0.00320582
4 *586:14 0.00343709
5 *586:14 *620:22 0.000518842
6 *586:16 *588:46 0.000628721
7 *11829:B2 *12019:A 0.000128934
8 *11829:B2 *586:16 0.00130522
9 *12124:DI[6] *12019:A 5.86739e-05
10 *12214:A *586:14 4.17658e-05
11 *110:33 *586:14 0.000994561
12 *113:10 *12019:A 0.000696033
13 *113:10 *586:16 1.38481e-05
14 *122:26 *586:16 0.00675303
15 *124:12 *12019:A 0.000547338
16 *124:14 *12019:A 2.13396e-05
17 *124:14 *586:16 0.00620762
18 *131:26 *12019:A 0.000906205
19 *223:45 *12019:A 0.000142739
20 *223:58 *12019:A 6.45317e-05
21 *319:14 *586:16 0
22 *395:18 *12019:A 0.00184204
23 *402:20 *12019:A 0.000518963
24 *575:24 *586:14 0.000206972
*RES
1 *12209:X *586:14 32.8
2 *586:14 *586:16 85.9125
3 *586:16 *12019:A 40.7325
*END

*D_NET *587 0.0215553
*CONN
*I *11816:B I *D sky130_fd_sc_hd__nand2_4
*I *11819:D I *D sky130_fd_sc_hd__and4b_2
*I *12210:X O *D sky130_fd_sc_hd__clkbuf_2
*CAP
1 *11816:B 3.15858e-05
2 *11819:D 0.00152024
3 *12210:X 7.70885e-05
4 *587:30 0.0022029
5 *587:16 0.00113215
6 *587:12 0.00243794
7 *587:10 0.00209711
8 *11816:B *595:12 2.54692e-05
9 *11819:D *633:20 4.66108e-05
10 *587:12 *596:14 0.000641946
11 *587:12 *607:14 0.000228193
12 *587:16 *591:16 0
13 *587:16 *595:12 2.66935e-05
14 *587:30 *588:44 0.000944683
15 *587:30 *592:10 0.000203762
16 *587:30 *631:218 0.000458368
17 wbs_dat_o[3] *587:16 0
18 *12020:A *587:30 0.000467475
19 *12034:A *587:10 0
20 *12075:A *587:16 0
21 *12210:A *587:10 4.32126e-05
22 *12213:A *11816:B 3.95347e-05
23 *12213:A *587:16 0.000250153
24 *110:22 *11816:B 5.53249e-06
25 *130:26 *11819:D 0.00162103
26 *132:10 *11819:D 8.04591e-05
27 *194:44 *11819:D 7.85879e-05
28 *195:23 *11819:D 0.000471762
29 *206:37 *11819:D 0.000159957
30 *350:26 *11819:D 0.00105052
31 *363:14 *587:12 0.0043265
32 *363:30 *587:30 0.000198945
33 *363:39 *587:30 0.00010998
34 *576:14 *11819:D 0.000576917
*RES
1 *12210:X *587:10 6.98
2 *587:10 *587:12 52.89
3 *587:12 *587:16 9.5
4 *587:16 *587:30 24.755
5 *587:30 *11819:D 40.305
6 *587:16 *11816:B 4.47
*END

*D_NET *588 0.0321446
*CONN
*I *11825:A I *D sky130_fd_sc_hd__nor2_4
*I *11814:A I *D sky130_fd_sc_hd__inv_16
*I *12211:X O *D sky130_fd_sc_hd__buf_4
*CAP
1 *11825:A 6.20254e-05
2 *11814:A 0.000198649
3 *12211:X 0.00249099
4 *588:46 0.00188749
5 *588:44 0.00343372
6 *588:36 0.00257421
7 *588:20 0.0032583
8 *11825:A *592:10 0
9 *588:20 *12244:A 0.000193561
10 *588:36 *11930:A 3.23391e-05
11 *588:36 *12244:A 0.000588356
12 *588:36 *592:10 0.000370204
13 *588:36 *595:14 0.000311282
14 *588:36 *620:22 0.000197264
15 *588:36 *622:20 0.000112811
16 *588:44 *597:14 8.95334e-05
17 *588:44 *631:218 0.000200655
18 wbs_dat_o[0] *588:20 4.98818e-05
19 wbs_dat_o[3] *588:36 0.00023468
20 *648:DIODE *11825:A 0
21 *648:DIODE *588:36 8.53113e-06
22 *670:DIODE *588:20 2.86975e-05
23 *675:DIODE *588:20 0.00011964
24 *676:DIODE *588:36 6.50242e-05
25 *678:DIODE *588:20 2.75229e-05
26 *11829:B2 *588:46 0.000961503
27 *11859:B2 *11825:A 1.54318e-05
28 *11920:RESET_B *588:46 0.00253518
29 *11988:A *588:20 0.000345359
30 *12010:A *588:20 0.000164087
31 *12010:A *588:36 0.000352156
32 *12011:A *588:36 3.9232e-05
33 *12013:A *588:20 0.00056914
34 *12018:A *588:44 9.50342e-06
35 *12020:A *588:44 2.23407e-05
36 *12027:A *588:20 0.000240286
37 *12076:A *588:36 8.65961e-05
38 *12079:A *588:20 0.000596671
39 *12095:A *588:20 0.000485456
40 *12206:A *588:20 4.75991e-05
41 *110:22 *11825:A 0.000141599
42 *110:22 *588:44 0.000112123
43 *110:33 *588:46 3.41359e-05
44 *118:14 *588:46 0.000390623
45 *120:16 *11814:A 5.83121e-06
46 *124:14 *588:46 0.00450174
47 *319:14 *588:46 0
48 *319:32 *11814:A 9.43943e-05
49 *496:18 *588:20 4.43871e-06
50 *560:18 *588:46 0.0022804
51 *586:16 *588:46 0.000628721
52 *587:30 *588:44 0.000944683
*RES
1 *12211:X *588:20 49.49
2 *588:20 *588:36 25.515
3 *588:36 *588:44 26.185
4 *588:44 *588:46 68.19
5 *588:46 *11814:A 6.42
6 *588:36 *11825:A 5.235
*END

*D_NET *589 0.0199301
*CONN
*I *12218:A I *D sky130_fd_sc_hd__buf_12
*I *11920:Q O *D sky130_fd_sc_hd__dfrtp_4
*CAP
1 *12218:A 0.00105804
2 *11920:Q 0.00172084
3 *589:14 0.00444515
4 *589:12 0.00510796
5 *589:12 *12124:EN 3.64998e-06
6 *11819:C *589:12 0.000245368
7 *11850:B2 *589:14 0.000210855
8 *11931:A *589:14 0.000167515
9 *126:16 *589:14 0.00131138
10 *128:22 *589:14 0.00284659
11 *198:15 *589:14 0.000156435
12 *203:17 *589:12 0.00193609
13 *205:31 *589:14 0.000196376
14 *206:37 *589:14 7.47275e-05
15 *577:28 *589:12 0.00044915
*RES
1 *11920:Q *589:12 34.295
2 *589:12 *589:14 78.42
3 *589:14 *12218:A 22.535
*END

*D_NET *590 0.00160939
*CONN
*I *12219:A I *D sky130_fd_sc_hd__buf_12
*I *11826:X O *D sky130_fd_sc_hd__o221a_1
*CAP
1 *12219:A 0.00076935
2 *11826:X 0.00076935
3 *646:DIODE *12219:A 7.06865e-05
4 *12028:A *12219:A 0
5 *12030:A *12219:A 0
*RES
1 *11826:X *12219:A 19.23
*END

*D_NET *591 0.0210685
*CONN
*I *12220:A I *D sky130_fd_sc_hd__buf_12
*I *11856:X O *D sky130_fd_sc_hd__o221a_2
*CAP
1 *12220:A 0.000106638
2 *11856:X 0.000724704
3 *591:18 0.0020174
4 *591:16 0.00263546
5 *591:16 *11859:B1 0.000126048
6 *591:16 *11868:A2 0.000164358
7 *591:16 *11868:B1 2.72726e-05
8 *591:16 *11930:A 6.2228e-05
9 *591:16 *595:12 4.82863e-05
10 *591:16 *622:20 0.000836321
11 *591:16 *628:23 5.26524e-05
12 *591:16 *628:37 3.00381e-05
13 *591:16 *633:41 7.20086e-06
14 *591:18 *12248:A 0.00351905
15 *591:18 *596:14 1.33293e-05
16 *591:18 *607:14 0.0020016
17 *591:18 *620:22 0.000881611
18 *591:18 *622:20 0.000411415
19 wbs_dat_o[10] *12220:A 3.47603e-05
20 wbs_dat_o[3] *591:16 0.0001796
21 *11990:A *12220:A 0
22 *363:30 *591:16 2.86623e-05
23 *396:12 *591:18 0.00435276
24 *418:12 *591:18 0.000526917
25 *452:12 *591:18 0.0022802
26 *587:16 *591:16 0
*RES
1 *11856:X *591:16 21.98
2 *591:16 *591:18 76.005
3 *591:18 *12220:A 7.235
*END

*D_NET *592 0.0185613
*CONN
*I *12221:A I *D sky130_fd_sc_hd__buf_12
*I *11859:X O *D sky130_fd_sc_hd__o221a_2
*CAP
1 *12221:A 0.000593617
2 *11859:X 0.000190939
3 *592:12 0.00320096
4 *592:10 0.00279829
5 *12221:A *595:14 0.00036059
6 *592:12 *595:14 0.00807636
7 *648:DIODE *592:10 4.76581e-05
8 *11825:A *592:10 0
9 *11997:A *592:12 0.00054244
10 *12001:A *592:12 2.75145e-05
11 *12006:A *592:12 0.000154098
12 *12007:A *592:12 8.52845e-05
13 *12009:A *592:12 2.49909e-05
14 *12020:A *592:10 5.46798e-05
15 *12035:A *12221:A 0.000272851
16 *12040:A *12221:A 0.000309484
17 *12040:A *592:12 0.000118026
18 *12041:A *592:12 0.000160641
19 *12044:A *592:12 0.000149288
20 *12053:A *592:12 0.000123321
21 *12055:A *592:12 0.000157551
22 *12057:A *592:12 0.000122325
23 *12061:A *592:12 4.80285e-05
24 *12067:A *592:12 2.75145e-05
25 *12070:A *592:12 3.00381e-05
26 *12166:A *592:12 3.49355e-05
27 *12199:A *592:12 2.88598e-05
28 *12200:A *592:12 2.14324e-05
29 *12202:A *592:12 1.26985e-05
30 *12214:A *592:12 1.1392e-05
31 *429:16 *592:12 0.000201508
32 *587:30 *592:10 0.000203762
33 *588:36 *592:10 0.000370204
*RES
1 *11859:X *592:10 11.06
2 *592:10 *592:12 74.625
3 *592:12 *12221:A 17.735
*END

*D_NET *593 0.0240487
*CONN
*I *12222:A I *D sky130_fd_sc_hd__buf_12
*I *11862:X O *D sky130_fd_sc_hd__o221a_2
*CAP
1 *12222:A 0.00124398
2 *11862:X 0.00048895
3 *593:22 0.00271487
4 *593:12 0.00594296
5 *593:10 0.00496101
6 *12222:A *600:14 0.000891407
7 *593:10 *11841:A2 0.000301052
8 *593:10 *11853:B1 0.00013361
9 *593:10 *623:12 0
10 *593:12 *12250:A 6.2386e-05
11 *593:12 *624:16 0.00107249
12 *593:22 *12250:A 0.00244951
13 *593:22 *600:14 0.00058407
14 wbs_dat_o[11] *12222:A 0.000239813
15 wbs_dat_o[12] *12222:A 4.77757e-05
16 wbs_dat_o[9] *593:22 0.000115146
17 *12014:A *593:10 0.00020508
18 *12021:A *12222:A 0.000387896
19 *12025:A *593:12 0.000820672
20 *12092:A *593:10 0.00028407
21 *12166:A *593:22 4.66826e-05
22 *12194:A *593:10 0.000186462
23 *12197:A *12222:A 3.30017e-05
24 *12199:A *593:12 2.49909e-05
25 *132:18 *593:10 0
26 *341:8 *593:22 0.000278386
27 *540:14 *12222:A 0.000111901
28 *571:12 *593:10 0
29 *575:24 *593:12 0.000311739
30 *578:8 *593:12 9.56217e-05
31 *584:16 *593:12 1.31227e-05
*RES
1 *11862:X *593:10 16.925
2 *593:10 *593:12 54.96
3 *593:12 *593:22 34.6425
4 *593:22 *12222:A 26.0575
*END

*D_NET *594 0.0262356
*CONN
*I *12223:A I *D sky130_fd_sc_hd__buf_12
*I *11865:X O *D sky130_fd_sc_hd__o221a_2
*CAP
1 *12223:A 0.000463753
2 *11865:X 0.000426649
3 *594:24 0.00246813
4 *594:20 0.00379118
5 *594:12 0.00304202
6 *594:8 0.00168187
7 *12223:A *600:14 0.000176264
8 *12223:A *604:12 0.00045478
9 *12223:A *634:90 0
10 *594:8 *11932:A 0.000216588
11 *594:8 *633:6 0.000118081
12 *594:12 *11874:C1 0.00139521
13 *594:20 *11880:B1 1.16578e-05
14 *594:20 *11880:C1 4.82919e-05
15 *594:20 *632:107 0.00139822
16 *594:20 *634:32 0.00147025
17 *594:24 *11880:B1 1.82732e-05
18 *594:24 *600:12 0.000201503
19 *594:24 *603:14 0.000487867
20 *594:24 *632:126 1.46e-05
21 *594:24 *634:32 0.000124895
22 *594:24 *634:90 0.000238137
23 wbs_dat_o[13] *12223:A 4.77757e-05
24 *659:DIODE *12223:A 0
25 *11880:B2 *594:24 0.00205581
26 *11889:A1 *12223:A 0
27 *12208:A *12223:A 0.000327654
28 *126:8 *594:12 0.00224586
29 *126:14 *594:12 0.000163372
30 *152:20 *594:24 0.000842523
31 *178:18 *594:12 0.000294266
32 *195:23 *594:20 0.000270374
33 *200:19 *12223:A 0
34 *319:14 *594:12 0.000813263
35 *319:22 *594:12 6.78559e-06
36 *352:14 *594:20 0.000582516
37 *362:32 *594:12 0.000337201
*RES
1 *11865:X *594:8 9.57
2 *594:8 *594:12 42.905
3 *594:12 *594:20 36.81
4 *594:20 *594:24 42.47
5 *594:24 *12223:A 14.22
*END

*D_NET *595 0.0293484
*CONN
*I *12224:A I *D sky130_fd_sc_hd__buf_12
*I *11868:X O *D sky130_fd_sc_hd__o221a_2
*CAP
1 *12224:A 0.000368567
2 *11868:X 0.000303223
3 *595:14 0.00851058
4 *595:12 0.00844523
5 *12224:A *600:14 0.000596118
6 *12224:A *605:22 0.000476433
7 *595:12 *11859:B1 7.17811e-05
8 *595:12 *11868:B1 0
9 wbs_dat_o[13] *12224:A 0.000123589
10 wbs_dat_o[14] *12224:A 8.41307e-05
11 *11816:B *595:12 2.54692e-05
12 *11886:A1 *595:14 0.00016063
13 *11949:A *595:14 2.11084e-05
14 *11971:A *12224:A 0.0001249
15 *11993:A *595:14 6.71882e-05
16 *12004:A *12224:A 0.000151112
17 *12035:A *595:14 0.000109178
18 *12037:A *595:14 0.000701106
19 *12069:A *595:14 1.1675e-05
20 *12113:A *595:14 6.07575e-06
21 *12208:A *12224:A 0
22 *12221:A *595:14 0.00036059
23 *110:22 *595:12 4.9968e-05
24 *198:23 *595:14 8.65961e-05
25 *363:30 *595:12 3.05373e-05
26 *587:16 *595:12 2.66935e-05
27 *588:36 *595:14 0.000311282
28 *591:16 *595:12 4.82863e-05
29 *592:12 *595:14 0.00807636
*RES
1 *11868:X *595:12 11
2 *595:12 *595:14 108.435
3 *595:14 *12224:A 18.02
*END

*D_NET *596 0.0640273
*CONN
*I *11994:A I *D sky130_fd_sc_hd__buf_12
*I *12212:X O *D sky130_fd_sc_hd__buf_12
*CAP
1 *11994:A 0.000486578
2 *12212:X 0.00147551
3 *596:24 0.0050409
4 *596:22 0.00582676
5 *596:14 0.00274795
6 *596:14 *12248:A 7.40635e-05
7 *596:14 *607:14 3.38934e-05
8 *596:14 *622:20 0.000964317
9 *596:22 *618:14 0
10 *596:22 *628:188 0.000423894
11 *596:22 *629:8 0.000278782
12 *596:22 *631:218 0.00121226
13 *596:24 *11865:B1 0.000344634
14 *596:24 *607:16 0.0186068
15 *596:24 *633:20 2.05661e-05
16 wbs_dat_o[4] *596:22 0
17 *11999:A *596:22 0.000156758
18 *12000:A *596:22 8.33414e-05
19 *12090:A *596:14 0
20 *12094:A *596:24 0.00355382
21 *113:16 *596:22 0.000228235
22 *124:28 *596:22 3.50606e-05
23 *129:10 *11994:A 0.00162468
24 *184:8 *11994:A 0.00146942
25 *184:8 *596:24 0.017369
26 *196:37 *596:22 4.93699e-05
27 *205:29 *596:24 0.000847446
28 *363:30 *596:14 0.000111696
29 *369:76 *11994:A 0.000306219
30 *582:20 *596:22 0
31 *587:12 *596:14 0.000641946
32 *591:18 *596:14 1.33293e-05
*RES
1 *12212:X *596:14 42.88
2 *596:14 *596:22 32.035
3 *596:22 *596:24 215.325
4 *596:24 *11994:A 27.115
*END

*D_NET *597 0.0302802
*CONN
*I *12225:A I *D sky130_fd_sc_hd__buf_12
*I *11871:X O *D sky130_fd_sc_hd__o221a_2
*CAP
1 *12225:A 0.000813293
2 *11871:X 0.000474687
3 *597:14 0.0089452
4 *597:12 0.0086066
5 *12225:A *603:14 1.43253e-05
6 *12225:A *603:16 0.00226683
7 *12225:A *608:10 0.000151239
8 *12225:A *634:90 0.000149152
9 *597:12 *634:219 2.49909e-05
10 *597:14 *601:16 0.000644433
11 *597:14 *620:22 0.000304048
12 *597:14 *631:218 0.000636508
13 *597:14 *634:42 0.00111232
14 *785:DIODE *12225:A 4.55864e-06
15 *11859:B2 *597:12 0
16 *11883:A1 *597:14 0.000243181
17 *11883:B2 *597:14 0.00132388
18 *11898:A1 *12225:A 0.000151346
19 *110:22 *597:12 0.00013629
20 *114:10 *597:12 0.000105897
21 *151:54 *12225:A 4.35575e-05
22 *151:69 *12225:A 0.000318646
23 *151:71 *12225:A 0.000110458
24 *152:20 *12225:A 0.00230496
25 *195:23 *597:14 0.00011579
26 *200:19 *12225:A 2.92612e-05
27 *429:16 *597:14 0.00101463
28 *441:14 *12225:A 0
29 *452:22 *597:14 0.000144538
30 *588:44 *597:14 8.95334e-05
*RES
1 *11871:X *597:12 11
2 *597:12 *597:14 102.225
3 *597:14 *12225:A 40.665
*END

*D_NET *598 0.0270967
*CONN
*I *12226:A I *D sky130_fd_sc_hd__buf_12
*I *11874:X O *D sky130_fd_sc_hd__o221a_2
*CAP
1 *12226:A 0.00147911
2 *11874:X 0.00173454
3 *598:20 0.00405879
4 *598:18 0.0033713
5 *598:14 0.00252615
6 *598:14 *625:45 0.000604706
7 *11819:A_N *598:14 0.000864312
8 *11937:A *12226:A 4.33757e-05
9 *12078:A *12226:A 0
10 *111:16 *598:14 0.000482387
11 *155:26 *598:20 0.000281598
12 *199:27 *598:18 0.000309237
13 *199:27 *598:20 0.000801043
14 *203:25 *598:14 0.00106363
15 *203:27 *598:14 4.77757e-05
16 *203:27 *598:18 0.00129539
17 *203:27 *598:20 0.0079488
18 *227:27 *598:20 0.000184566
19 *547:18 *12226:A 0
*RES
1 *11874:X *598:14 38.96
2 *598:14 *598:18 20.3025
3 *598:18 *598:20 72.0375
4 *598:20 *12226:A 27.89
*END

*D_NET *599 0.0215718
*CONN
*I *12227:A I *D sky130_fd_sc_hd__buf_12
*I *11877:X O *D sky130_fd_sc_hd__o221a_2
*CAP
1 *12227:A 0.000557078
2 *11877:X 6.43731e-05
3 *599:12 0.00775834
4 *599:10 0.00726563
5 *12227:A *609:22 0
6 *12227:A *632:221 0.00042877
7 *12227:A *634:148 0.000256157
8 *599:10 *625:61 0
9 *599:12 *623:14 0.000465487
10 wbs_dat_o[17] *12227:A 0.000160641
11 *114:19 *599:12 0.00296742
12 *154:16 *599:12 0.00107431
13 *155:56 *12227:A 0
14 *155:60 *12227:A 0
15 *155:62 *12227:A 0
16 *155:64 *12227:A 0
17 *156:20 *599:12 0.000573598
*RES
1 *11877:X *599:10 6.47
2 *599:10 *599:12 92.565
3 *599:12 *12227:A 16.235
*END

*D_NET *600 0.0238009
*CONN
*I *12228:A I *D sky130_fd_sc_hd__buf_12
*I *11880:X O *D sky130_fd_sc_hd__o221a_2
*CAP
1 *12228:A 0.000749603
2 *11880:X 0.000538007
3 *600:14 0.00704897
4 *600:12 0.00683737
5 *12228:A *605:24 0.00189426
6 *600:12 *634:42 0
7 *600:14 *605:22 0.000253312
8 *600:14 *605:24 0.00156701
9 wbs_dat_o[11] *600:14 9.93004e-05
10 wbs_dat_o[12] *600:14 7.96401e-05
11 wbs_dat_o[13] *600:14 2.26024e-05
12 wbs_dat_o[14] *600:14 5.9964e-05
13 wbs_dat_o[17] *12228:A 7.03893e-05
14 wbs_dat_o[18] *12228:A 0.000433531
15 *1062:DIODE *12228:A 6.87295e-05
16 *11937:A *600:14 0.000673726
17 *12031:A *600:14 0.000115484
18 *12044:A *600:12 0
19 *12089:A *12228:A 0.000349972
20 *12091:A *600:14 5.0751e-05
21 *12222:A *600:14 0.000891407
22 *12223:A *600:14 0.000176264
23 *12224:A *600:14 0.000596118
24 *429:16 *600:12 0.000332802
25 *540:14 *600:14 0.000106135
26 *593:22 *600:14 0.00058407
27 *594:24 *600:12 0.000201503
*RES
1 *11880:X *600:12 14.42
2 *600:12 *600:14 80.835
3 *600:14 *12228:A 27.05
*END

*D_NET *601 0.0202631
*CONN
*I *12229:A I *D sky130_fd_sc_hd__buf_12
*I *11883:X O *D sky130_fd_sc_hd__o221a_2
*CAP
1 *12229:A 0.00189738
2 *11883:X 0.000748029
3 *601:24 0.00468909
4 *601:16 0.00353974
5 *601:16 *11889:B1 4.62224e-05
6 *601:16 *11892:A2 4.77719e-05
7 *601:16 *11892:B1 1.12643e-05
8 *601:16 *11892:C1 8.51862e-05
9 *601:16 *11895:B1 1.88656e-05
10 *601:16 *630:88 0.000560732
11 *601:16 *630:97 0.000248882
12 *601:16 *630:105 0.000855901
13 *601:16 *630:113 4.92861e-05
14 *601:16 *632:170 0.000165928
15 *601:16 *634:56 0.000517886
16 *601:16 *634:106 1.91597e-05
17 *601:24 *606:20 4.66108e-05
18 *601:24 *634:106 0.000121643
19 *601:24 *634:121 0.000283427
20 wbs_dat_o[19] *12229:A 0.00043749
21 *664:DIODE *12229:A 8.65961e-05
22 *1094:DIODE *12229:A 4.99619e-05
23 *11883:B2 *601:16 0.00104091
24 *11892:A1 *601:16 9.63757e-05
25 *11892:B2 *601:16 0.00103325
26 *11895:A1 *601:24 5.74791e-05
27 *11895:B2 *601:16 4.43871e-06
28 *11898:B2 *601:24 7.74817e-05
29 *155:62 *601:24 0
30 *155:64 *601:24 0
31 *155:66 *601:24 0
32 *156:20 *601:24 0.0016508
33 *157:61 *12229:A 0.0001249
34 *164:30 *601:24 0.000995739
35 *201:23 *601:16 1.01911e-05
36 *463:14 *601:24 0
37 *597:14 *601:16 0.000644433
*RES
1 *11883:X *601:16 38.345
2 *601:16 *601:24 41.77
3 *601:24 *12229:A 29.92
*END

*D_NET *602 0.00101375
*CONN
*I *12230:A I *D sky130_fd_sc_hd__buf_12
*I *11829:X O *D sky130_fd_sc_hd__o221a_1
*CAP
1 *12230:A 0.000456252
2 *11829:X 0.000456252
3 *12230:A *631:44 0
4 *656:DIODE *12230:A 3.54987e-05
5 *12079:A *12230:A 0
6 *12095:A *12230:A 2.0851e-06
7 *12096:A *12230:A 6.36578e-05
8 *12205:A *12230:A 0
*RES
1 *11829:X *12230:A 14.7
*END

*D_NET *603 0.0210959
*CONN
*I *12231:A I *D sky130_fd_sc_hd__buf_12
*I *11886:X O *D sky130_fd_sc_hd__o221a_2
*CAP
1 *12231:A 0.000870396
2 *11886:X 0.000894499
3 *603:16 0.00257243
4 *603:14 0.00259653
5 *12231:A *605:24 0.00116336
6 *12231:A *609:22 9.69065e-05
7 *12231:A *611:26 0
8 *603:14 *634:90 0.000614659
9 *603:16 *608:12 0.0046739
10 wbs_dat_o[20] *12231:A 0.000393029
11 *1064:DIODE *603:16 5.07419e-05
12 *11894:A0 *603:16 6.27529e-05
13 *11895:B2 *603:16 0.00428993
14 *11907:B2 *12231:A 0
15 *12100:A *12231:A 0
16 *12106:A *12231:A 4.77719e-05
17 *12225:A *603:14 1.43253e-05
18 *12225:A *603:16 0.00226683
19 *149:55 *603:14 0
20 *149:57 *603:14 0
21 *149:59 *603:14 0
22 *206:47 *12231:A 0
23 *594:24 *603:14 0.000487867
*RES
1 *11886:X *603:14 23.195
2 *603:14 *603:16 64.275
3 *603:16 *12231:A 24.41
*END

*D_NET *604 0.0184079
*CONN
*I *12232:A I *D sky130_fd_sc_hd__buf_12
*I *11889:X O *D sky130_fd_sc_hd__o221a_2
*CAP
1 *12232:A 0.000198916
2 *11889:X 0.000475323
3 *604:14 0.00464959
4 *604:12 0.004926
5 *12232:A *609:34 0
6 *604:12 *630:97 8.65905e-05
7 *604:14 *606:20 0.00368583
8 wbs_dat_o[13] *604:12 0
9 wbs_dat_o[21] *12232:A 0.000197264
10 *11889:A1 *604:12 2.97004e-06
11 *11993:A *604:12 0.000271088
12 *12004:A *604:12 0
13 *12223:A *604:12 0.00045478
14 *418:10 *604:12 0
15 *452:12 *604:14 0.00345951
16 *585:14 *604:12 0
*RES
1 *11889:X *604:12 15.68
2 *604:12 *604:14 87.045
3 *604:14 *12232:A 9.065
*END

*D_NET *605 0.0197111
*CONN
*I *12233:A I *D sky130_fd_sc_hd__buf_12
*I *11892:X O *D sky130_fd_sc_hd__o221a_2
*CAP
1 *12233:A 0.000613394
2 *11892:X 0.00208762
3 *605:24 0.00355718
4 *605:22 0.0050314
5 *12233:A *12235:A 0.000673173
6 *605:22 *634:90 0
7 *605:22 *634:106 3.97171e-05
8 wbs_dat_o[13] *605:22 1.08758e-05
9 wbs_dat_o[14] *605:22 0.000262805
10 wbs_dat_o[15] *605:22 0.000306816
11 wbs_dat_o[18] *605:24 7.67345e-05
12 wbs_dat_o[20] *605:24 0.000113448
13 wbs_dat_o[22] *12233:A 0.000340203
14 *907:DIODE *605:24 4.75991e-05
15 *1096:DIODE *605:24 0.00012208
16 *11892:B2 *605:22 8.65905e-05
17 *11937:A *605:22 0.000152184
18 *11971:A *605:22 0.0001249
19 *12004:A *605:22 0
20 *12069:A *605:22 0.000169801
21 *12077:A *605:24 0.000364711
22 *12084:A *605:24 5.05521e-05
23 *12091:A *605:22 0.0001249
24 *12224:A *605:22 0.000476433
25 *12228:A *605:24 0.00189426
26 *12231:A *605:24 0.00116336
27 *600:14 *605:22 0.000253312
28 *600:14 *605:24 0.00156701
*RES
1 *11892:X *605:22 40.97
2 *605:22 *605:24 57.72
3 *605:24 *12233:A 13.45
*END

*D_NET *606 0.023511
*CONN
*I *12234:A I *D sky130_fd_sc_hd__buf_12
*I *11895:X O *D sky130_fd_sc_hd__o221a_2
*CAP
1 *12234:A 0.000393833
2 *11895:X 0.00317633
3 *606:28 0.00458899
4 *606:26 0.00426063
5 *606:20 0.00324181
6 wbs_dat_o[21] *606:28 0.000717694
7 wbs_dat_o[23] *12234:A 0.000175158
8 *1112:DIODE *606:28 5.36384e-06
9 *11895:A1 *606:20 0.000135049
10 *11982:A *606:20 5.46228e-05
11 *12082:A *606:28 1.08758e-05
12 *12086:A *606:28 0.000295551
13 *12088:A *606:28 0.000238467
14 *12099:A *606:28 0.0011114
15 *12104:A *606:28 0.000279498
16 *12108:A *606:28 0.00018222
17 *12112:A *606:28 1.98869e-05
18 *12115:A *606:28 0.00013856
19 *12119:A *12234:A 0.00031669
20 *12176:A *606:20 0.000299683
21 *12183:A *606:28 8.73544e-05
22 *12185:A *12234:A 4.89295e-05
23 *601:24 *606:20 4.66108e-05
24 *604:14 *606:20 0.00368583
*RES
1 *11895:X *606:20 49.91
2 *606:20 *606:26 4.87
3 *606:26 *606:28 52.545
4 *606:28 *12234:A 10.36
*END

*D_NET *607 0.0630451
*CONN
*I *11989:A I *D sky130_fd_sc_hd__buf_12
*I *12213:X O *D sky130_fd_sc_hd__buf_12
*CAP
1 *11989:A 3.37454e-05
2 *12213:X 0.00185444
3 *607:16 0.00598683
4 *607:14 0.00780753
5 *607:16 *11980:A 0.000401834
6 *607:16 *618:14 0.0205839
7 *607:16 *633:20 5.98004e-06
8 *607:16 *633:26 0.000246236
9 *11819:C *607:16 0
10 *12010:A *607:14 0
11 *12066:A *607:16 0
12 *12075:A *607:14 2.99518e-06
13 *12094:A *607:16 0.00414431
14 *12215:A *607:16 0.000101381
15 *184:8 *607:16 0.000601069
16 *205:11 *607:16 0
17 *205:29 *607:16 0.00019252
18 *369:76 *607:16 0.000110459
19 *374:14 *607:14 0.000101314
20 *587:12 *607:14 0.000228193
21 *591:18 *607:14 0.0020016
22 *596:14 *607:14 3.38934e-05
23 *596:24 *607:16 0.0186068
*RES
1 *12213:X *607:14 32.98
2 *607:14 *607:16 252.555
3 *607:16 *11989:A 4.05
*END

*D_NET *608 0.0198131
*CONN
*I *12235:A I *D sky130_fd_sc_hd__buf_12
*I *11898:X O *D sky130_fd_sc_hd__o221a_2
*CAP
1 *12235:A 0.00197477
2 *11898:X 0.000144009
3 *608:12 0.00571543
4 *608:10 0.00388468
5 *12235:A *609:34 0
6 *12235:A *612:24 0
7 *608:12 *611:26 0.000488287
8 *608:12 *613:14 0.000157378
9 *608:12 *615:12 8.52845e-05
10 wbs_dat_o[22] *12235:A 0.000113809
11 wbs_dat_o[24] *12235:A 7.35813e-05
12 *1089:DIODE *608:12 3.80606e-05
13 *1111:DIODE *12235:A 4.66108e-05
14 *11898:A1 *608:10 8.30853e-06
15 *11916:A1 *12235:A 4.23404e-05
16 *11916:B2 *608:12 2.12656e-05
17 *11919:A1 *12235:A 3.998e-05
18 *11919:A2 *12235:A 8.38069e-05
19 *11919:B1 *12235:A 1.79536e-05
20 *11919:B1 *608:12 2.04625e-07
21 *12116:A *12235:A 0.000262903
22 *12123:A *12235:A 9.49124e-05
23 *12187:A *12235:A 4.85763e-05
24 *12225:A *608:10 0.000151239
25 *12233:A *12235:A 0.000673173
26 *114:52 *608:12 2.20732e-05
27 *164:24 *12235:A 9.86621e-05
28 *182:63 *608:12 0.000694765
29 *210:27 *12235:A 0
30 *441:14 *608:10 0.000157179
31 *603:16 *608:12 0.0046739
*RES
1 *11898:X *608:10 9.275
2 *608:10 *608:12 67.38
3 *608:12 *12235:A 38.405
*END

*D_NET *609 0.0199106
*CONN
*I *12236:A I *D sky130_fd_sc_hd__buf_12
*I *11901:X O *D sky130_fd_sc_hd__o221a_2
*CAP
1 *12236:A 0.00199423
2 *11901:X 0.00233077
3 *609:34 0.00393605
4 *609:22 0.00427258
5 *609:22 *611:26 0.0003106
6 *609:34 *610:20 0.00227037
7 *1067:DIODE *609:22 0.000124895
8 *11892:B2 *609:22 0.000258574
9 *11898:B2 *609:22 0.000813855
10 *11907:A1 *609:22 0.000309618
11 *11939:A *12236:A 9.09788e-06
12 *11942:A *12236:A 0
13 *12115:A *609:34 0
14 *12227:A *609:22 0
15 *12231:A *609:22 9.69065e-05
16 *12232:A *609:34 0
17 *12235:A *609:34 0
18 *158:20 *609:22 0.000232141
19 *164:30 *609:22 0.000157194
20 *206:47 *609:22 0
21 *210:27 *609:34 5.20968e-05
22 *529:14 *12236:A 0.00274161
*RES
1 *11901:X *609:22 45.495
2 *609:22 *609:34 32.77
3 *609:34 *12236:A 44.705
*END

*D_NET *610 0.02013
*CONN
*I *12237:A I *D sky130_fd_sc_hd__buf_12
*I *11904:X O *D sky130_fd_sc_hd__o221a_2
*CAP
1 *12237:A 0.000319183
2 *11904:X 0.00130568
3 *610:26 0.00364512
4 *610:20 0.00463162
5 *610:20 *11907:B1 0.00101971
6 *610:20 *11910:C1 0.000309366
7 *610:20 *612:24 0.00119641
8 *610:26 *612:24 0.000329222
9 *610:26 *616:6 0.00432488
10 wbs_dat_o[26] *12237:A 0.000121643
11 *672:DIODE *610:26 2.75229e-05
12 *11910:A1 *610:20 0.000108042
13 *11910:B1 *610:20 7.25921e-06
14 *11910:B2 *610:20 0.00043044
15 *166:14 *610:20 2.20732e-05
16 *176:22 *610:26 1.60203e-05
17 *206:47 *610:20 2.937e-05
18 *206:54 *610:20 1.60203e-05
19 *609:34 *610:20 0.00227037
*RES
1 *11904:X *610:20 39.595
2 *610:20 *610:26 48.995
3 *610:26 *12237:A 8.19
*END

*D_NET *611 0.019983
*CONN
*I *12238:A I *D sky130_fd_sc_hd__buf_12
*I *11907:X O *D sky130_fd_sc_hd__o221a_2
*CAP
1 *12238:A 0.000872127
2 *11907:X 0.00205317
3 *611:28 0.00462213
4 *611:26 0.00580318
5 *611:28 *613:12 0.000155491
6 wbs_dat_o[27] *12238:A 4.77757e-05
7 *834:DIODE *12238:A 0.000302917
8 *1091:DIODE *611:26 0.000123225
9 *1107:DIODE *611:28 4.66108e-05
10 *11907:A1 *611:26 9.19546e-05
11 *11907:B2 *611:26 0
12 *11919:A2 *611:28 3.93101e-05
13 *11919:B1 *611:26 7.06865e-05
14 *11947:A *12238:A 0
15 *12231:A *611:26 0
16 *111:37 *611:26 1.97045e-05
17 *111:46 *611:26 7.05373e-05
18 *164:30 *611:26 0.000138263
19 *182:42 *611:26 0.000590823
20 *182:63 *611:26 3.74096e-06
21 *207:23 *611:26 3.86607e-05
22 *463:14 *611:26 0.00013827
23 *485:14 *611:28 0.000269081
24 *507:14 *611:28 0.000160492
25 *518:18 *611:28 0.000953719
26 *518:20 *611:28 0.000462533
27 *552:12 *611:28 0.00210969
28 *608:12 *611:26 0.000488287
29 *609:22 *611:26 0.0003106
*RES
1 *11907:X *611:26 41.665
2 *611:26 *611:28 50.475
3 *611:28 *12238:A 20.03
*END

*D_NET *612 0.0200511
*CONN
*I *12239:A I *D sky130_fd_sc_hd__buf_12
*I *11910:X O *D sky130_fd_sc_hd__o221a_2
*CAP
1 *12239:A 0.000840433
2 *11910:X 0.0010166
3 *612:26 0.00221889
4 *612:24 0.00239506
5 *612:24 *615:12 0
6 *612:26 *615:14 0.00560944
7 wbs_dat_o[28] *12239:A 4.82919e-05
8 *669:DIODE *612:24 0.000164874
9 *672:DIODE *612:24 4.82919e-05
10 *11910:B2 *612:24 0.000239807
11 *11919:A1 *612:24 4.99581e-05
12 *11919:A2 *612:24 0.000122184
13 *11919:B2 *612:24 1.53053e-05
14 *11919:C1 *612:24 0.000403049
15 *11952:A *12239:A 0
16 *12191:A *12239:A 3.49086e-05
17 *12235:A *612:24 0
18 *163:56 *612:24 8.90632e-05
19 *163:58 *612:24 8.53113e-06
20 *164:24 *612:24 3.59531e-06
21 *166:14 *612:24 0.000719281
22 *166:14 *612:26 0.00380404
23 *176:22 *612:24 8.35068e-05
24 *507:14 *612:26 0.000290025
25 *518:18 *612:24 0.000320322
26 *610:20 *612:24 0.00119641
27 *610:26 *612:24 0.000329222
*RES
1 *11910:X *612:24 37.35
2 *612:24 *612:26 51.165
3 *612:26 *12239:A 18.08
*END

*D_NET *613 0.0137828
*CONN
*I *12240:A I *D sky130_fd_sc_hd__buf_12
*I *11913:X O *D sky130_fd_sc_hd__o221a_2
*CAP
1 *12240:A 0.00107356
2 *11913:X 0.00032785
3 *613:14 0.00558329
4 *613:12 0.00483758
5 *613:14 *615:12 0.000266577
6 wbs_dat_o[29] *12240:A 4.82919e-05
7 *1105:DIODE *613:14 1.56428e-05
8 *11916:A1 *613:12 0.000131168
9 *11916:A2 *613:12 0.000136884
10 *11916:B2 *613:14 0.000231842
11 *11919:A2 *613:12 4.77757e-05
12 *11957:A *12240:A 1.19928e-05
13 *11959:A *12240:A 8.65961e-05
14 *12192:A *12240:A 0.000109431
15 *111:46 *613:12 0.000561433
16 *608:12 *613:14 0.000157378
17 *611:28 *613:12 0.000155491
*RES
1 *11913:X *613:12 12.86
2 *613:12 *613:14 69.45
3 *613:14 *12240:A 21.65
*END

*D_NET *614 0.00147954
*CONN
*I *12241:A I *D sky130_fd_sc_hd__buf_12
*I *11832:X O *D sky130_fd_sc_hd__o221a_1
*CAP
1 *12241:A 0.000342168
2 *11832:X 0.000342168
3 wbs_dat_o[2] *12241:A 7.15786e-05
4 *670:DIODE *12241:A 5.13155e-05
5 *12012:A *12241:A 0
6 *12013:A *12241:A 0.000159964
7 *12090:A *12241:A 0.000111898
8 *12212:A *12241:A 0.0001249
9 *582:6 *12241:A 0.000275548
*RES
1 *11832:X *12241:A 15.795
*END

*D_NET *615 0.0216707
*CONN
*I *12242:A I *D sky130_fd_sc_hd__buf_12
*I *11916:X O *D sky130_fd_sc_hd__o221a_2
*CAP
1 *12242:A 0.000863948
2 *11916:X 0.000697561
3 *615:14 0.00267935
4 *615:12 0.00251296
5 wbs_dat_o[30] *12242:A 4.82919e-05
6 *1108:DIODE *615:14 4.66108e-05
7 *11962:A *12242:A 1.47256e-05
8 *11964:A *12242:A 8.65961e-05
9 *164:24 *615:12 0
10 *166:14 *615:14 0.000110481
11 *176:22 *615:14 0.00820265
12 *507:14 *615:14 0.000446199
13 *569:16 *12242:A 0
14 *608:12 *615:12 8.52845e-05
15 *612:24 *615:12 0
16 *612:26 *615:14 0.00560944
17 *613:14 *615:12 0.000266577
*RES
1 *11916:X *615:12 13.955
2 *615:12 *615:14 74.97
3 *615:14 *12242:A 17.135
*END

*D_NET *616 0.0215292
*CONN
*I *12243:A I *D sky130_fd_sc_hd__buf_12
*I *11919:X O *D sky130_fd_sc_hd__o221a_2
*CAP
1 *12243:A 0.00206305
2 *11919:X 0
3 *616:6 0.00432041
4 *616:4 0.00225736
5 *11966:A *12243:A 0.00011238
6 *176:22 *12243:A 0.000541194
7 *176:22 *616:6 0.00781517
8 *573:10 *12243:A 9.47971e-05
9 *610:26 *616:6 0.00432488
*RES
1 *11919:X *616:4 1.6
2 *616:4 *616:6 71.3475
3 *616:6 *12243:A 31.0475
*END

*D_NET *617 0.00493892
*CONN
*I *12244:A I *D sky130_fd_sc_hd__buf_12
*I *11835:X O *D sky130_fd_sc_hd__o221a_1
*CAP
1 *12244:A 0.00128956
2 *11835:X 0.00128956
3 *12244:A *11853:C1 0.000120655
4 *12244:A *621:8 0.000523441
5 *12244:A *628:63 0.000198219
6 *12244:A *633:77 0.00015623
7 wbs_dat_o[3] *12244:A 2.75229e-05
8 *681:DIODE *12244:A 5.86739e-05
9 *11815:A *12244:A 1.16854e-05
10 *12014:A *12244:A 9.77731e-05
11 *12076:A *12244:A 4.66826e-05
12 *12194:A *12244:A 8.57011e-05
13 *12198:A *12244:A 0.000156319
14 *132:18 *12244:A 4.76263e-05
15 *363:30 *12244:A 9.82856e-06
16 *571:12 *12244:A 3.75246e-05
17 *588:20 *12244:A 0.000193561
18 *588:36 *12244:A 0.000588356
*RES
1 *11835:X *12244:A 29.8559
*END

*D_NET *618 0.0593009
*CONN
*I *11980:A I *D sky130_fd_sc_hd__buf_12
*I *12214:X O *D sky130_fd_sc_hd__buf_12
*CAP
1 *11980:A 0.000522217
2 *12214:X 0.00091966
3 *618:14 0.00626372
4 *618:12 0.00666116
5 *618:12 *12245:A 0.000215561
6 *618:12 *12246:A 0.000104334
7 *618:14 *631:218 0.000228099
8 *11999:A *618:12 0.000715818
9 *12000:A *618:14 8.33414e-05
10 *12009:A *618:12 0.000228752
11 *12094:A *618:14 0.00408973
12 *205:11 *11980:A 0
13 *205:11 *618:14 0
14 *496:36 *618:14 8.08116e-05
15 *571:18 *618:14 0.0182019
16 *596:22 *618:14 0
17 *607:16 *11980:A 0.000401834
18 *607:16 *618:14 0.0205839
*RES
1 *12214:X *618:12 17.97
2 *618:12 *618:14 238.867
3 *618:14 *11980:A 14.1375
*END

*D_NET *619 0.00515319
*CONN
*I *12245:A I *D sky130_fd_sc_hd__buf_12
*I *11838:X O *D sky130_fd_sc_hd__o221a_1
*CAP
1 *12245:A 0.000807316
2 *11838:X 0.000807316
3 *12245:A *621:8 8.34981e-05
4 *11970:A *12245:A 7.35729e-05
5 *11979:A *12245:A 0.000131791
6 *11999:A *12245:A 0.000347632
7 *12009:A *12245:A 0.000450085
8 *12075:A *12245:A 0.000117936
9 *12198:A *12245:A 0.000108952
10 *12213:A *12245:A 0.000199411
11 *363:30 *12245:A 0.000272291
12 *582:6 *12245:A 0.00153783
13 *618:12 *12245:A 0.000215561
*RES
1 *11838:X *12245:A 32.46
*END

*D_NET *620 0.0107725
*CONN
*I *12246:A I *D sky130_fd_sc_hd__buf_12
*I *11841:X O *D sky130_fd_sc_hd__o221a_1
*CAP
1 *12246:A 0.000549299
2 *11841:X 0.00159618
3 *620:22 0.00214548
4 *620:22 *622:20 0.00167876
5 *620:22 *628:37 0.000118081
6 *620:22 *628:39 4.07182e-05
7 *620:22 *628:47 0.000197288
8 *620:22 *631:8 1.33285e-05
9 *620:22 *631:218 0.000636575
10 wbs_dat_o[4] *12246:A 0.000148136
11 *647:DIODE *620:22 0.0001925
12 *648:DIODE *620:22 0.000196381
13 *11970:A *12246:A 1.56428e-05
14 *11999:A *12246:A 0.000194891
15 *12003:A *12246:A 0.000281017
16 *12008:A *620:22 0.000161377
17 *12009:A *620:22 0.000343267
18 *12025:A *620:22 8.90199e-05
19 *12068:A *620:22 0
20 *12214:A *620:22 7.81925e-05
21 *212:27 *620:22 9.03081e-05
22 *586:14 *620:22 0.000518842
23 *588:36 *620:22 0.000197264
24 *591:18 *620:22 0.000881611
25 *597:14 *620:22 0.000304048
26 *618:12 *12246:A 0.000104334
*RES
1 *11841:X *620:22 49.545
2 *620:22 *12246:A 15.665
*END

*D_NET *621 0.0132943
*CONN
*I *12247:A I *D sky130_fd_sc_hd__buf_12
*I *11844:X O *D sky130_fd_sc_hd__o221a_2
*CAP
1 *12247:A 0.00227152
2 *11844:X 0.00181746
3 *621:8 0.00408898
4 *621:8 *11853:A2 0.00026784
5 *621:8 *11853:B1 6.03947e-06
6 *621:8 *11853:C1 4.08514e-05
7 *621:8 *628:63 3.79854e-05
8 *621:8 *628:65 0.000193801
9 *621:8 *628:69 0.000193801
10 *621:8 *633:60 0.000345347
11 wbs_dat_o[5] *12247:A 0
12 *11838:A1 *621:8 2.68526e-05
13 *11853:B2 *621:8 3.65341e-05
14 *11973:A *12247:A 0
15 *12003:A *12247:A 9.84114e-05
16 *12005:A *12247:A 8.33414e-05
17 *12051:A *12247:A 7.27003e-05
18 *12066:A *12247:A 0.000159151
19 *12244:A *621:8 0.000523441
20 *12245:A *621:8 8.34981e-05
21 *109:12 *621:8 7.68414e-06
22 *110:22 *12247:A 0.000611777
23 *319:14 *12247:A 1.56908e-05
24 *363:30 *12247:A 3.79854e-05
25 *363:30 *621:8 4.1513e-05
26 *363:39 *12247:A 0.0022321
*RES
1 *11844:X *621:8 24.49
2 *621:8 *12247:A 46.625
*END

*D_NET *622 0.0159613
*CONN
*I *12248:A I *D sky130_fd_sc_hd__buf_12
*I *11847:X O *D sky130_fd_sc_hd__o221a_2
*CAP
1 *12248:A 0.000991323
2 *11847:X 0.00155505
3 *622:20 0.00254637
4 *622:20 *11930:A 2.92496e-05
5 *622:20 *631:8 0.000120655
6 *622:20 *631:10 0.000350486
7 *622:20 *631:12 0.000199043
8 *622:20 *631:16 0.000157127
9 *622:20 *631:18 3.03059e-05
10 wbs_dat_o[3] *622:20 0
11 wbs_dat_o[7] *12248:A 0
12 *647:DIODE *622:20 2.01565e-05
13 *12001:A *12248:A 0.000152075
14 *12017:A *622:20 0.000198333
15 *12020:A *622:20 0
16 *12049:A *12248:A 0
17 *12071:A *622:20 0.000429676
18 *12092:A *622:20 4.82863e-05
19 *407:12 *12248:A 1.34594e-05
20 *418:12 *12248:A 0.00152299
21 *588:36 *622:20 0.000112811
22 *591:16 *622:20 0.000836321
23 *591:18 *12248:A 0.00351905
24 *591:18 *622:20 0.000411415
25 *596:14 *12248:A 7.40635e-05
26 *596:14 *622:20 0.000964317
27 *620:22 *622:20 0.00167876
*RES
1 *11847:X *622:20 49.97
2 *622:20 *12248:A 39.68
*END

*D_NET *623 0.0178824
*CONN
*I *12249:A I *D sky130_fd_sc_hd__buf_12
*I *11850:X O *D sky130_fd_sc_hd__o221a_2
*CAP
1 *12249:A 0.000866444
2 *11850:X 0.00103153
3 *623:14 0.00429976
4 *623:12 0.00446484
5 *623:12 *11841:A2 5.74791e-05
6 *623:12 *633:126 0.000532898
7 *623:14 *625:61 0.000866394
8 *623:14 *628:12 0.000458588
9 *623:14 *628:188 0.00137348
10 *623:14 *630:6 3.83383e-05
11 *11929:A *623:14 0.000129001
12 *11997:A *12249:A 0
13 *12203:A *12249:A 3.33633e-05
14 *109:16 *623:14 0.000365082
15 *114:19 *623:14 0.00270442
16 *189:34 *623:12 0.00010491
17 *352:14 *12249:A 0
18 *452:22 *12249:A 0
19 *571:12 *623:12 9.04308e-05
20 *593:10 *623:12 0
21 *599:12 *623:14 0.000465487
*RES
1 *11850:X *623:12 18.905
2 *623:12 *623:14 68.76
3 *623:14 *12249:A 18.455
*END

*D_NET *624 0.016362
*CONN
*I *12250:A I *D sky130_fd_sc_hd__buf_12
*I *11853:X O *D sky130_fd_sc_hd__o221a_2
*CAP
1 *12250:A 0.00244626
2 *11853:X 0.000363945
3 *624:16 0.00488919
4 *624:12 0.00280688
5 *624:12 *11853:A2 4.65698e-05
6 *624:12 *633:60 6.19997e-05
7 wbs_dat_o[9] *12250:A 0.000201508
8 *676:DIODE *624:12 0
9 *12010:A *624:12 0
10 *12017:A *624:12 0
11 *12025:A *624:12 0
12 *12025:A *624:16 0.000116155
13 *12199:A *624:16 2.68526e-05
14 *12207:A *624:12 0
15 *363:30 *624:12 0.000273878
16 *575:24 *624:16 0.000825435
17 *578:8 *12250:A 0.000141643
18 *582:16 *624:16 0.000528371
19 *584:16 *624:16 4.89295e-05
20 *593:12 *12250:A 6.2386e-05
21 *593:12 *624:16 0.00107249
22 *593:22 *12250:A 0.00244951
*RES
1 *11853:X *624:12 12.305
2 *624:12 *624:16 43.245
3 *624:16 *12250:A 35.455
*END

*D_NET *625 0.0531252
*CONN
*I *11837:S I *D sky130_fd_sc_hd__mux2_2
*I *11824:S I *D sky130_fd_sc_hd__mux2_2
*I *11828:S I *D sky130_fd_sc_hd__mux2_2
*I *11840:S I *D sky130_fd_sc_hd__mux2_2
*I *11849:S I *D sky130_fd_sc_hd__mux2_2
*I *11834:S I *D sky130_fd_sc_hd__mux2_2
*I *11831:S I *D sky130_fd_sc_hd__mux2_2
*I *11846:S I *D sky130_fd_sc_hd__mux2_2
*I *11852:S I *D sky130_fd_sc_hd__mux2_1
*I *11843:S I *D sky130_fd_sc_hd__mux2_2
*I *11888:S I *D sky130_fd_sc_hd__mux2_1
*I *11885:S I *D sky130_fd_sc_hd__mux2_1
*I *11882:S I *D sky130_fd_sc_hd__mux2_1
*I *11879:S I *D sky130_fd_sc_hd__mux2_1
*I *11876:S I *D sky130_fd_sc_hd__mux2_1
*I *11925:X O *D sky130_fd_sc_hd__clkbuf_8
*CAP
1 *11837:S 0.000589069
2 *11824:S 0.000200191
3 *11828:S 0
4 *11840:S 0
5 *11849:S 0.000227009
6 *11834:S 6.36297e-05
7 *11831:S 0.000102368
8 *11846:S 9.8892e-05
9 *11852:S 0.000369986
10 *11843:S 0.000149049
11 *11888:S 0.000156904
12 *11885:S 0
13 *11882:S 0
14 *11879:S 0
15 *11876:S 0.00010624
16 *11925:X 7.06355e-05
17 *625:209 0.000904312
18 *625:180 0.000351511
19 *625:178 0.000267117
20 *625:174 0.000787942
21 *625:153 0.000731861
22 *625:133 0.00020126
23 *625:131 0.000393528
24 *625:120 0.000744078
25 *625:109 0.000434785
26 *625:91 0.000744701
27 *625:78 0.00233917
28 *625:65 0.0042825
29 *625:61 0.00413889
30 *625:45 0.00254717
31 *625:26 0.00155416
32 *625:8 0.000746371
33 *625:61 *11877:C1 0
34 *625:61 *632:107 0
35 *772:DIODE *625:78 3.04704e-05
36 *773:DIODE *625:65 8.57024e-05
37 *780:DIODE *625:78 4.77719e-05
38 *780:DIODE *625:91 4.52072e-05
39 *843:DIODE *11831:S 3.83194e-05
40 *843:DIODE *11846:S 5.9964e-05
41 *11819:A_N *625:45 0.00158771
42 *11824:A0 *11824:S 0.00033249
43 *11824:A0 *625:209 4.71518e-05
44 *11828:A1 *625:178 3.57349e-05
45 *11828:A1 *625:180 4.66108e-05
46 *11837:A1 *11837:S 0.000153816
47 *11840:A1 *11849:S 4.82863e-05
48 *11840:A1 *625:180 0.000178675
49 *11849:A1 *11849:S 0.000407696
50 *11849:A1 *625:178 0.000118081
51 *11849:A1 *625:180 0.000335065
52 *11879:A0 *625:65 0.000123592
53 *11880:B2 *625:65 8.65961e-05
54 *11882:A0 *625:78 0.000197826
55 *11927:A *625:26 0.000115187
56 *11927:A *625:109 0.000234899
57 *12022:A *625:26 5.83121e-06
58 *12058:A *625:26 0.000228627
59 *12074:A *625:45 0.000428745
60 *114:19 *11888:S 0.000937875
61 *114:19 *625:61 0.000855857
62 *115:10 *11837:S 0.00104323
63 *118:12 *11846:S 6.33103e-05
64 *147:10 *625:120 0.000156828
65 *147:10 *625:131 0.000356991
66 *147:10 *625:153 0.000172618
67 *148:8 *625:26 6.33103e-05
68 *156:20 *11888:S 0.000733527
69 *158:20 *11888:S 0.000200201
70 *180:25 *625:26 0.000492713
71 *180:36 *625:26 0.00077832
72 *180:36 *625:174 0.000702523
73 *180:36 *625:209 0.000179922
74 *194:50 *625:61 0.00149329
75 *198:15 *625:61 0
76 *199:27 *625:61 0.000101314
77 *203:31 *625:91 7.7379e-05
78 *218:37 *11837:S 9.72742e-06
79 *218:37 *625:209 0.000103521
80 *220:51 *11831:S 8.23457e-05
81 *220:51 *11834:S 1.08758e-05
82 *220:51 *625:26 0.000645605
83 *220:51 *625:109 0.000227599
84 *220:51 *625:174 0.000200885
85 *221:40 *625:109 3.09164e-05
86 *221:40 *625:174 0.000107027
87 *223:31 *625:26 0.000713685
88 *226:30 *11876:S 4.7242e-05
89 *226:30 *625:26 0.000226961
90 *226:39 *11876:S 2.76811e-05
91 *226:83 *625:26 0
92 *227:75 *625:65 0.000124471
93 *227:82 *625:65 7.50252e-05
94 *227:82 *625:78 3.04704e-05
95 *240:27 *625:174 9.33176e-05
96 *240:29 *625:174 0.000172698
97 *240:31 *625:174 4.9968e-05
98 *246:39 *11843:S 3.57349e-05
99 *246:39 *625:109 0.000225285
100 *246:39 *625:174 5.83121e-06
101 *246:41 *11843:S 7.14699e-05
102 *246:43 *11843:S 7.14699e-05
103 *246:45 *11843:S 0.000120655
104 *247:42 *11831:S 0
105 *248:76 *11837:S 5.83121e-06
106 *249:34 *11852:S 2.49909e-05
107 *249:36 *11852:S 4.41506e-05
108 *249:38 *11852:S 4.41506e-05
109 *249:40 *11852:S 8.81641e-05
110 *385:14 *625:65 0.00114613
111 *385:16 *625:65 1.05984e-05
112 *385:16 *625:78 0.00245501
113 *385:16 *625:91 0.00133158
114 *407:16 *625:45 0.00335275
115 *418:16 *11837:S 0.000527054
116 *418:16 *625:174 0.00050927
117 *554:31 *625:45 0.000344576
118 *554:55 *625:26 8.35106e-05
119 *554:57 *11837:S 0.000516179
120 *554:57 *625:109 2.05661e-05
121 *564:51 *625:174 0.000702523
122 *564:51 *625:209 0.000190127
123 *574:16 *625:26 1.38481e-05
124 *598:14 *625:45 0.000604706
125 *599:10 *625:61 0
126 *623:14 *625:61 0.000866394
*RES
1 *11925:X *625:8 4.395
2 *625:8 *625:26 25.71
3 *625:26 *11876:S 3.565
4 *625:26 *625:45 42.865
5 *625:45 *625:61 42.14
6 *625:61 *625:65 41.085
7 *625:65 *11879:S 1.6
8 *625:65 *625:78 36.285
9 *625:78 *11882:S 1.6
10 *625:78 *625:91 18.07
11 *625:91 *11885:S 1.6
12 *625:91 *11888:S 10.33
13 *625:8 *625:109 7.085
14 *625:109 *11843:S 4.465
15 *625:109 *625:120 3.89
16 *625:120 *11852:S 8.88
17 *625:120 *625:131 4.185
18 *625:131 *625:133 2
19 *625:133 *11846:S 3.43
20 *625:133 *11831:S 3.445
21 *625:131 *625:153 4.145
22 *625:153 *11834:S 2.395
23 *625:153 *625:174 23.64
24 *625:174 *625:178 4.175
25 *625:178 *625:180 3.21
26 *625:180 *11849:S 5.5
27 *625:180 *11840:S 1.6
28 *625:178 *11828:S 1.6
29 *625:174 *625:209 6.365
30 *625:209 *11824:S 4.81
31 *625:209 *11837:S 26.505
*END

*D_NET *626 0.0107698
*CONN
*I *11864:S I *D sky130_fd_sc_hd__mux2_1
*I *11870:S I *D sky130_fd_sc_hd__mux2_2
*I *11873:S I *D sky130_fd_sc_hd__mux2_1
*I *11861:S I *D sky130_fd_sc_hd__mux2_2
*I *11867:S I *D sky130_fd_sc_hd__mux2_2
*I *11858:S I *D sky130_fd_sc_hd__mux2_1
*I *11855:S I *D sky130_fd_sc_hd__mux2_1
*I *11926:X O *D sky130_fd_sc_hd__buf_2
*CAP
1 *11864:S 0.000243165
2 *11870:S 8.1423e-05
3 *11873:S 0.000564222
4 *11861:S 4.40054e-05
5 *11867:S 6.85838e-05
6 *11858:S 1.36534e-05
7 *11855:S 0.000200343
8 *11926:X 0.000219022
9 *626:71 0.000444993
10 *626:60 0.000746215
11 *626:49 0.000356844
12 *626:38 0.000443701
13 *626:10 0.000270187
14 *626:8 0.000399079
15 *721:DIODE *11864:S 9.14049e-05
16 *756:DIODE *11873:S 5.06989e-05
17 *11840:A0 *11858:S 4.66108e-05
18 *11849:A0 *11858:S 4.66108e-05
19 *11855:A0 *11855:S 0.00018955
20 *11855:A1 *11855:S 9.13949e-06
21 *11864:A1 *11864:S 9.53428e-06
22 *11873:A0 *11873:S 8.23457e-05
23 *12124:DI[3] *11864:S 4.1977e-05
24 *113:8 *626:8 1.1392e-05
25 *122:24 *11855:S 0.000206062
26 *122:24 *626:10 0.000227529
27 *122:24 *626:38 0.000333489
28 *122:24 *626:49 0.000889267
29 *146:8 *11873:S 0.00026102
30 *219:39 *11855:S 2.49909e-05
31 *219:41 *11855:S 6.32751e-05
32 *221:67 *11861:S 2.05056e-05
33 *221:69 *11861:S 2.75229e-05
34 *222:44 *11864:S 2.75229e-05
35 *222:46 *11864:S 2.49909e-05
36 *223:69 *11867:S 0.000119866
37 *225:99 *11873:S 9.57985e-05
38 *225:101 *11873:S 4.41506e-05
39 *225:103 *11873:S 4.41506e-05
40 *225:105 *11873:S 4.41506e-05
41 *225:107 *11873:S 8.43255e-05
42 *319:34 *11855:S 0.000159957
43 *319:34 *11864:S 0.00043249
44 *319:34 *626:10 0.000220665
45 *319:34 *626:38 0.000328014
46 *319:34 *626:49 0.0010145
47 *319:34 *626:60 0.000196935
48 *319:34 *626:71 0.000295181
49 *382:46 *626:49 0.000134122
50 *395:18 *11864:S 0.000143035
51 *400:30 *11864:S 5.55344e-05
52 *400:30 *11870:S 3.18249e-05
53 *400:30 *626:49 7.34364e-05
54 *400:30 *626:60 0.000113315
55 *400:30 *626:71 0.000157095
56 *402:20 *11864:S 8.40269e-05
57 *409:54 *11864:S 0.00011632
*RES
1 *11926:X *626:8 5.775
2 *626:8 *626:10 2.655
3 *626:10 *11855:S 8.835
4 *626:10 *11858:S 4.05
5 *626:8 *626:38 3.93
6 *626:38 *11867:S 4.74
7 *626:38 *626:49 11.835
8 *626:49 *11861:S 4.395
9 *626:49 *626:60 2.4
10 *626:60 *11873:S 13.02
11 *626:60 *626:71 3.675
12 *626:71 *11870:S 4.74
13 *626:71 *11864:S 12.045
*END

*D_NET *627 0.103239
*CONN
*I *11925:A I *D sky130_fd_sc_hd__clkbuf_8
*I *11915:S I *D sky130_fd_sc_hd__mux2_2
*I *12134:EN I *D CF_SRAM_1024x32
*I *11912:S I *D sky130_fd_sc_hd__mux2_2
*I *11909:S I *D sky130_fd_sc_hd__mux2_2
*I *11918:S I *D sky130_fd_sc_hd__mux2_2
*I *11906:S I *D sky130_fd_sc_hd__mux2_2
*I *11903:S I *D sky130_fd_sc_hd__mux2_2
*I *11900:S I *D sky130_fd_sc_hd__mux2_1
*I *11897:S I *D sky130_fd_sc_hd__mux2_1
*I *11894:S I *D sky130_fd_sc_hd__mux2_1
*I *11891:S I *D sky130_fd_sc_hd__mux2_1
*I *11926:A I *D sky130_fd_sc_hd__buf_2
*I *11927:X O *D sky130_fd_sc_hd__clkbuf_16
*CAP
1 *11925:A 3.48089e-05
2 *11915:S 0
3 *12134:EN 0.000260294
4 *11912:S 0
5 *11909:S 5.99401e-05
6 *11918:S 3.99824e-05
7 *11906:S 0
8 *11903:S 0
9 *11900:S 0
10 *11897:S 0
11 *11894:S 0
12 *11891:S 0
13 *11926:A 0.000576577
14 *11927:X 0
15 *627:150 0.00149806
16 *627:148 0.00169821
17 *627:144 0.00109647
18 *627:131 0.000889183
19 *627:120 0.00143801
20 *627:109 0.0027127
21 *627:98 0.00187482
22 *627:94 0.00154028
23 *627:92 0.00352688
24 *627:83 0.00480093
25 *627:76 0.00420946
26 *627:61 0.00199976
27 *627:54 0.000591765
28 *627:41 0.000701676
29 *627:35 0.00341139
30 *627:33 0.00302387
31 *627:31 0.00386976
32 *627:29 0.00386976
33 *627:27 0.000470277
34 *627:4 0.00101205
35 *627:31 *11932:A 1.95756e-05
36 *627:31 *12124:EN 4.9968e-05
37 *627:31 *632:48 0.00242733
38 *627:31 *634:10 5.06382e-06
39 *688:DIODE *11926:A 4.66108e-05
40 *833:DIODE *627:76 0.00026784
41 *836:DIODE *627:120 5.34923e-05
42 *836:DIODE *627:131 4.0238e-05
43 *1118:DIODE *627:83 7.44006e-05
44 *1118:DIODE *627:92 4.60584e-05
45 *11897:A1 *627:61 8.33341e-05
46 *11906:A0 *627:98 0.000266541
47 *11906:A1 *627:98 2.8185e-05
48 *11909:A1 *11909:S 3.64998e-06
49 *11915:A0 *627:148 0.000222989
50 *11915:A1 *627:148 2.39856e-05
51 *11916:B2 *627:76 0.000365327
52 *12122:A *627:148 0
53 *12124:DI[13] *627:31 7.76832e-05
54 *12134:WLOFF *12134:EN 0.000193113
55 *12134:SM *12134:EN 0
56 *113:8 *11926:A 2.10152e-05
57 *114:19 *627:54 0.000980195
58 *114:39 *627:54 0.000120552
59 *114:39 *627:61 0.0011474
60 *114:39 *627:76 0.000767171
61 *146:10 *627:27 0.000577597
62 *157:51 *627:41 0.000112105
63 *160:12 *627:54 0.000903115
64 *162:14 *627:61 0.000444953
65 *163:46 *627:76 0.000120789
66 *164:24 *627:76 2.39856e-05
67 *165:97 *627:83 0.000180862
68 *166:12 *627:83 0.000450545
69 *168:8 *627:98 2.49909e-05
70 *170:8 *627:109 0
71 *170:8 *627:120 0
72 *172:10 *627:94 0.0033788
73 *174:8 *627:148 0.000335424
74 *176:18 *627:94 0.00601685
75 *198:15 *627:35 0.000135553
76 *202:19 *627:35 0.00956726
77 *204:31 *627:41 0
78 *205:31 *627:35 0.0141615
79 *224:23 *627:31 2.88529e-05
80 *230:25 *627:35 0.000359493
81 *232:27 *627:41 5.9361e-05
82 *232:60 *627:41 0
83 *232:64 *627:41 0
84 *235:31 *627:76 4.99619e-05
85 *235:31 *627:83 0.000151541
86 *237:11 *627:150 0.00383329
87 *238:11 *627:131 0.000153618
88 *238:11 *627:144 0.000287808
89 *353:10 *627:150 0.000312918
90 *362:10 *627:27 4.18862e-05
91 *362:10 *627:31 0.000269381
92 *365:24 *627:31 0.00060423
93 *369:30 *11926:A 0.00167258
94 *369:56 *627:31 1.7635e-05
95 *371:60 *627:31 1.7635e-05
96 *382:88 *627:150 0.0017139
97 *387:28 *11926:A 0.00166925
98 *441:14 *627:35 0.00214636
99 *467:8 *627:144 0.000158385
100 *474:14 *627:41 0
101 *541:16 *627:94 0
102 *560:18 *627:27 0.000506237
103 *570:14 *627:92 0.000211257
*RES
1 *11927:X *627:4 1.6
2 *627:4 *11926:A 26.645
3 *627:4 *627:27 13.96
4 *627:27 *627:29 2
5 *627:29 *627:31 58.245
6 *627:31 *627:33 2
7 *627:33 *627:35 129.135
8 *627:35 *627:41 10.735
9 *627:41 *11891:S 1.6
10 *627:41 *627:54 11.28
11 *627:54 *11894:S 1.6
12 *627:54 *627:61 10.455
13 *627:61 *11897:S 1.6
14 *627:61 *627:76 32.545
15 *627:76 *11900:S 1.6
16 *627:76 *627:83 39.78
17 *627:83 *11903:S 1.6
18 *627:83 *627:92 36.95
19 *627:92 *627:94 67.17
20 *627:94 *627:98 7.625
21 *627:98 *11906:S 1.6
22 *627:98 *627:109 21.695
23 *627:109 *11918:S 4.05
24 *627:109 *627:120 14.64
25 *627:120 *11909:S 4.395
26 *627:120 *627:131 4.185
27 *627:131 *11912:S 3.6
28 *627:131 *627:144 11.75
29 *627:144 *627:148 10.385
30 *627:148 *627:150 50.85
31 *627:150 *12134:EN 6.51875
32 *627:144 *11915:S 1.6
33 *627:27 *11925:A 2.05
*END

*D_NET *628 0.0260122
*CONN
*I *11865:C1 I *D sky130_fd_sc_hd__o221a_2
*I *11868:C1 I *D sky130_fd_sc_hd__o221a_2
*I *11856:C1 I *D sky130_fd_sc_hd__o221a_2
*I *11838:C1 I *D sky130_fd_sc_hd__o221a_1
*I *11841:C1 I *D sky130_fd_sc_hd__o221a_1
*I *11862:C1 I *D sky130_fd_sc_hd__o221a_2
*I *11853:C1 I *D sky130_fd_sc_hd__o221a_2
*I *11832:C1 I *D sky130_fd_sc_hd__o221a_1
*I *11847:C1 I *D sky130_fd_sc_hd__o221a_2
*I *11835:C1 I *D sky130_fd_sc_hd__o221a_1
*I *11844:C1 I *D sky130_fd_sc_hd__o221a_2
*I *11850:C1 I *D sky130_fd_sc_hd__o221a_2
*I *11826:C1 I *D sky130_fd_sc_hd__o221a_1
*I *11829:C1 I *D sky130_fd_sc_hd__o221a_1
*I *11859:C1 I *D sky130_fd_sc_hd__o221a_2
*I *11928:X O *D sky130_fd_sc_hd__clkbuf_4
*CAP
1 *11865:C1 0.000481043
2 *11868:C1 0
3 *11856:C1 4.08394e-05
4 *11838:C1 0.000229801
5 *11841:C1 0
6 *11862:C1 0.000150325
7 *11853:C1 0.00014345
8 *11832:C1 0
9 *11847:C1 7.54026e-05
10 *11835:C1 1.64952e-05
11 *11844:C1 0
12 *11850:C1 1.70353e-05
13 *11826:C1 0.000161547
14 *11829:C1 0
15 *11859:C1 0
16 *11928:X 0
17 *628:188 0.00196633
18 *628:86 0.00039037
19 *628:75 0.00042322
20 *628:69 0.00043658
21 *628:65 0.000288671
22 *628:63 0.000290408
23 *628:57 0.000177019
24 *628:53 0.000354814
25 *628:51 0.000393681
26 *628:47 0.000495279
27 *628:39 0.000742014
28 *628:37 0.00037865
29 *628:23 0.000388127
30 *628:12 0.000577138
31 *628:4 0.00195414
32 *11826:C1 *11826:A2 0.0006801
33 *11826:C1 *11826:B1 0.000753348
34 *11826:C1 *11850:B1 7.32549e-05
35 *11826:C1 *633:119 0.000155601
36 *11835:C1 *631:36 4.87465e-06
37 *11838:C1 *11838:B1 7.36562e-05
38 *11847:C1 *631:30 4.66108e-05
39 *11850:C1 *11850:B1 0.0001249
40 *11850:C1 *633:119 0.000114024
41 *11856:C1 *633:47 4.66108e-05
42 *11862:C1 *11862:B1 0.000342203
43 *11865:C1 *629:8 1.29342e-05
44 *628:12 *11859:B1 8.7152e-06
45 *628:12 *11868:A2 0.000213963
46 *628:12 *11930:A 0
47 *628:23 *11868:A2 9.66021e-05
48 *628:23 *11868:B1 4.78756e-05
49 *628:23 *633:41 0.000362601
50 *628:37 *11856:B1 7.66636e-07
51 *628:37 *11868:B1 1.3758e-05
52 *628:37 *633:41 0.000130854
53 *628:37 *633:47 0.0001925
54 *628:47 *11841:B1 4.83093e-05
55 *628:51 *11841:B1 4.77757e-05
56 *628:51 *631:109 4.66108e-05
57 *628:53 *11832:B1 5.69554e-05
58 *628:53 *11862:B1 2.84864e-05
59 *628:53 *631:109 9.96447e-05
60 *628:57 *11832:B1 9.5799e-06
61 *628:63 *631:36 1.23707e-05
62 *628:65 *631:36 2.8185e-05
63 *628:69 *11844:B1 6.02876e-06
64 *628:69 *631:36 0.000123542
65 *628:69 *631:44 3.95779e-05
66 *628:75 *631:44 0.000439174
67 *628:86 *631:55 0.000178309
68 *628:188 *629:8 0.00164351
69 *647:DIODE *628:37 4.66474e-05
70 *677:DIODE *628:53 9.5799e-06
71 *11815:A *628:63 0.000289099
72 *11815:A *628:65 3.59311e-05
73 *11832:B2 *11862:C1 0.000113897
74 *11832:B2 *628:53 7.98745e-06
75 *11835:B2 *11847:C1 6.95679e-05
76 *11841:A1 *628:47 9.29332e-05
77 *11841:A1 *628:53 3.85065e-05
78 *11844:A1 *628:69 4.82919e-05
79 *11853:B2 *11853:C1 0.000119762
80 *11865:A1 *11865:C1 0.00026102
81 *11865:B2 *11865:C1 0.00025506
82 *12017:A *11838:C1 0
83 *12071:A *11847:C1 4.66108e-05
84 *12244:A *11853:C1 0.000120655
85 *12244:A *628:63 0.000198219
86 *109:12 *11853:C1 4.53904e-05
87 *122:36 *11838:C1 7.81838e-05
88 *132:18 *11853:C1 7.96104e-06
89 *132:18 *628:53 0
90 *187:30 *628:37 7.9642e-06
91 *196:37 *11865:C1 0.00152493
92 *196:37 *628:188 0.00082869
93 *205:19 *11865:C1 0.00156975
94 *211:27 *11847:C1 0.000131881
95 *496:18 *628:75 0
96 *496:18 *628:86 0
97 *571:12 *11838:C1 0
98 *575:36 *11865:C1 2.62861e-05
99 *591:16 *628:23 5.26524e-05
100 *591:16 *628:37 3.00381e-05
101 *596:22 *628:188 0.000423894
102 *620:22 *628:37 0.000118081
103 *620:22 *628:39 4.07182e-05
104 *620:22 *628:47 0.000197288
105 *621:8 *11853:C1 4.08514e-05
106 *621:8 *628:63 3.79854e-05
107 *621:8 *628:65 0.000193801
108 *621:8 *628:69 0.000193801
109 *623:14 *628:12 0.000458588
110 *623:14 *628:188 0.00137348
*RES
1 *11928:X *628:4 1.6
2 *628:4 *628:12 10.9
3 *628:12 *11859:C1 1.6
4 *628:12 *628:23 3.93
5 *628:23 *628:37 9.34
6 *628:37 *628:39 1.14
7 *628:39 *628:47 8.175
8 *628:47 *628:51 2.795
9 *628:51 *628:53 4.0575
10 *628:53 *628:57 2.2325
11 *628:57 *628:63 5.22
12 *628:63 *628:65 1.83
13 *628:65 *628:69 4.605
14 *628:69 *628:75 6.98
15 *628:75 *11829:C1 3.6
16 *628:75 *628:86 6.185
17 *628:86 *11826:C1 9.295
18 *628:86 *11850:C1 2.74
19 *628:69 *11844:C1 1.6
20 *628:65 *11835:C1 1.96
21 *628:63 *11847:C1 7.685
22 *628:57 *11832:C1 1.6
23 *628:53 *11853:C1 6.4575
24 *628:51 *11862:C1 7.785
25 *628:47 *11841:C1 1.6
26 *628:39 *11838:C1 9.785
27 *628:37 *11856:C1 2.395
28 *628:23 *11868:C1 1.6
29 *628:4 *628:188 34.9325
30 *628:188 *11865:C1 24.9675
*END

*D_NET *629 0.0500976
*CONN
*I *11972:A I *D sky130_fd_sc_hd__buf_12
*I *12215:X O *D sky130_fd_sc_hd__buf_12
*CAP
1 *11972:A 8.0489e-05
2 *12215:X 0
3 *629:8 0.00522564
4 *629:6 0.00514515
5 *11865:C1 *629:8 1.29342e-05
6 *11870:A0 *629:8 0.000444081
7 *125:10 *629:8 0.00931233
8 *125:20 *629:8 0.000307824
9 *136:14 *629:8 0.000790814
10 *138:16 *629:8 0.00205193
11 *193:28 *629:8 0.00264901
12 *201:9 *11972:A 0.000343864
13 *205:11 *629:8 0.00635798
14 *205:19 *629:8 0.0113638
15 *258:23 *11972:A 0.000196056
16 *575:38 *629:8 2.26301e-05
17 *582:20 *629:8 0.00387076
18 *596:22 *629:8 0.000278782
19 *628:188 *629:8 0.00164351
*RES
1 *12215:X *629:6 3.6
2 *629:6 *629:8 238.275
3 *629:8 *11972:A 6.81
*END

*D_NET *630 0.0510194
*CONN
*I *11877:C1 I *D sky130_fd_sc_hd__o221a_2
*I *11883:C1 I *D sky130_fd_sc_hd__o221a_2
*I *11886:C1 I *D sky130_fd_sc_hd__o221a_2
*I *11892:C1 I *D sky130_fd_sc_hd__o221a_2
*I *11895:C1 I *D sky130_fd_sc_hd__o221a_2
*I *11898:C1 I *D sky130_fd_sc_hd__o221a_2
*I *11901:C1 I *D sky130_fd_sc_hd__o221a_2
*I *11910:C1 I *D sky130_fd_sc_hd__o221a_2
*I *11907:C1 I *D sky130_fd_sc_hd__o221a_2
*I *11904:C1 I *D sky130_fd_sc_hd__o221a_2
*I *11889:C1 I *D sky130_fd_sc_hd__o221a_2
*I *11880:C1 I *D sky130_fd_sc_hd__o221a_2
*I *11874:C1 I *D sky130_fd_sc_hd__o221a_2
*I *11928:A I *D sky130_fd_sc_hd__clkbuf_4
*I *11871:C1 I *D sky130_fd_sc_hd__o221a_2
*I *11929:X O *D sky130_fd_sc_hd__buf_4
*CAP
1 *11877:C1 0.000169197
2 *11883:C1 2.67753e-05
3 *11886:C1 0
4 *11892:C1 3.69455e-05
5 *11895:C1 0
6 *11898:C1 1.17779e-05
7 *11901:C1 4.45625e-05
8 *11910:C1 0.000241732
9 *11907:C1 0
10 *11904:C1 7.94171e-05
11 *11889:C1 2.08101e-05
12 *11880:C1 0.000198308
13 *11874:C1 0.00109128
14 *11928:A 0
15 *11871:C1 0.000101394
16 *11929:X 4.55717e-05
17 *630:152 0.00121275
18 *630:129 0.00274491
19 *630:121 0.00240451
20 *630:113 0.00101109
21 *630:105 0.000741198
22 *630:97 0.000614415
23 *630:88 0.00071946
24 *630:80 0.00122658
25 *630:64 0.0016672
26 *630:49 0.00211155
27 *630:43 0.00230607
28 *630:26 0.00299191
29 *630:19 0.000742956
30 *630:6 0.000155301
31 *11871:C1 *11930:A 3.26368e-05
32 *11874:C1 *634:10 7.40453e-06
33 *11874:C1 *634:16 0.00268368
34 *11874:C1 *634:22 5.18694e-05
35 *11877:C1 *11877:B1 3.57349e-05
36 *11877:C1 *632:95 8.41307e-05
37 *11877:C1 *632:107 3.27519e-05
38 *11877:C1 *634:32 0.000149931
39 *11880:C1 *632:107 4.82919e-05
40 *11883:C1 *634:42 9.94353e-05
41 *11898:C1 *632:193 2.37995e-05
42 *11901:C1 *11901:B1 5.12969e-06
43 *11901:C1 *632:206 4.89295e-05
44 *11901:C1 *634:135 1.52352e-05
45 *11904:C1 *632:221 0.000153816
46 *11904:C1 *634:148 8.49936e-05
47 *11910:C1 *11907:B1 5.22968e-05
48 *630:49 *634:32 0.000192036
49 *630:64 *634:42 0.000121482
50 *630:80 *632:136 0.00044429
51 *630:80 *634:42 9.84403e-05
52 *630:80 *634:56 0
53 *630:88 *634:56 0.000121698
54 *630:97 *11889:B1 4.62224e-05
55 *630:105 *632:170 0.000152088
56 *630:105 *634:106 0.000797215
57 *630:113 *632:193 5.29938e-05
58 *630:121 *11898:B1 3.29974e-06
59 *630:121 *632:193 1.51894e-05
60 *630:121 *632:206 3.05582e-05
61 *630:121 *634:135 0.00137518
62 *630:129 *634:135 1.83975e-05
63 *630:152 *11907:A2 0.00097364
64 *630:152 *11907:B1 0.000120655
65 *653:DIODE *11880:C1 0.000119575
66 *662:DIODE *630:129 5.05716e-06
67 *665:DIODE *630:152 3.69766e-05
68 *11859:B2 *11871:C1 0.000114183
69 *11874:A1 *11874:C1 0.000118081
70 *11874:B2 *11874:C1 8.23457e-05
71 *11877:B2 *11877:C1 0.000119866
72 *11880:A1 *11880:C1 0
73 *11886:B2 *630:113 0.000557477
74 *11889:A1 *630:88 1.08758e-05
75 *11889:A1 *630:97 0.000216984
76 *11889:B2 *630:113 0.00102721
77 *11892:A1 *11892:C1 4.77757e-05
78 *11892:A1 *630:105 0.000302812
79 *11910:A1 *11910:C1 6.02762e-05
80 *11929:A *630:6 4.75959e-05
81 *11929:A *630:19 4.75991e-05
82 *11929:A *630:26 0.000157822
83 *11981:A *630:64 0.00129058
84 *11981:A *630:80 0
85 *11990:A *630:80 0.000197826
86 *11996:A *630:64 8.52845e-05
87 *109:16 *630:6 0.000157296
88 *109:16 *630:19 3.72418e-05
89 *109:16 *630:26 0.00227193
90 *114:19 *630:26 0.00260208
91 *114:19 *630:43 0.00225856
92 *146:10 *11874:C1 2.97746e-05
93 *149:57 *630:88 7.21296e-06
94 *149:59 *630:88 1.73877e-05
95 *154:16 *630:113 6.61522e-05
96 *154:16 *630:121 0.00044682
97 *166:14 *11910:C1 0.000981616
98 *166:14 *630:152 6.1357e-05
99 *178:18 *11874:C1 9.09788e-06
100 *180:25 *11874:C1 1.19928e-05
101 *188:30 *11871:C1 7.39838e-05
102 *198:23 *630:88 7.3664e-05
103 *201:23 *630:113 0.000112143
104 *206:47 *11910:C1 4.82919e-05
105 *206:54 *11910:C1 4.99619e-05
106 *352:14 *11880:C1 0
107 *362:32 *11874:C1 0.000337201
108 *429:16 *630:49 0.00147136
109 *429:16 *630:64 0.000542001
110 *463:14 *11904:C1 4.13879e-05
111 *463:14 *630:129 1.10469e-05
112 *463:14 *630:152 8.47518e-05
113 *594:12 *11874:C1 0.00139521
114 *594:20 *11880:C1 4.82919e-05
115 *601:16 *11892:C1 8.51862e-05
116 *601:16 *630:88 0.000560732
117 *601:16 *630:97 0.000248882
118 *601:16 *630:105 0.000855901
119 *601:16 *630:113 4.92861e-05
120 *604:12 *630:97 8.65905e-05
121 *610:20 *11910:C1 0.000309366
122 *623:14 *630:6 3.83383e-05
123 *625:61 *11877:C1 0
*RES
1 *11929:X *630:6 3.085
2 *630:6 *11871:C1 8.255
3 *630:6 *630:19 0.45
4 *630:19 *11928:A 1.6
5 *630:19 *630:26 25.98
6 *630:26 *11874:C1 42.035
7 *630:26 *630:43 23.15
8 *630:43 *630:49 19.745
9 *630:49 *11880:C1 8.705
10 *630:49 *630:64 18.735
11 *630:64 *630:80 17.02
12 *630:80 *630:88 14.365
13 *630:88 *11889:C1 1.96
14 *630:88 *630:97 4.59
15 *630:97 *630:105 11.88
16 *630:105 *630:113 16.345
17 *630:113 *630:121 14.895
18 *630:121 *630:129 5.10117
19 *630:129 *11904:C1 6.0725
20 *630:129 *630:152 6.2631
21 *630:152 *11907:C1 1.6
22 *630:152 *11910:C1 11.395
23 *630:121 *11901:C1 2.665
24 *630:113 *11898:C1 2.005
25 *630:105 *11895:C1 1.6
26 *630:97 *11892:C1 2.755
27 *630:80 *11886:C1 1.6
28 *630:64 *11883:C1 2.755
29 *630:43 *11877:C1 7.395
*END

*D_NET *631 0.0280981
*CONN
*I *11865:B1 I *D sky130_fd_sc_hd__o221a_2
*I *11859:B1 I *D sky130_fd_sc_hd__o221a_2
*I *11868:B1 I *D sky130_fd_sc_hd__o221a_2
*I *11856:B1 I *D sky130_fd_sc_hd__o221a_2
*I *11838:B1 I *D sky130_fd_sc_hd__o221a_1
*I *11853:B1 I *D sky130_fd_sc_hd__o221a_2
*I *11841:B1 I *D sky130_fd_sc_hd__o221a_1
*I *11862:B1 I *D sky130_fd_sc_hd__o221a_2
*I *11832:B1 I *D sky130_fd_sc_hd__o221a_1
*I *11847:B1 I *D sky130_fd_sc_hd__o221a_2
*I *11835:B1 I *D sky130_fd_sc_hd__o221a_1
*I *11844:B1 I *D sky130_fd_sc_hd__o221a_2
*I *11850:B1 I *D sky130_fd_sc_hd__o221a_2
*I *11826:B1 I *D sky130_fd_sc_hd__o221a_1
*I *11829:B1 I *D sky130_fd_sc_hd__o221a_1
*I *11930:X O *D sky130_fd_sc_hd__buf_4
*CAP
1 *11865:B1 0.000435681
2 *11859:B1 0.000113839
3 *11868:B1 0.000155676
4 *11856:B1 0.00025728
5 *11838:B1 5.01804e-05
6 *11853:B1 5.27104e-05
7 *11841:B1 4.60404e-05
8 *11862:B1 0.000199022
9 *11832:B1 6.13906e-05
10 *11847:B1 2.01598e-05
11 *11835:B1 0
12 *11844:B1 1.88227e-05
13 *11850:B1 0.000158164
14 *11826:B1 0.000443012
15 *11829:B1 0
16 *11930:X 0
17 *631:218 0.00206208
18 *631:109 0.000416976
19 *631:94 0.000233304
20 *631:55 0.000744221
21 *631:44 0.000449809
22 *631:36 0.000616043
23 *631:30 0.000403166
24 *631:22 0.000243906
25 *631:20 0.000283948
26 *631:18 0.000429971
27 *631:16 0.000462431
28 *631:12 0.00054159
29 *631:10 0.000362108
30 *631:8 0.000341402
31 *631:4 0.00172394
32 *11826:B1 *11826:A2 4.60584e-05
33 *11850:B1 *633:119 3.57084e-05
34 *11856:B1 *633:41 1.56428e-05
35 *11856:B1 *633:47 3.33659e-05
36 *11859:B1 *11868:A2 9.39388e-06
37 *11859:B1 *11930:A 0
38 *11859:B1 *633:41 2.72726e-05
39 *11862:B1 *633:126 4.7368e-05
40 *11865:B1 *633:20 0.000293726
41 *631:218 *11930:A 8.40213e-05
42 *647:DIODE *11856:B1 0.000130204
43 *647:DIODE *11868:B1 0
44 *656:DIODE *631:44 0
45 *11815:A *631:36 0.000122337
46 *11826:C1 *11826:B1 0.000753348
47 *11826:C1 *11850:B1 7.32549e-05
48 *11829:B2 *631:55 0.000366165
49 *11832:B2 *11832:B1 0.000130978
50 *11832:B2 *631:109 0.000187212
51 *11835:B2 *631:30 0.000131729
52 *11835:C1 *631:36 4.87465e-06
53 *11838:C1 *11838:B1 7.36562e-05
54 *11841:A1 *11841:B1 9.86533e-05
55 *11844:A1 *631:36 2.75229e-05
56 *11847:C1 *631:30 4.66108e-05
57 *11850:C1 *11850:B1 0.0001249
58 *11853:B2 *11853:B1 1.20741e-05
59 *11862:B2 *11862:B1 4.1652e-06
60 *11862:C1 *11862:B1 0.000342203
61 *11865:A1 *11865:B1 1.12643e-05
62 *11865:B2 *11865:B1 1.12643e-05
63 *11868:B2 *11868:B1 1.39456e-05
64 *12011:A *11856:B1 9.09788e-06
65 *12012:A *631:30 0.000133403
66 *12014:A *631:18 0.000331014
67 *12014:A *631:20 0.000120655
68 *12017:A *631:18 0.000275553
69 *12020:A *631:218 0.00026538
70 *12071:A *11847:B1 0
71 *12071:A *631:18 0.000267846
72 *12071:A *631:20 0.00041959
73 *12071:A *631:22 0.000158523
74 *12071:A *631:30 9.95975e-05
75 *12079:A *631:44 9.09788e-06
76 *12090:A *631:22 0.000152895
77 *12090:A *631:30 0.000223055
78 *12094:A *11865:B1 0.000141767
79 *12194:A *11853:B1 0.000132266
80 *12213:A *631:10 2.75145e-05
81 *12230:A *631:44 0
82 *122:36 *11838:B1 0.000136877
83 *132:18 *11862:B1 0.000115435
84 *184:8 *11865:B1 0.00118171
85 *187:30 *11856:B1 4.09813e-05
86 *196:37 *631:218 0.000702161
87 *205:29 *631:218 7.57575e-05
88 *496:36 *631:218 1.08129e-05
89 *557:30 *631:218 7.27298e-06
90 *571:18 *631:218 0.000323267
91 *575:36 *631:218 0.000580104
92 *576:22 *11865:B1 0.00122928
93 *584:16 *11856:B1 0.000152925
94 *587:30 *631:218 0.000458368
95 *588:44 *631:218 0.000200655
96 *591:16 *11859:B1 0.000126048
97 *591:16 *11868:B1 2.72726e-05
98 *593:10 *11853:B1 0.00013361
99 *595:12 *11859:B1 7.17811e-05
100 *595:12 *11868:B1 0
101 *596:22 *631:218 0.00121226
102 *596:24 *11865:B1 0.000344634
103 *597:14 *631:218 0.000636508
104 *618:14 *631:218 0.000228099
105 *620:22 *631:8 1.33285e-05
106 *620:22 *631:218 0.000636575
107 *621:8 *11853:B1 6.03947e-06
108 *622:20 *631:8 0.000120655
109 *622:20 *631:10 0.000350486
110 *622:20 *631:12 0.000199043
111 *622:20 *631:16 0.000157127
112 *622:20 *631:18 3.03059e-05
113 *628:12 *11859:B1 8.7152e-06
114 *628:23 *11868:B1 4.78756e-05
115 *628:37 *11856:B1 7.66636e-07
116 *628:37 *11868:B1 1.3758e-05
117 *628:47 *11841:B1 4.83093e-05
118 *628:51 *11841:B1 4.77757e-05
119 *628:51 *631:109 4.66108e-05
120 *628:53 *11832:B1 5.69554e-05
121 *628:53 *11862:B1 2.84864e-05
122 *628:53 *631:109 9.96447e-05
123 *628:57 *11832:B1 9.5799e-06
124 *628:63 *631:36 1.23707e-05
125 *628:65 *631:36 2.8185e-05
126 *628:69 *11844:B1 6.02876e-06
127 *628:69 *631:36 0.000123542
128 *628:69 *631:44 3.95779e-05
129 *628:75 *631:44 0.000439174
130 *628:86 *631:55 0.000178309
*RES
1 *11930:X *631:4 1.6
2 *631:4 *631:8 1.845
3 *631:8 *631:10 3.21
4 *631:10 *631:12 1.83
5 *631:12 *631:16 3.225
6 *631:16 *631:18 5.625
7 *631:18 *631:20 3.9
8 *631:20 *631:22 2.59125
9 *631:22 *631:30 7.73875
10 *631:30 *631:36 5.29125
11 *631:36 *631:44 8.64875
12 *631:44 *11829:B1 3.6
13 *631:44 *631:55 6.44
14 *631:55 *11826:B1 9.655
15 *631:55 *11850:B1 4.3975
16 *631:36 *11844:B1 1.96
17 *631:30 *11835:B1 1.6
18 *631:22 *11847:B1 1.94875
19 *631:20 *631:94 2
20 *631:94 *11832:B1 5.235
21 *631:94 *631:109 5.54
22 *631:109 *11862:B1 10.4862
23 *631:109 *11841:B1 3.1
24 *631:18 *11853:B1 7.34375
25 *631:16 *11838:B1 7.235
26 *631:12 *11856:B1 10.3138
27 *631:10 *11868:B1 8.44625
28 *631:8 *11859:B1 8.44625
29 *631:4 *631:218 49.6
30 *631:218 *11865:B1 24.2188
*END

*D_NET *632 0.0771382
*CONN
*I *11877:B1 I *D sky130_fd_sc_hd__o221a_2
*I *11883:B1 I *D sky130_fd_sc_hd__o221a_2
*I *11889:B1 I *D sky130_fd_sc_hd__o221a_2
*I *11907:B1 I *D sky130_fd_sc_hd__o221a_2
*I *11904:B1 I *D sky130_fd_sc_hd__o221a_2
*I *11901:B1 I *D sky130_fd_sc_hd__o221a_2
*I *11898:B1 I *D sky130_fd_sc_hd__o221a_2
*I *11895:B1 I *D sky130_fd_sc_hd__o221a_2
*I *11892:B1 I *D sky130_fd_sc_hd__o221a_2
*I *11886:B1 I *D sky130_fd_sc_hd__o221a_2
*I *11880:B1 I *D sky130_fd_sc_hd__o221a_2
*I *12124:EN I *D CF_SRAM_1024x32
*I *11874:B1 I *D sky130_fd_sc_hd__o221a_2
*I *11871:B1 I *D sky130_fd_sc_hd__o221a_2
*I *11930:A I *D sky130_fd_sc_hd__buf_4
*I *11931:X O *D sky130_fd_sc_hd__buf_8
*CAP
1 *11877:B1 7.57241e-05
2 *11883:B1 3.98831e-06
3 *11889:B1 1.93311e-05
4 *11907:B1 0.000651683
5 *11904:B1 0
6 *11901:B1 2.8135e-05
7 *11898:B1 4.40817e-05
8 *11895:B1 1.80225e-05
9 *11892:B1 1.67281e-05
10 *11886:B1 0
11 *11880:B1 1.87429e-05
12 *12124:EN 0.007013
13 *11874:B1 1.35396e-05
14 *11871:B1 2.5869e-05
15 *11930:A 0.000477579
16 *11931:X 4.69227e-05
17 *632:221 0.00152667
18 *632:206 0.0018872
19 *632:193 0.0020347
20 *632:170 0.00202161
21 *632:155 0.00162871
22 *632:151 0.00137967
23 *632:136 0.00159518
24 *632:126 0.00187311
25 *632:107 0.0016319
26 *632:95 0.00187111
27 *632:48 0.00802046
28 *632:44 0.00376433
29 *632:16 0.00061753
30 *632:10 0.00172985
31 *11871:B1 *11868:A2 4.03918e-05
32 *11883:B1 *634:42 1.12643e-05
33 *11892:B1 *634:106 2.53191e-06
34 *11895:B1 *634:106 1.18246e-05
35 *11898:B1 *634:135 2.66872e-06
36 *11901:B1 *634:135 1.52827e-05
37 *11907:B1 *634:148 2.50318e-07
38 *11930:A *11868:A2 0.000122092
39 *632:16 *11868:A2 2.84693e-05
40 *632:44 *11868:A2 7.00889e-06
41 *632:44 *634:22 3.67591e-05
42 *632:44 *634:219 0.00155685
43 *632:48 *634:16 0.000611988
44 *632:95 *634:22 0.000178836
45 *632:107 *634:32 0.000295438
46 *632:136 *11886:A2 9.72742e-06
47 *632:136 *634:56 1.6486e-05
48 *632:151 *11886:A2 5.4155e-06
49 *632:151 *634:56 9.86739e-06
50 *632:170 *634:106 0.000152088
51 *632:206 *634:135 0.000627128
52 *632:221 *634:135 2.11768e-05
53 *632:221 *634:148 0.000365998
54 wbs_dat_o[17] *632:221 0.000109589
55 *648:DIODE *11930:A 0.000137894
56 *651:DIODE *632:107 0.000152634
57 *655:DIODE *632:126 1.44259e-05
58 *655:DIODE *632:136 4.19967e-05
59 *658:DIODE *632:151 7.23533e-05
60 *664:DIODE *11907:B1 1.93834e-05
61 *11859:B1 *11930:A 0
62 *11859:B2 *11930:A 0
63 *11868:A1 *11930:A 0
64 *11868:A1 *12124:EN 0
65 *11871:A1 *632:10 6.28765e-05
66 *11871:B2 *632:10 0.000117825
67 *11871:C1 *11930:A 3.26368e-05
68 *11874:A1 *11874:B1 4.62224e-05
69 *11874:A1 *12124:EN 0.00029854
70 *11874:B2 *11874:B1 4.62224e-05
71 *11877:A1 *11877:B1 6.18136e-05
72 *11877:B2 *11877:B1 5.25592e-05
73 *11877:B2 *632:95 0.000901799
74 *11877:C1 *11877:B1 3.57349e-05
75 *11877:C1 *632:95 8.41307e-05
76 *11877:C1 *632:107 3.27519e-05
77 *11880:B2 *11880:B1 0
78 *11880:B2 *632:107 0
79 *11880:B2 *632:126 0.00205746
80 *11880:C1 *632:107 4.82919e-05
81 *11883:A1 *11883:B1 6.03947e-06
82 *11883:B2 *632:126 1.96856e-05
83 *11886:B2 *632:151 0.000911514
84 *11889:B2 *632:193 0.000622848
85 *11892:A1 *11892:B1 1.18246e-05
86 *11892:B2 *11892:B1 7.9642e-06
87 *11892:B2 *11895:B1 3.78034e-06
88 *11892:B2 *632:170 0.000153041
89 *11895:A1 *632:193 0.000101872
90 *11898:A1 *632:206 2.49909e-05
91 *11898:C1 *632:193 2.37995e-05
92 *11901:A1 *632:221 4.82919e-05
93 *11901:C1 *11901:B1 5.12969e-06
94 *11901:C1 *632:206 4.89295e-05
95 *11904:B2 *632:221 1.42171e-05
96 *11904:C1 *632:221 0.000153816
97 *11910:C1 *11907:B1 5.22968e-05
98 *11990:A *632:136 0.000135873
99 *12124:WLOFF *12124:EN 4.77811e-05
100 *12124:SM *12124:EN 0
101 *12227:A *632:221 0.00042877
102 *133:16 *12124:EN 0.000849014
103 *139:42 *12124:EN 0.000293728
104 *157:61 *11907:B1 0.000134057
105 *164:30 *11907:B1 0.000309607
106 *166:14 *11907:B1 0.000321988
107 *180:14 *12124:EN 6.3124e-06
108 *188:30 *11930:A 0.000255744
109 *188:30 *12124:EN 0.00108998
110 *193:16 *12124:EN 3.82728e-05
111 *195:23 *12124:EN 0.00097692
112 *195:23 *632:107 0.000109836
113 *196:43 *632:126 5.64226e-05
114 *199:27 *11889:B1 1.15399e-05
115 *199:27 *632:151 4.01019e-05
116 *200:19 *11892:B1 4.61701e-06
117 *203:17 *12124:EN 1.88602e-05
118 *204:31 *11907:B1 9.74694e-05
119 *224:23 *12124:EN 4.14369e-05
120 *224:23 *632:48 0.00104166
121 *352:14 *632:107 0.00106305
122 *407:16 *632:48 0
123 *474:14 *11907:B1 0
124 *557:191 *12124:EN 0.00099649
125 *557:213 *12124:EN 0.000773651
126 *557:219 *12124:EN 0.000359861
127 *557:239 *12124:EN 0.000500049
128 *557:259 *12124:EN 0.00184276
129 *560:30 *12124:EN 0.000610603
130 *560:54 *12124:EN 0.00101041
131 *560:76 *12124:EN 0.00089386
132 *560:82 *12124:EN 0.000763416
133 *560:102 *12124:EN 0.000692286
134 *560:122 *12124:EN 0.00132357
135 *560:158 *12124:EN 0.0027112
136 *585:14 *11889:B1 1.7635e-05
137 *585:14 *632:151 0.000208433
138 *588:36 *11930:A 3.23391e-05
139 *589:12 *12124:EN 3.64998e-06
140 *591:16 *11930:A 6.2228e-05
141 *594:20 *11880:B1 1.16578e-05
142 *594:20 *632:107 0.00139822
143 *594:24 *11880:B1 1.82732e-05
144 *594:24 *632:126 1.46e-05
145 *601:16 *11889:B1 4.62224e-05
146 *601:16 *11892:B1 1.12643e-05
147 *601:16 *11895:B1 1.88656e-05
148 *601:16 *632:170 0.000165928
149 *610:20 *11907:B1 0.00101971
150 *622:20 *11930:A 2.92496e-05
151 *625:61 *632:107 0
152 *627:31 *12124:EN 4.9968e-05
153 *627:31 *632:48 0.00242733
154 *628:12 *11930:A 0
155 *630:80 *632:136 0.00044429
156 *630:97 *11889:B1 4.62224e-05
157 *630:105 *632:170 0.000152088
158 *630:113 *632:193 5.29938e-05
159 *630:121 *11898:B1 3.29974e-06
160 *630:121 *632:193 1.51894e-05
161 *630:121 *632:206 3.05582e-05
162 *630:152 *11907:B1 0.000120655
163 *631:218 *11930:A 8.40213e-05
*RES
1 *11931:X *632:10 6.98
2 *632:10 *632:16 1.86
3 *632:16 *11930:A 15.065
4 *632:16 *11871:B1 2.33875
5 *632:10 *632:44 26.325
6 *632:44 *632:48 34.49
7 *632:48 *11874:B1 4.04625
8 *632:48 *12124:EN 44.9781
9 *632:44 *632:95 20.46
10 *632:95 *632:107 22.975
11 *632:107 *11880:B1 2.33875
12 *632:107 *632:126 24.29
13 *632:126 *632:136 13.8612
14 *632:136 *11886:B1 1.6
15 *632:136 *632:151 13.8912
16 *632:151 *632:155 1.47027
17 *632:155 *11892:B1 4.44125
18 *632:155 *632:170 1.72773
19 *632:170 *11895:B1 4.44125
20 *632:170 *632:193 11.8749
21 *632:193 *11898:B1 2.1925
22 *632:193 *632:206 14.505
23 *632:206 *11901:B1 2.33875
24 *632:206 *632:221 15.7463
25 *632:221 *11904:B1 1.6
26 *632:221 *11907:B1 25.4775
27 *632:151 *11889:B1 4.27875
28 *632:126 *11883:B1 3.70875
29 *632:95 *11877:B1 3.13375
*END

*D_NET *633 0.0288157
*CONN
*I *11865:A2 I *D sky130_fd_sc_hd__o221a_2
*I *11822:B I *D sky130_fd_sc_hd__nor2_4
*I *11856:A2 I *D sky130_fd_sc_hd__o221a_2
*I *11832:A2 I *D sky130_fd_sc_hd__o221a_1
*I *11847:A2 I *D sky130_fd_sc_hd__o221a_2
*I *11835:A2 I *D sky130_fd_sc_hd__o221a_1
*I *11829:A2 I *D sky130_fd_sc_hd__o221a_1
*I *11841:A2 I *D sky130_fd_sc_hd__o221a_1
*I *11862:A2 I *D sky130_fd_sc_hd__o221a_2
*I *11850:A2 I *D sky130_fd_sc_hd__o221a_2
*I *11826:A2 I *D sky130_fd_sc_hd__o221a_1
*I *11844:A2 I *D sky130_fd_sc_hd__o221a_2
*I *11853:A2 I *D sky130_fd_sc_hd__o221a_2
*I *11838:A2 I *D sky130_fd_sc_hd__o221a_1
*I *11859:A2 I *D sky130_fd_sc_hd__o221a_2
*I *11932:X O *D sky130_fd_sc_hd__buf_4
*CAP
1 *11865:A2 0
2 *11822:B 0
3 *11856:A2 0
4 *11832:A2 6.8879e-06
5 *11847:A2 6.53766e-05
6 *11835:A2 8.23594e-06
7 *11829:A2 0
8 *11841:A2 0.000230306
9 *11862:A2 0
10 *11850:A2 0
11 *11826:A2 0.000377084
12 *11844:A2 0
13 *11853:A2 9.88821e-05
14 *11838:A2 1.8215e-05
15 *11859:A2 2.21004e-05
16 *11932:X 0.000163973
17 *633:126 0.000698767
18 *633:119 0.000680515
19 *633:110 0.00071449
20 *633:104 0.00050466
21 *633:85 0.000762726
22 *633:81 0.000594679
23 *633:79 0.000405399
24 *633:77 0.0010277
25 *633:60 0.00105887
26 *633:47 0.000262816
27 *633:41 0.000687551
28 *633:26 0.00194712
29 *633:20 0.002291
30 *633:6 0.00104907
31 *649:DIODE *11841:A2 0.000112154
32 *656:DIODE *633:110 5.18317e-06
33 *675:DIODE *11835:A2 4.55864e-06
34 *676:DIODE *11838:A2 3.11927e-05
35 *678:DIODE *633:104 8.7152e-06
36 *11819:C *633:20 0.000171555
37 *11819:C *633:26 0.000355716
38 *11819:D *633:20 4.66108e-05
39 *11826:B1 *11826:A2 4.60584e-05
40 *11826:C1 *11826:A2 0.0006801
41 *11826:C1 *633:119 0.000155601
42 *11829:B2 *633:110 0.00032581
43 *11832:B2 *11832:A2 1.88602e-05
44 *11835:B2 *11835:A2 1.88602e-05
45 *11841:B2 *11841:A2 0.000109042
46 *11844:B2 *633:104 0.000336543
47 *11850:A1 *633:126 0.000153816
48 *11850:B1 *633:119 3.57084e-05
49 *11850:C1 *633:119 0.000114024
50 *11856:A1 *633:41 2.13633e-05
51 *11856:B1 *633:41 1.56428e-05
52 *11856:B1 *633:47 3.33659e-05
53 *11856:C1 *633:47 4.66108e-05
54 *11859:B1 *633:41 2.72726e-05
55 *11859:B2 *633:26 0.00013493
56 *11859:B2 *633:41 1.61831e-05
57 *11862:B1 *633:126 4.7368e-05
58 *11865:A1 *633:6 4.41506e-05
59 *11865:B1 *633:20 0.000293726
60 *12013:A *11847:A2 6.88502e-05
61 *12017:A *11838:A2 0
62 *12017:A *633:77 1.79483e-05
63 *12090:A *11832:A2 1.88602e-05
64 *12094:A *633:20 0.000416411
65 *12094:A *633:26 0.000129951
66 *12244:A *633:77 0.00015623
67 *109:12 *11853:A2 4.65515e-05
68 *110:22 *633:26 0.000118081
69 *110:33 *633:26 0.0016073
70 *122:36 *11838:A2 3.09164e-05
71 *122:36 *633:47 0.000298413
72 *128:22 *11847:A2 9.50342e-06
73 *189:34 *11841:A2 4.66108e-05
74 *197:27 *633:110 0.000173377
75 *203:17 *633:20 0.00120313
76 *205:29 *633:20 0.00120812
77 *208:29 *11847:A2 0.000140074
78 *211:27 *11835:A2 5.02126e-06
79 *212:27 *11838:A2 2.06767e-05
80 *212:27 *633:47 0.000296675
81 *213:25 *633:77 2.94335e-05
82 *213:25 *633:79 1.45026e-05
83 *213:25 *633:81 4.99435e-05
84 *213:25 *633:85 9.22976e-05
85 *214:27 *633:104 0.000314683
86 *217:27 *633:77 0
87 *363:30 *11853:A2 7.67415e-06
88 *363:30 *633:60 6.39859e-05
89 *571:12 *11841:A2 0
90 *576:22 *633:20 0.00244613
91 *591:16 *633:41 7.20086e-06
92 *593:10 *11841:A2 0.000301052
93 *594:8 *633:6 0.000118081
94 *596:24 *633:20 2.05661e-05
95 *607:16 *633:20 5.98004e-06
96 *607:16 *633:26 0.000246236
97 *621:8 *11853:A2 0.00026784
98 *621:8 *633:60 0.000345347
99 *623:12 *11841:A2 5.74791e-05
100 *623:12 *633:126 0.000532898
101 *624:12 *11853:A2 4.65698e-05
102 *624:12 *633:60 6.19997e-05
103 *628:23 *633:41 0.000362601
104 *628:37 *633:41 0.000130854
105 *628:37 *633:47 0.0001925
*RES
1 *11932:X *633:6 4.12
2 *633:6 *633:20 39.495
3 *633:20 *633:26 29.09
4 *633:26 *11859:A2 1.96
5 *633:26 *633:41 7.65
6 *633:41 *633:47 7.505
7 *633:47 *11838:A2 4.215
8 *633:47 *633:60 5.21
9 *633:60 *11853:A2 4.48
10 *633:60 *633:77 4.05237
11 *633:77 *633:79 0.2128
12 *633:79 *633:81 0.3876
13 *633:81 *633:85 1.2372
14 *633:85 *11844:A2 3.6
15 *633:85 *633:104 9.845
16 *633:104 *633:110 7.93
17 *633:110 *11826:A2 9.295
18 *633:110 *633:119 3.9
19 *633:119 *11850:A2 1.6
20 *633:119 *633:126 9.765
21 *633:126 *11862:A2 1.6
22 *633:126 *11841:A2 11.12
23 *633:104 *11829:A2 1.6
24 *633:81 *11835:A2 4.3325
25 *633:79 *11847:A2 5.8625
26 *633:77 *11832:A2 4.3325
27 *633:41 *11856:A2 1.6
28 *633:20 *11822:B 3.6
29 *633:6 *11865:A2 1.6
*END

*D_NET *634 0.049822
*CONN
*I *11932:A I *D sky130_fd_sc_hd__buf_4
*I *11874:A2 I *D sky130_fd_sc_hd__o221a_2
*I *11871:A2 I *D sky130_fd_sc_hd__o221a_2
*I *11868:A2 I *D sky130_fd_sc_hd__o221a_2
*I *11877:A2 I *D sky130_fd_sc_hd__o221a_2
*I *11880:A2 I *D sky130_fd_sc_hd__o221a_2
*I *11883:A2 I *D sky130_fd_sc_hd__o221a_2
*I *11892:A2 I *D sky130_fd_sc_hd__o221a_2
*I *11898:A2 I *D sky130_fd_sc_hd__o221a_2
*I *11907:A2 I *D sky130_fd_sc_hd__o221a_2
*I *11904:A2 I *D sky130_fd_sc_hd__o221a_2
*I *11901:A2 I *D sky130_fd_sc_hd__o221a_2
*I *11895:A2 I *D sky130_fd_sc_hd__o221a_2
*I *11889:A2 I *D sky130_fd_sc_hd__o221a_2
*I *11886:A2 I *D sky130_fd_sc_hd__o221a_2
*I *11933:X O *D sky130_fd_sc_hd__clkbuf_8
*CAP
1 *11932:A 0.000455264
2 *11874:A2 8.73672e-05
3 *11871:A2 0
4 *11868:A2 0.00052351
5 *11877:A2 0.000298296
6 *11880:A2 3.88997e-05
7 *11883:A2 1.02925e-05
8 *11892:A2 8.61477e-06
9 *11898:A2 0
10 *11907:A2 0.000757078
11 *11904:A2 0
12 *11901:A2 0
13 *11895:A2 0
14 *11889:A2 0
15 *11886:A2 1.47239e-05
16 *11933:X 0.000126912
17 *634:219 0.0018325
18 *634:148 0.00159438
19 *634:135 0.00136476
20 *634:121 0.000904662
21 *634:106 0.00105625
22 *634:90 0.00104272
23 *634:73 0.000956493
24 *634:56 0.00144215
25 *634:42 0.00135381
26 *634:32 0.0017861
27 *634:22 0.00320007
28 *634:16 0.00403595
29 *634:10 0.00122418
30 *634:8 0.000664132
31 wbs_dat_o[17] *634:148 0.000348292
32 *653:DIODE *11880:A2 0
33 *653:DIODE *634:42 0
34 *659:DIODE *634:106 0
35 *664:DIODE *11907:A2 0
36 *11859:B1 *11868:A2 9.39388e-06
37 *11868:A1 *11868:A2 0.000131124
38 *11871:B1 *11868:A2 4.03918e-05
39 *11874:A1 *11874:A2 1.19928e-05
40 *11874:B2 *11874:A2 0.000153816
41 *11874:C1 *634:10 7.40453e-06
42 *11874:C1 *634:16 0.00268368
43 *11874:C1 *634:22 5.18694e-05
44 *11877:A1 *11877:A2 3.25731e-05
45 *11877:B2 *11877:A2 0.00010163
46 *11877:B2 *634:22 0.000929305
47 *11877:C1 *634:32 0.000149931
48 *11880:A1 *11880:A2 9.58678e-06
49 *11883:A1 *11883:A2 9.13949e-06
50 *11883:A1 *634:42 0.000124774
51 *11883:A1 *634:56 3.68265e-05
52 *11883:B1 *634:42 1.12643e-05
53 *11883:B2 *634:56 1.98144e-05
54 *11883:C1 *634:42 9.94353e-05
55 *11886:B2 *634:56 8.73389e-06
56 *11886:B2 *634:73 0.000362439
57 *11889:A1 *634:73 2.41376e-05
58 *11889:A1 *634:90 4.55864e-06
59 *11889:B2 *634:73 0.000159304
60 *11892:A1 *11892:A2 4.89295e-05
61 *11892:B1 *634:106 2.53191e-06
62 *11892:B2 *634:90 2.0519e-05
63 *11892:B2 *634:106 3.03353e-05
64 *11892:B2 *634:121 0.00113532
65 *11895:A1 *634:121 0.000155601
66 *11895:B1 *634:106 1.18246e-05
67 *11898:A1 *634:135 4.66108e-05
68 *11898:B1 *634:135 2.66872e-06
69 *11898:B2 *634:121 0.000199369
70 *11901:A1 *634:148 4.82919e-05
71 *11901:B1 *634:135 1.52827e-05
72 *11901:C1 *634:135 1.52352e-05
73 *11904:A1 *11907:A2 2.10433e-05
74 *11904:C1 *634:148 8.49936e-05
75 *11907:A1 *11907:A2 9.5799e-06
76 *11907:B1 *634:148 2.50318e-07
77 *11907:B2 *11907:A2 1.88602e-05
78 *11930:A *11868:A2 0.000122092
79 *11981:A *634:42 0.00129058
80 *12124:DI[13] *11932:A 3.85987e-05
81 *12124:DI[13] *634:8 3.1522e-05
82 *12134:DI[14] *634:16 1.83975e-05
83 *12223:A *634:90 0
84 *12225:A *634:90 0.000149152
85 *12227:A *634:148 0.000256157
86 *146:10 *11932:A 0.000208816
87 *146:10 *634:10 0.000146857
88 *149:59 *634:56 7.06865e-05
89 *151:69 *634:121 0.000172937
90 *152:20 *634:90 0.000145598
91 *153:38 *634:135 4.99524e-05
92 *156:20 *634:121 0.000134118
93 *157:61 *11907:A2 1.9488e-05
94 *166:14 *11907:A2 5.07419e-05
95 *166:14 *634:148 1.03423e-05
96 *180:25 *11874:A2 0.00018955
97 *224:23 *634:8 4.66108e-05
98 *224:23 *634:10 0.000146463
99 *224:23 *634:16 0.000528823
100 *365:24 *11932:A 4.22748e-05
101 *429:16 *634:42 0.00035215
102 *463:14 *11907:A2 0.000226816
103 *485:14 *11907:A2 0.000162898
104 *585:14 *634:90 9.01962e-05
105 *591:16 *11868:A2 0.000164358
106 *594:8 *11932:A 0.000216588
107 *594:20 *634:32 0.00147025
108 *594:24 *634:32 0.000124895
109 *594:24 *634:90 0.000238137
110 *597:12 *634:219 2.49909e-05
111 *597:14 *634:42 0.00111232
112 *600:12 *634:42 0
113 *601:16 *11892:A2 4.77719e-05
114 *601:16 *634:56 0.000517886
115 *601:16 *634:106 1.91597e-05
116 *601:24 *634:106 0.000121643
117 *601:24 *634:121 0.000283427
118 *603:14 *634:90 0.000614659
119 *605:22 *634:90 0
120 *605:22 *634:106 3.97171e-05
121 *627:31 *11932:A 1.95756e-05
122 *627:31 *634:10 5.06382e-06
123 *628:12 *11868:A2 0.000213963
124 *628:23 *11868:A2 9.66021e-05
125 *630:49 *634:32 0.000192036
126 *630:64 *634:42 0.000121482
127 *630:80 *634:42 9.84403e-05
128 *630:80 *634:56 0
129 *630:88 *634:56 0.000121698
130 *630:105 *634:106 0.000797215
131 *630:121 *634:135 0.00137518
132 *630:129 *634:135 1.83975e-05
133 *630:152 *11907:A2 0.00097364
134 *632:16 *11868:A2 2.84693e-05
135 *632:44 *11868:A2 7.00889e-06
136 *632:44 *634:22 3.67591e-05
137 *632:44 *634:219 0.00155685
138 *632:48 *634:16 0.000611988
139 *632:95 *634:22 0.000178836
140 *632:107 *634:32 0.000295438
141 *632:136 *11886:A2 9.72742e-06
142 *632:136 *634:56 1.6486e-05
143 *632:151 *11886:A2 5.4155e-06
144 *632:151 *634:56 9.86739e-06
145 *632:170 *634:106 0.000152088
146 *632:206 *634:135 0.000627128
147 *632:221 *634:135 2.11768e-05
148 *632:221 *634:148 0.000365998
*RES
1 *11933:X *634:8 5.43
2 *634:8 *634:10 2.145
3 *634:10 *634:16 33.045
4 *634:16 *634:22 23.765
5 *634:22 *634:32 25.125
6 *634:32 *634:42 23.18
7 *634:42 *634:56 15.46
8 *634:56 *11886:A2 1.96
9 *634:56 *634:73 12.575
10 *634:73 *11889:A2 3.6
11 *634:73 *634:90 13.915
12 *634:90 *634:106 13.415
13 *634:106 *11895:A2 1.6
14 *634:106 *634:121 17.305
15 *634:121 *634:135 19.945
16 *634:135 *11901:A2 1.6
17 *634:135 *634:148 15.765
18 *634:148 *11904:A2 1.6
19 *634:148 *11907:A2 10.3625
20 *634:121 *11898:A2 1.6
21 *634:90 *11892:A2 4.05
22 *634:42 *11883:A2 1.96
23 *634:32 *11880:A2 4.215
24 *634:22 *11877:A2 5.875
25 *634:16 *634:219 27.29
26 *634:219 *11868:A2 16.07
27 *634:219 *11871:A2 1.6
28 *634:10 *11874:A2 5.79
29 *634:8 *11932:A 11.535
*END

*D_NET *635 0.0334187
*CONN
*I *11823:S I *D sky130_fd_sc_hd__mux2_2
*I *11827:S I *D sky130_fd_sc_hd__mux2_2
*I *11845:S I *D sky130_fd_sc_hd__mux2_2
*I *11866:S I *D sky130_fd_sc_hd__mux2_2
*I *11860:S I *D sky130_fd_sc_hd__mux2_2
*I *11863:S I *D sky130_fd_sc_hd__mux2_2
*I *11869:S I *D sky130_fd_sc_hd__mux2_4
*I *11848:S I *D sky130_fd_sc_hd__mux2_2
*I *11857:S I *D sky130_fd_sc_hd__mux2_2
*I *11836:S I *D sky130_fd_sc_hd__mux2_2
*I *11839:S I *D sky130_fd_sc_hd__mux2_2
*I *11854:S I *D sky130_fd_sc_hd__mux2_2
*I *11830:S I *D sky130_fd_sc_hd__mux2_2
*I *11842:S I *D sky130_fd_sc_hd__mux2_2
*I *11851:S I *D sky130_fd_sc_hd__mux2_2
*I *11934:X O *D sky130_fd_sc_hd__clkbuf_8
*CAP
1 *11823:S 0.000203354
2 *11827:S 7.8047e-05
3 *11845:S 0
4 *11866:S 1.9816e-05
5 *11860:S 0.000214768
6 *11863:S 0
7 *11869:S 0.000732988
8 *11848:S 0
9 *11857:S 0
10 *11836:S 0.000282046
11 *11839:S 0.000163239
12 *11854:S 0
13 *11830:S 7.66324e-05
14 *11842:S 2.4121e-05
15 *11851:S 0.000135443
16 *11934:X 0.000120834
17 *635:134 0.000932484
18 *635:132 0.00104409
19 *635:124 0.00316765
20 *635:120 0.00336364
21 *635:109 0.000904738
22 *635:100 0.000306973
23 *635:89 0.000812435
24 *635:78 0.000936373
25 *635:69 0.000693435
26 *635:63 0.000389457
27 *635:61 0.000264678
28 *635:59 0.000260581
29 *635:48 0.000318495
30 *635:37 0.000671382
31 *635:10 0.000718903
32 *11842:S *637:25 8.23457e-05
33 *11851:S *636:130 8.23457e-05
34 *635:10 *636:130 0.000190715
35 *881:DIODE *635:69 7.00115e-05
36 *882:DIODE *635:100 6.73665e-05
37 *882:DIODE *635:109 8.08153e-06
38 *923:DIODE *635:69 0.000132915
39 *923:DIODE *635:78 8.7152e-06
40 *935:DIODE *635:100 0.000183936
41 *977:DIODE *11827:S 4.66108e-05
42 *977:DIODE *635:63 4.66108e-05
43 *1025:DIODE *11836:S 4.41506e-05
44 *1034:DIODE *11839:S 8.23457e-05
45 *1060:DIODE *635:37 5.83121e-06
46 *11830:A1 *11830:S 2.49909e-05
47 *11836:A1 *11836:S 3.96284e-05
48 *11845:A0 *635:63 8.35106e-05
49 *11845:A1 *635:63 4.66108e-05
50 *11845:A1 *635:69 3.57349e-05
51 *11848:A1 *635:109 4.13249e-05
52 *11848:A1 *635:120 0.000122749
53 *11863:A0 *635:134 0.000238594
54 *11866:A0 *635:124 0.000138705
55 *11866:A1 *635:124 0.00103111
56 *12216:A *635:37 4.41506e-05
57 *123:16 *11839:S 0.000261638
58 *125:8 *11842:S 8.23457e-05
59 *127:8 *635:63 2.10214e-05
60 *129:10 *635:69 2.23485e-05
61 *129:10 *635:78 0.000422405
62 *129:10 *635:89 0.000300372
63 *129:10 *635:100 0.000121975
64 *131:8 *11851:S 8.23457e-05
65 *143:12 *11869:S 4.82919e-05
66 *252:14 *635:109 2.25161e-05
67 *257:11 *635:120 0.000179069
68 *261:11 *635:78 0
69 *261:11 *635:100 0
70 *272:27 *11830:S 0.000118081
71 *275:13 *635:78 0
72 *275:21 *635:63 0.000178675
73 *275:21 *635:69 0.000447502
74 *276:15 *11836:S 0.00013977
75 *277:15 *11839:S 0.000102529
76 *279:19 *635:69 0.000410098
77 *280:11 *635:120 0.00153213
78 *282:41 *11823:S 3.83194e-05
79 *282:43 *11823:S 5.74791e-05
80 *282:45 *11823:S 2.49909e-05
81 *283:58 *635:78 9.8887e-05
82 *284:30 *635:100 4.61595e-05
83 *284:30 *635:109 0.000159269
84 *284:30 *635:120 0.00253982
85 *284:32 *635:100 0.000110683
86 *286:19 *11860:S 0.000495995
87 *286:19 *635:134 7.49327e-05
88 *287:30 *635:124 0.000646235
89 *288:36 *11869:S 0.000136829
90 *293:35 *635:37 0.000117481
91 *293:35 *635:48 7.63834e-05
92 *293:55 *11827:S 7.26348e-05
93 *304:54 *11830:S 1.91597e-05
94 *308:31 *11836:S 3.83194e-05
95 *308:33 *11836:S 2.01504e-05
96 *308:35 *11836:S 2.10214e-05
97 *309:33 *11839:S 0.000107205
98 *309:35 *11839:S 3.57349e-05
99 *309:37 *11839:S 7.14699e-05
100 *313:35 *11851:S 8.247e-05
101 *313:37 *11851:S 1.91597e-05
102 *313:46 *11851:S 0.000118081
103 *369:76 *635:78 0.000132997
104 *369:76 *635:89 0.000124887
105 *369:76 *635:120 0.000255762
106 *417:16 *11823:S 0.000130619
107 *417:16 *635:48 0.000389846
108 *417:16 *635:59 0.000175358
109 *417:68 *635:10 0.000153816
110 *438:76 *635:37 0.000477602
111 *509:68 *11823:S 0.00012366
112 *509:68 *635:37 0.000692278
113 *509:68 *635:48 0.000528539
114 *509:68 *635:59 0.000167548
115 *513:10 *635:10 0.000153139
116 *513:10 *635:37 0.000146747
117 *515:10 *635:10 0.000153139
118 *515:10 *635:37 0.000155056
*RES
1 *11934:X *635:10 7.32
2 *635:10 *11851:S 6.465
3 *635:10 *635:37 20.54
4 *635:37 *11842:S 4.395
5 *635:37 *635:48 6.48
6 *635:48 *11830:S 5.085
7 *635:48 *635:59 2.145
8 *635:59 *635:61 2
9 *635:61 *635:63 3.555
10 *635:63 *635:69 8.39
11 *635:69 *11854:S 3.6
12 *635:69 *635:78 10.305
13 *635:78 *11839:S 8.19
14 *635:78 *635:89 6.225
15 *635:89 *11836:S 8.535
16 *635:89 *635:100 6.48
17 *635:100 *11857:S 3.6
18 *635:100 *635:109 1.89
19 *635:109 *11848:S 3.6
20 *635:109 *635:120 36.275
21 *635:120 *635:124 40.3125
22 *635:124 *635:132 13.6375
23 *635:132 *635:134 3.9
24 *635:134 *11869:S 16.4
25 *635:134 *11863:S 1.6
26 *635:132 *11860:S 6.19
27 *635:124 *11866:S 2.2225
28 *635:63 *11845:S 1.6
29 *635:61 *11827:S 3.1
30 *635:59 *11823:S 7.41
*END

*D_NET *636 0.0685826
*CONN
*I *11875:S I *D sky130_fd_sc_hd__mux2_2
*I *11934:A I *D sky130_fd_sc_hd__clkbuf_8
*I *11878:S I *D sky130_fd_sc_hd__mux2_4
*I *12144:EN I *D CF_SRAM_1024x32
*I *11881:S I *D sky130_fd_sc_hd__mux2_4
*I *11872:S I *D sky130_fd_sc_hd__mux2_2
*I *11833:S I *D sky130_fd_sc_hd__mux2_2
*I *11935:X O *D sky130_fd_sc_hd__buf_6
*CAP
1 *11875:S 0.000183862
2 *11934:A 0
3 *11878:S 0.000436321
4 *12144:EN 0.000320738
5 *11881:S 2.82788e-05
6 *11872:S 0.000229497
7 *11833:S 0.000119042
8 *11935:X 0.000323541
9 *636:130 0.00052363
10 *636:89 0.00577763
11 *636:87 0.00639758
12 *636:72 0.00452803
13 *636:70 0.00449975
14 *636:68 0.00289391
15 *636:47 0.00231583
16 *636:43 0.00105976
17 *636:20 0.00120152
18 *636:8 0.00125546
19 *636:8 *11935:A 4.41506e-05
20 *884:DIODE *636:47 9.21008e-05
21 *884:DIODE *636:68 9.26053e-05
22 *957:DIODE *11872:S 4.41506e-05
23 *964:DIODE *11875:S 8.65905e-05
24 *971:DIODE *636:72 8.65905e-05
25 *1058:DIODE *636:8 4.60123e-05
26 *11833:A1 *11833:S 4.77719e-05
27 *11851:S *636:130 8.23457e-05
28 *11878:A1 *11878:S 0.000218213
29 *11881:A1 *636:72 0.00038879
30 *12144:WLOFF *12144:EN 0.000774328
31 *119:16 *11833:S 4.66108e-05
32 *259:11 *636:89 0
33 *259:23 *636:47 4.85687e-05
34 *261:11 *636:89 0.00081022
35 *272:27 *11833:S 2.01259e-05
36 *275:13 *636:89 0.0116776
37 *275:21 *11833:S 9.47454e-05
38 *277:11 *636:89 0.0102393
39 *281:27 *636:8 4.85657e-05
40 *287:30 *636:72 0.000828096
41 *289:46 *11872:S 4.24661e-05
42 *289:48 *11872:S 3.83194e-05
43 *289:50 *11872:S 3.83194e-05
44 *290:76 *11875:S 8.23457e-05
45 *290:78 *11875:S 8.23457e-05
46 *291:25 *11878:S 2.17185e-05
47 *309:23 *11878:S 1.96634e-05
48 *309:25 *11878:S 3.18249e-05
49 *309:25 *636:43 1.74678e-05
50 *309:27 *636:43 1.74678e-05
51 *309:31 *636:43 2.65814e-06
52 *313:46 *636:8 2.68526e-05
53 *313:46 *636:130 1.43191e-05
54 *313:48 *636:8 4.60061e-05
55 *356:8 *636:89 0
56 *371:70 *636:47 0.000136772
57 *371:70 *636:68 0.00301773
58 *371:70 *636:87 0.000112263
59 *395:56 *636:130 2.80395e-05
60 *395:58 *636:20 0.0009248
61 *400:80 *636:20 0.000926453
62 *415:58 *636:130 0.000157595
63 *417:16 *636:47 0.000175639
64 *417:68 *11875:S 8.40269e-05
65 *417:68 *636:130 5.26385e-05
66 *438:76 *11833:S 9.14049e-05
67 *438:76 *636:20 0.00039388
68 *438:76 *636:43 0.00120292
69 *438:76 *636:130 0.000159957
70 *471:104 *636:20 2.24445e-05
71 *509:68 *636:20 0.00039388
72 *509:68 *636:43 0.00121123
73 *509:68 *636:47 2.92017e-05
74 *509:68 *636:68 0.000648812
75 *509:68 *636:87 0
76 *524:20 *636:20 0.000228627
77 *635:10 *636:130 0.000190715
*RES
1 *11935:X *636:8 6.205
2 *636:8 *636:20 18.8393
3 *636:20 *11833:S 9.97
4 *636:20 *636:43 18.125
5 *636:43 *636:47 6.185
6 *636:47 *11872:S 6.825
7 *636:47 *636:68 47.205
8 *636:68 *636:70 2
9 *636:70 *636:72 61.17
10 *636:72 *11881:S 1.96
11 *636:68 *636:87 16.18
12 *636:87 *636:89 181.92
13 *636:89 *12144:EN 9.55625
14 *636:43 *11878:S 7.735
15 *636:8 *636:130 10.855
16 *636:130 *11934:A 1.6
17 *636:130 *11875:S 4.825
*END

*D_NET *637 0.0613195
*CONN
*I *11917:S I *D sky130_fd_sc_hd__mux2_4
*I *11914:S I *D sky130_fd_sc_hd__mux2_4
*I *11911:S I *D sky130_fd_sc_hd__mux2_4
*I *11908:S I *D sky130_fd_sc_hd__mux2_4
*I *11905:S I *D sky130_fd_sc_hd__mux2_4
*I *11902:S I *D sky130_fd_sc_hd__mux2_4
*I *11899:S I *D sky130_fd_sc_hd__mux2_4
*I *11896:S I *D sky130_fd_sc_hd__mux2_4
*I *11893:S I *D sky130_fd_sc_hd__mux2_4
*I *11890:S I *D sky130_fd_sc_hd__mux2_4
*I *11887:S I *D sky130_fd_sc_hd__mux2_4
*I *11884:S I *D sky130_fd_sc_hd__mux2_4
*I *11935:A I *D sky130_fd_sc_hd__buf_6
*I *11936:X O *D sky130_fd_sc_hd__buf_8
*CAP
1 *11917:S 0.00070954
2 *11914:S 0
3 *11911:S 0
4 *11908:S 0
5 *11905:S 0
6 *11902:S 3.58421e-05
7 *11899:S 0
8 *11896:S 0
9 *11893:S 0
10 *11890:S 2.08101e-05
11 *11887:S 1.19549e-05
12 *11884:S 0.000119227
13 *11935:A 0.000235863
14 *11936:X 0
15 *637:185 0.00103737
16 *637:172 0.000718714
17 *637:159 0.00090014
18 *637:146 0.00124412
19 *637:133 0.00128931
20 *637:122 0.00107412
21 *637:109 0.000828771
22 *637:96 0.000410389
23 *637:85 0.000649007
24 *637:64 0.00143116
25 *637:39 0.00126667
26 *637:31 0.00483374
27 *637:29 0.00461446
28 *637:27 0.00322173
29 *637:25 0.00427543
30 *637:4 0.00128957
31 *645:DIODE *637:122 0.000176442
32 *890:DIODE *637:39 6.00413e-05
33 *987:DIODE *637:85 4.66108e-05
34 *989:DIODE *637:96 0.000163199
35 *991:DIODE *637:109 0.000162311
36 *11842:A1 *637:25 3.57349e-05
37 *11842:S *637:25 8.23457e-05
38 *11884:A1 *11884:S 2.95082e-05
39 *11887:A1 *11887:S 1.85674e-05
40 *11887:A1 *637:64 0.000106752
41 *11890:A0 *637:85 8.58063e-05
42 *11896:A0 *637:109 7.66083e-05
43 *11896:A1 *637:109 2.84447e-05
44 *11899:A0 *637:122 2.59926e-05
45 *11899:A0 *637:133 0.000115146
46 *11899:A1 *637:122 0.00018955
47 *11902:A0 *637:133 5.30673e-05
48 *11905:A0 *637:146 5.06989e-05
49 *11908:A0 *637:159 8.64421e-05
50 *11911:A0 *637:172 8.65961e-05
51 *11914:A0 *637:185 8.65961e-05
52 *11936:A *637:25 0.000153816
53 *11985:A *637:25 0
54 *12087:A *637:133 0.000157245
55 *3:23 *637:27 0
56 *3:25 *637:31 0.00682874
57 *3:41 *11884:S 4.82919e-05
58 *3:41 *637:64 4.82919e-05
59 *3:41 *637:85 0.000938708
60 *125:8 *637:25 0.000644357
61 *163:16 *637:133 0.00149337
62 *177:16 *11884:S 2.75229e-05
63 *177:16 *11887:S 9.53428e-06
64 *177:16 *637:64 2.75229e-05
65 *177:16 *637:85 0.000933933
66 *177:18 *637:31 0.000184054
67 *177:22 *637:27 0
68 *185:22 *637:85 4.43682e-05
69 *185:22 *637:96 0.000208351
70 *185:22 *637:109 0.0011962
71 *185:22 *637:122 0.000151179
72 *203:11 *11935:A 0.000898709
73 *207:15 *637:27 0.00294471
74 *209:13 *637:27 0.000435006
75 *210:13 *637:27 0.000265508
76 *262:19 *637:39 1.00889e-05
77 *263:23 *637:64 0.000190712
78 *278:23 *637:25 0.000254389
79 *281:27 *11935:A 4.60061e-05
80 *286:15 *637:85 0.00023389
81 *286:15 *637:96 0.000698569
82 *286:15 *637:109 0.000491563
83 *286:15 *637:122 0.00111875
84 *286:15 *637:133 0.000876993
85 *287:30 *637:31 0.00104221
86 *287:30 *637:64 0.000214198
87 *296:31 *637:85 2.84864e-05
88 *297:15 *11917:S 0.00140689
89 *297:15 *637:133 0.000376458
90 *297:15 *637:146 0.000527165
91 *297:15 *637:159 0.00106477
92 *297:15 *637:172 0.000808648
93 *297:15 *637:185 0.000599202
94 *302:23 *637:172 0.000139722
95 *306:33 *11917:S 0
96 *306:35 *11917:S 0
97 *310:34 *637:25 0.000272114
98 *310:36 *637:25 3.83194e-05
99 *310:38 *637:25 3.83194e-05
100 *310:40 *637:25 0.000118801
101 *310:42 *637:25 4.01811e-05
102 *506:12 *11935:A 0.000386059
103 *506:60 *11935:A 0.000509317
104 *555:16 *637:122 0.000119756
105 *636:8 *11935:A 4.41506e-05
*RES
1 *11936:X *637:4 1.6
2 *637:4 *11935:A 16.7
3 *637:4 *637:25 22.235
4 *637:25 *637:27 70.74
5 *637:27 *637:29 2
6 *637:29 *637:31 65.31
7 *637:31 *637:39 7.3
8 *637:39 *11884:S 7.79
9 *637:39 *637:64 18.355
10 *637:64 *11887:S 1.96
11 *637:64 *637:85 18.715
12 *637:85 *11890:S 1.96
13 *637:85 *637:96 6.675
14 *637:96 *11893:S 1.6
15 *637:96 *637:109 13.005
16 *637:109 *11896:S 1.6
17 *637:109 *637:122 16.11
18 *637:122 *11899:S 1.6
19 *637:122 *637:133 20.145
20 *637:133 *11902:S 2.215
21 *637:133 *637:146 12.9
22 *637:146 *11905:S 1.6
23 *637:146 *637:159 11.97
24 *637:159 *11908:S 1.6
25 *637:159 *637:172 9.555
26 *637:172 *11911:S 1.6
27 *637:172 *637:185 7.83
28 *637:185 *11914:S 1.6
29 *637:185 *11917:S 20.87
*END

*D_NET *638 0.13413
*CONN
*I *12144:BEN[31] I *D CF_SRAM_1024x32
*I *12144:BEN[30] I *D CF_SRAM_1024x32
*I *12144:BEN[29] I *D CF_SRAM_1024x32
*I *12144:BEN[28] I *D CF_SRAM_1024x32
*I *12144:BEN[27] I *D CF_SRAM_1024x32
*I *12144:BEN[26] I *D CF_SRAM_1024x32
*I *12144:BEN[25] I *D CF_SRAM_1024x32
*I *12154:BEN[31] I *D CF_SRAM_1024x32
*I *12154:BEN[30] I *D CF_SRAM_1024x32
*I *12154:BEN[29] I *D CF_SRAM_1024x32
*I *12154:BEN[28] I *D CF_SRAM_1024x32
*I *12154:BEN[27] I *D CF_SRAM_1024x32
*I *12154:BEN[26] I *D CF_SRAM_1024x32
*I *12154:BEN[25] I *D CF_SRAM_1024x32
*I *12154:BEN[24] I *D CF_SRAM_1024x32
*I *12144:BEN[24] I *D CF_SRAM_1024x32
*I *12124:BEN[31] I *D CF_SRAM_1024x32
*I *12124:BEN[30] I *D CF_SRAM_1024x32
*I *12124:BEN[29] I *D CF_SRAM_1024x32
*I *12124:BEN[28] I *D CF_SRAM_1024x32
*I *12124:BEN[27] I *D CF_SRAM_1024x32
*I *12124:BEN[26] I *D CF_SRAM_1024x32
*I *12124:BEN[25] I *D CF_SRAM_1024x32
*I *12124:BEN[24] I *D CF_SRAM_1024x32
*I *12216:X O *D sky130_fd_sc_hd__clkbuf_16
*CAP
1 *12144:BEN[31] 0.000634945
2 *12144:BEN[30] 0.000135764
3 *12144:BEN[29] 0.000134897
4 *12144:BEN[28] 9.05097e-05
5 *12144:BEN[27] 0.000136198
6 *12144:BEN[26] 9.92257e-05
7 *12144:BEN[25] 0.000211959
8 *12154:BEN[31] 0.000520844
9 *12154:BEN[30] 0.00107853
10 *12154:BEN[29] 0.000179742
11 *12154:BEN[28] 0.000110886
12 *12154:BEN[27] 0.000125022
13 *12154:BEN[26] 0.000149373
14 *12154:BEN[25] 0.000121962
15 *12154:BEN[24] 0.000196925
16 *12144:BEN[24] 0.000137726
17 *12124:BEN[31] 0.000255914
18 *12124:BEN[30] 0.000240919
19 *12124:BEN[29] 0.000135772
20 *12124:BEN[28] 0.000103378
21 *12124:BEN[27] 0.000136483
22 *12124:BEN[26] 0.000204329
23 *12124:BEN[25] 0.000115703
24 *12124:BEN[24] 0.00106491
25 *12216:X 0.0006505
26 *638:361 0.00128544
27 *638:349 0.00110618
28 *638:337 0.00112313
29 *638:325 0.00124178
30 *638:309 0.00124639
31 *638:281 0.00131192
32 *638:245 0.00110003
33 *638:240 0
34 *638:233 0.000900537
35 *638:228 0
36 *638:221 0.000892922
37 *638:209 0.000814975
38 *638:196 0.000724068
39 *638:184 0.0185706
40 *638:160 0.018303
41 *638:156 0.0133673
42 *638:136 0.0137201
43 *638:116 0.00163307
44 *638:98 0.00152529
45 *638:80 0.00134012
46 *638:59 0.00116078
47 *638:39 0.0011295
48 *638:19 0.00102215
49 *638:19 *639:134 0.000365301
50 *638:39 *639:134 0.000779901
51 *638:59 *639:134 0.000666847
52 *638:80 *639:134 0.00077852
53 *638:98 *639:134 0.000785268
54 *638:116 *639:134 0.000912243
55 *638:136 *639:134 0.000807328
56 *638:156 *639:134 0.0193649
57 *638:156 *639:276 0.000797192
58 *638:156 *639:296 0.000721094
59 *638:156 *639:316 0.000770173
60 *638:156 *639:336 0.000748113
61 *638:156 *639:362 0.000944429
62 *12144:BEN[0] *638:156 0.000288434
63 *12144:DI[10] *638:39 0
64 *12144:DI[10] *638:59 0
65 *12144:DI[10] *638:80 0
66 *12144:DI[10] *638:98 0
67 *12144:DI[10] *638:116 0
68 *12144:DI[10] *638:136 0
69 *12144:DI[10] *638:156 0
70 *12144:DI[27] *12144:BEN[27] 0
71 *12144:DI[27] *638:221 6.18047e-05
72 *12144:DI[27] *638:325 1.79536e-05
73 *12144:DI[28] *638:233 1.02147e-05
74 *12144:DI[28] *638:337 1.79536e-05
75 *12144:DI[24] *638:160 4.3606e-06
76 *12144:DI[24] *638:184 0.000119306
77 *12144:DI[29] *12144:BEN[29] 0
78 *12144:DI[29] *638:349 1.79536e-05
79 *12144:DI[25] *12144:BEN[25] 6.32637e-06
80 *12144:DI[25] *638:184 0
81 *12144:DI[30] *12144:BEN[30] 0
82 *12144:DI[30] *638:361 1.79536e-05
83 *12144:DI[26] *638:309 4.3606e-06
84 *12144:DI[31] *12144:BEN[31] 1.79536e-05
85 *12154:DI[24] *638:184 0
86 *12154:DI[29] *12154:BEN[29] 0
87 *12154:DI[29] *638:245 5.80184e-06
88 *12154:DI[30] *12154:BEN[30] 1.38716e-05
89 *12154:DI[26] *638:209 1.79483e-05
90 *12154:DI[31] *12154:BEN[31] 3.95441e-05
91 *3:23 *12124:BEN[31] 0
92 *125:8 *12124:BEN[24] 0
93 *133:14 *638:19 0.000831367
94 *133:14 *638:39 1.79536e-05
95 *135:34 *12124:BEN[28] 8.1472e-05
96 *204:21 *638:39 4.70558e-05
97 *205:9 *12124:BEN[26] 9.18456e-06
98 *206:9 *12124:BEN[27] 0
99 *210:11 *12124:BEN[30] 0
100 *255:11 *638:156 0.00112864
101 *271:11 *638:325 0
102 *271:11 *638:337 0
103 *271:11 *638:349 0
104 *272:11 *638:156 0.000635939
105 *276:11 *638:156 0.00138448
106 *278:11 *638:156 0.00117384
107 *279:11 *638:156 0.00165741
108 *281:11 *12124:BEN[27] 1.79536e-05
109 *281:11 *12124:BEN[28] 1.73848e-05
110 *281:11 *12124:BEN[29] 1.6247e-05
111 *281:11 *12124:BEN[30] 4.01548e-05
112 *281:11 *12124:BEN[31] 8.14501e-05
113 *281:11 *638:156 0.00178554
114 *281:27 *12124:BEN[26] 8.41703e-06
115 *299:15 *12154:BEN[24] 0
116 *299:15 *638:184 0
117 *303:23 *638:245 0.000136455
118 *305:15 *12154:BEN[30] 0.000177544
119 *306:23 *12154:BEN[31] 0.000329293
120 *480:66 *638:184 8.38966e-05
121 *480:66 *638:196 0.000612532
122 *480:66 *638:209 0.000723358
123 *480:66 *638:221 0.00032202
124 *484:71 *638:221 0.000139658
125 *484:71 *638:233 0.000209138
126 *557:437 *638:156 0.000268278
127 *557:449 *638:156 0.000406587
128 *557:461 *638:156 0.000382956
129 *560:174 *638:156 0.000268278
130 *560:186 *638:156 0.000382956
131 *560:198 *638:156 0.000382956
132 *560:210 *638:156 0.000244647
133 *560:222 *638:156 0.000221017
134 *560:234 *638:156 0.000309632
*RES
1 *12216:X *12124:BEN[24] 11.185
2 *12124:BEN[24] *638:19 12.08
3 *638:19 *12124:BEN[25] 3.905
4 *638:19 *638:39 2.77403
5 *638:39 *12124:BEN[26] 5.2479
6 *638:39 *638:59 1.24387
7 *638:59 *12124:BEN[27] 4.1529
8 *638:59 *638:80 1.41613
9 *638:80 *12124:BEN[28] 4.0929
10 *638:80 *638:98 1.41613
11 *638:98 *12124:BEN[29] 4.0779
12 *638:98 *638:116 1.67453
13 *638:116 *12124:BEN[30] 5.6979
14 *638:116 *638:136 1.50227
15 *638:136 *12124:BEN[31] 6.1929
16 *638:136 *638:156 45.6025
17 *638:156 *638:160 0.6254
18 *638:160 *12144:BEN[24] 4.6675
19 *638:160 *638:184 46.2995
20 *638:184 *12154:BEN[24] 4.925
21 *638:184 *638:196 7.245
22 *638:196 *12154:BEN[25] 3.83
23 *638:196 *638:209 8.52
24 *638:209 *12154:BEN[26] 4.13
25 *638:209 *638:221 8.01
26 *638:221 *12154:BEN[27] 3.83
27 *12154:BEN[27] *638:228 0.147
28 *638:221 *638:233 8.265
29 *638:233 *12154:BEN[28] 3.83
30 *12154:BEN[28] *638:240 0.1225
31 *638:233 *638:245 7.245
32 *638:245 *12154:BEN[29] 4.955
33 *638:245 *12154:BEN[30] 13.235
34 *12154:BEN[30] *12154:BEN[31] 14.455
35 *638:156 *638:281 1.33
36 *638:281 *12144:BEN[25] 5.4729
37 *638:281 *638:309 2.86017
38 *638:309 *12144:BEN[26] 3.62
39 *638:309 *638:325 8.565
40 *638:325 *12144:BEN[27] 4.235
41 *638:325 *638:337 9.03
42 *638:337 *12144:BEN[28] 3.485
43 *638:337 *638:349 7.5
44 *638:349 *12144:BEN[29] 4.265
45 *638:349 *638:361 8.265
46 *638:361 *12144:BEN[30] 4.28
47 *638:361 *12144:BEN[31] 12.56
*END

*D_NET *639 0.135604
*CONN
*I *12144:BEN[23] I *D CF_SRAM_1024x32
*I *12144:BEN[22] I *D CF_SRAM_1024x32
*I *12144:BEN[21] I *D CF_SRAM_1024x32
*I *12144:BEN[20] I *D CF_SRAM_1024x32
*I *12144:BEN[19] I *D CF_SRAM_1024x32
*I *12144:BEN[18] I *D CF_SRAM_1024x32
*I *12144:BEN[17] I *D CF_SRAM_1024x32
*I *12154:BEN[23] I *D CF_SRAM_1024x32
*I *12154:BEN[22] I *D CF_SRAM_1024x32
*I *12154:BEN[21] I *D CF_SRAM_1024x32
*I *12154:BEN[20] I *D CF_SRAM_1024x32
*I *12154:BEN[19] I *D CF_SRAM_1024x32
*I *12154:BEN[18] I *D CF_SRAM_1024x32
*I *12154:BEN[17] I *D CF_SRAM_1024x32
*I *12154:BEN[16] I *D CF_SRAM_1024x32
*I *12144:BEN[16] I *D CF_SRAM_1024x32
*I *12124:BEN[23] I *D CF_SRAM_1024x32
*I *12124:BEN[22] I *D CF_SRAM_1024x32
*I *12124:BEN[21] I *D CF_SRAM_1024x32
*I *12124:BEN[20] I *D CF_SRAM_1024x32
*I *12124:BEN[19] I *D CF_SRAM_1024x32
*I *12124:BEN[18] I *D CF_SRAM_1024x32
*I *12124:BEN[17] I *D CF_SRAM_1024x32
*I *12124:BEN[16] I *D CF_SRAM_1024x32
*I *12217:X O *D sky130_fd_sc_hd__clkbuf_16
*CAP
1 *12144:BEN[23] 0.000512464
2 *12144:BEN[22] 0.000135868
3 *12144:BEN[21] 6.65583e-05
4 *12144:BEN[20] 0.00027021
5 *12144:BEN[19] 0.00026358
6 *12144:BEN[18] 0.000264471
7 *12144:BEN[17] 0.000211318
8 *12154:BEN[23] 0.000504049
9 *12154:BEN[22] 0.000181767
10 *12154:BEN[21] 8.19282e-05
11 *12154:BEN[20] 0.000177047
12 *12154:BEN[19] 0.000152065
13 *12154:BEN[18] 0.000182965
14 *12154:BEN[17] 0.000138218
15 *12154:BEN[16] 0.000189823
16 *12144:BEN[16] 8.25504e-05
17 *12124:BEN[23] 0.000254644
18 *12124:BEN[22] 0.000302269
19 *12124:BEN[21] 8.69326e-05
20 *12124:BEN[20] 0.000159356
21 *12124:BEN[19] 0.000158459
22 *12124:BEN[18] 0.000167886
23 *12124:BEN[17] 0.000107558
24 *12124:BEN[16] 0.000150838
25 *12217:X 0.000608307
26 *639:379 0.00125394
27 *639:362 0.00119129
28 *639:336 0.0010803
29 *639:316 0.000913682
30 *639:296 0.000972145
31 *639:276 0.000872084
32 *639:252 0.000978108
33 *639:234 0.000608578
34 *639:218 0.00056215
35 *639:206 0.000496609
36 *639:194 0.000699522
37 *639:174 0.000659926
38 *639:162 0.0182755
39 *639:138 0.0181006
40 *639:134 0.00791683
41 *639:114 0.00817413
42 *639:94 0.00129636
43 *639:74 0.000823743
44 *639:58 0.000494238
45 *639:46 0.000450268
46 *639:34 0.000509404
47 *639:22 0.000488797
48 *639:6 0.00094476
49 *12124:CLKin *12124:BEN[17] 9.2741e-05
50 *12124:TM *12124:BEN[16] 4.91026e-05
51 *12124:TM *639:6 1.35615e-05
52 *12124:DI[20] *639:58 1.79483e-05
53 *12144:CLKin *12144:BEN[17] 4.03363e-05
54 *12144:TM *12144:BEN[16] 0
55 *12144:DI[19] *12144:BEN[19] 0
56 *12144:DI[18] *12144:BEN[18] 0
57 *12144:DI[20] *12144:BEN[20] 0
58 *12154:WLBI *12154:BEN[16] 6.56208e-07
59 *12154:CLKin *12154:BEN[17] 1.43409e-05
60 *12154:CLKin *639:174 3.97748e-05
61 *12154:TM *12154:BEN[16] 4.97072e-05
62 *12154:DI[16] *639:162 0
63 *12154:DI[22] *639:252 3.08892e-05
64 *123:18 *12124:BEN[22] 8.41703e-06
65 *123:18 *639:22 0.00034027
66 *123:18 *639:34 0.000887161
67 *123:18 *639:46 0.000738551
68 *123:18 *639:58 0.000738551
69 *123:18 *639:74 0.000577331
70 *123:18 *639:94 8.41703e-06
71 *133:14 *12124:BEN[23] 1.79536e-05
72 *133:14 *639:134 0.00017881
73 *133:16 *12124:BEN[22] 1.79536e-05
74 *133:16 *639:22 0.000402658
75 *133:16 *639:34 0.000418032
76 *133:16 *639:46 0.000398189
77 *133:16 *639:58 0.000411633
78 *133:16 *639:74 0.000377577
79 *133:16 *639:94 0.000132755
80 *194:20 *639:6 8.33308e-05
81 *194:20 *639:22 0.00015235
82 *195:23 *639:34 0.000106444
83 *196:17 *12124:BEN[18] 0
84 *198:9 *12124:BEN[19] 1.8644e-05
85 *199:21 *12124:BEN[20] 1.48249e-05
86 *199:21 *639:74 1.79483e-05
87 *202:13 *12124:BEN[23] 0
88 *204:21 *639:94 0
89 *204:21 *639:114 0
90 *204:21 *639:134 0
91 *264:9 *12144:BEN[21] 0
92 *265:9 *12144:BEN[22] 0
93 *271:11 *12144:BEN[23] 0
94 *271:11 *639:379 0
95 *290:21 *639:162 0.00195938
96 *290:21 *639:174 0.000126694
97 *292:19 *639:206 0.000407304
98 *294:19 *639:218 0.000206834
99 *295:23 *639:234 1.79483e-05
100 *296:21 *639:252 1.7635e-05
101 *426:36 *639:22 1.79536e-05
102 *426:78 *639:138 0
103 *426:78 *639:162 0
104 *426:78 *639:174 1.92979e-05
105 *432:38 *639:34 4.01548e-05
106 *432:54 *639:162 4.5636e-05
107 *432:54 *639:174 0.000346531
108 *432:54 *639:194 0.000225378
109 *432:78 *12144:BEN[18] 4.3606e-06
110 *443:44 *639:46 4.01548e-05
111 *443:80 *12144:BEN[19] 6.30563e-06
112 *443:80 *639:206 8.38995e-05
113 *449:88 *12144:BEN[20] 8.61788e-06
114 *449:88 *639:218 8.38995e-05
115 *454:30 *639:74 4.01548e-05
116 *454:76 *639:234 8.38995e-05
117 *458:70 *639:252 1.79536e-05
118 *458:70 *639:379 1.79483e-05
119 *462:88 *12144:BEN[23] 1.79536e-05
120 *480:58 *639:174 0.000232744
121 *480:58 *639:194 0.000133176
122 *480:64 *639:194 0.000332717
123 *480:64 *639:206 0.000770119
124 *480:64 *639:218 0.000644976
125 *480:64 *639:234 0.000548895
126 *480:64 *639:252 0.000192943
127 *480:66 *12154:BEN[23] 0.000673585
128 *480:66 *639:252 0.000304626
129 *484:55 *639:206 0.000161865
130 *484:55 *639:218 0.000200073
131 *484:55 *639:234 0.000686277
132 *484:55 *639:252 0.000411415
133 *560:158 *639:94 0.00082898
134 *560:158 *639:114 0.000834347
135 *560:158 *639:134 0.0167992
136 *638:19 *639:134 0.000365301
137 *638:39 *639:134 0.000779901
138 *638:59 *639:134 0.000666847
139 *638:80 *639:134 0.00077852
140 *638:98 *639:134 0.000785268
141 *638:116 *639:134 0.000912243
142 *638:136 *639:134 0.000807328
143 *638:156 *639:134 0.0193649
144 *638:156 *639:276 0.000797192
145 *638:156 *639:296 0.000721094
146 *638:156 *639:316 0.000770173
147 *638:156 *639:336 0.000748113
148 *638:156 *639:362 0.000944429
*RES
1 *12217:X *639:6 9.64
2 *639:6 *12124:BEN[16] 2.64
3 *639:6 *639:22 8.78
4 *639:22 *12124:BEN[17] 4.145
5 *639:22 *639:34 10.05
6 *639:34 *12124:BEN[18] 4.7
7 *639:34 *639:46 8.265
8 *639:46 *12124:BEN[19] 4.685
9 *639:46 *639:58 8.265
10 *639:58 *12124:BEN[20] 4.67
11 *639:58 *639:74 7.8
12 *639:74 *12124:BEN[21] 3.29
13 *639:74 *639:94 3.03497
14 *639:94 *12124:BEN[22] 5.3177
15 *639:94 *639:114 1.50227
16 *639:114 *12124:BEN[23] 5.40943
17 *639:114 *639:134 45.8609
18 *639:134 *639:138 0.741933
19 *639:138 *12144:BEN[16] 3.6925
20 *639:138 *639:162 46.2134
21 *639:162 *12154:BEN[16] 5.045
22 *639:162 *639:174 7.245
23 *639:174 *12154:BEN[17] 4.01
24 *639:174 *639:194 10.34
25 *639:194 *12154:BEN[18] 2.7
26 *639:194 *639:206 11.03
27 *639:206 *12154:BEN[19] 4.295
28 *639:206 *639:218 7.5
29 *639:218 *12154:BEN[20] 4.73
30 *639:218 *639:234 10.0275
31 *639:234 *12154:BEN[21] 3.0875
32 *639:234 *639:252 12.7225
33 *639:252 *12154:BEN[22] 4.685
34 *639:252 *12154:BEN[23] 12.62
35 *639:134 *639:276 1.41613
36 *639:276 *12144:BEN[17] 4.44943
37 *639:276 *639:296 1.33
38 *639:296 *12144:BEN[18] 5.31943
39 *639:296 *639:316 1.41613
40 *639:316 *12144:BEN[19] 5.33443
41 *639:316 *639:336 1.33
42 *639:336 *12144:BEN[20] 5.51443
43 *639:336 *639:362 2.91647
44 *639:362 *12144:BEN[21] 3.0275
45 *639:362 *639:379 9.6075
46 *639:379 *12144:BEN[22] 4.265
47 *639:379 *12144:BEN[23] 10.4
*END
