*SPEF "ieee 1481-1999"
*DESIGN "CF_SRAM_4096x32"
*DATE "19:58:19 Sunday September 20, 2026"
*VENDOR "The OpenROAD Project"
*PROGRAM "OpenROAD"
*VERSION "edf00dff99f6c40d67a30c0e22a8191c5d2ed9d6"
*DESIGN_FLOW "NAME_SCOPE LOCAL" "PIN_CAP NONE"
*DIVIDER /
*DELIMITER :
*BUS_DELIMITER []
*T_UNIT 1 NS
*C_UNIT 1 PF
*R_UNIT 1 OHM
*L_UNIT 1 HENRY

*NAME_MAP
*3 wb_clk_i
*4 wb_rst_i
*5 wbs_ack_o
*6 wbs_adr_i[0]
*7 wbs_adr_i[10]
*8 wbs_adr_i[11]
*9 wbs_adr_i[12]
*10 wbs_adr_i[13]
*11 wbs_adr_i[14]
*12 wbs_adr_i[15]
*13 wbs_adr_i[16]
*14 wbs_adr_i[17]
*15 wbs_adr_i[18]
*16 wbs_adr_i[19]
*17 wbs_adr_i[1]
*18 wbs_adr_i[20]
*19 wbs_adr_i[21]
*20 wbs_adr_i[22]
*21 wbs_adr_i[23]
*22 wbs_adr_i[24]
*23 wbs_adr_i[25]
*24 wbs_adr_i[26]
*25 wbs_adr_i[27]
*26 wbs_adr_i[28]
*27 wbs_adr_i[29]
*28 wbs_adr_i[2]
*29 wbs_adr_i[30]
*30 wbs_adr_i[31]
*31 wbs_adr_i[3]
*32 wbs_adr_i[4]
*33 wbs_adr_i[5]
*34 wbs_adr_i[6]
*35 wbs_adr_i[7]
*36 wbs_adr_i[8]
*37 wbs_adr_i[9]
*38 wbs_cyc_i
*39 wbs_dat_i[0]
*40 wbs_dat_i[10]
*41 wbs_dat_i[11]
*42 wbs_dat_i[12]
*43 wbs_dat_i[13]
*44 wbs_dat_i[14]
*45 wbs_dat_i[15]
*46 wbs_dat_i[16]
*47 wbs_dat_i[17]
*48 wbs_dat_i[18]
*49 wbs_dat_i[19]
*50 wbs_dat_i[1]
*51 wbs_dat_i[20]
*52 wbs_dat_i[21]
*53 wbs_dat_i[22]
*54 wbs_dat_i[23]
*55 wbs_dat_i[24]
*56 wbs_dat_i[25]
*57 wbs_dat_i[26]
*58 wbs_dat_i[27]
*59 wbs_dat_i[28]
*60 wbs_dat_i[29]
*61 wbs_dat_i[2]
*62 wbs_dat_i[30]
*63 wbs_dat_i[31]
*64 wbs_dat_i[3]
*65 wbs_dat_i[4]
*66 wbs_dat_i[5]
*67 wbs_dat_i[6]
*68 wbs_dat_i[7]
*69 wbs_dat_i[8]
*70 wbs_dat_i[9]
*71 wbs_dat_o[0]
*72 wbs_dat_o[10]
*73 wbs_dat_o[11]
*74 wbs_dat_o[12]
*75 wbs_dat_o[13]
*76 wbs_dat_o[14]
*77 wbs_dat_o[15]
*78 wbs_dat_o[16]
*79 wbs_dat_o[17]
*80 wbs_dat_o[18]
*81 wbs_dat_o[19]
*82 wbs_dat_o[1]
*83 wbs_dat_o[20]
*84 wbs_dat_o[21]
*85 wbs_dat_o[22]
*86 wbs_dat_o[23]
*87 wbs_dat_o[24]
*88 wbs_dat_o[25]
*89 wbs_dat_o[26]
*90 wbs_dat_o[27]
*91 wbs_dat_o[28]
*92 wbs_dat_o[29]
*93 wbs_dat_o[2]
*94 wbs_dat_o[30]
*95 wbs_dat_o[31]
*96 wbs_dat_o[3]
*97 wbs_dat_o[4]
*98 wbs_dat_o[5]
*99 wbs_dat_o[6]
*100 wbs_dat_o[7]
*101 wbs_dat_o[8]
*102 wbs_dat_o[9]
*103 wbs_sel_i[0]
*104 wbs_sel_i[1]
*105 wbs_sel_i[2]
*106 wbs_sel_i[3]
*107 wbs_stb_i
*108 wbs_we_i
*109 _000_
*110 _001_
*111 _002_
*112 _003_
*113 _004_
*114 _005_
*115 _006_
*116 _007_
*117 _008_
*118 _009_
*119 _010_
*120 _011_
*121 _012_
*122 _013_
*123 _014_
*124 _015_
*125 _016_
*126 _017_
*127 _018_
*128 _019_
*129 _020_
*130 _021_
*131 _022_
*132 _023_
*133 _024_
*134 _025_
*135 _026_
*136 _027_
*137 _028_
*138 _029_
*139 _030_
*140 _031_
*141 _032_
*142 _033_
*143 _034_
*144 _035_
*145 _036_
*146 _037_
*147 _038_
*148 _039_
*149 _040_
*150 _041_
*151 _042_
*152 _043_
*153 _044_
*154 _045_
*155 _046_
*156 _047_
*157 _048_
*158 _049_
*159 _050_
*160 _051_
*161 _052_
*162 _053_
*163 _054_
*164 _055_
*165 _056_
*166 _057_
*167 _058_
*168 _059_
*169 _060_
*170 _061_
*171 _062_
*172 _063_
*173 _064_
*174 _065_
*175 _066_
*176 _067_
*177 clknet_0_wb_clk_i
*178 clknet_1_0__leaf_wb_clk_i
*179 clknet_1_1__leaf_wb_clk_i
*180 i_ram_wb_controller\.EN
*181 i_ram_wb_controller\.R_WB
*182 i_sram\.sram_cs\[0\]
*183 i_sram\.sram_cs\[1\]
*184 i_sram\.sram_cs\[2\]
*185 i_sram\.sram_cs\[3\]
*186 i_sram\.sram_do_0\[0\]
*187 i_sram\.sram_do_0\[10\]
*188 i_sram\.sram_do_0\[11\]
*189 i_sram\.sram_do_0\[12\]
*190 i_sram\.sram_do_0\[13\]
*191 i_sram\.sram_do_0\[14\]
*192 i_sram\.sram_do_0\[15\]
*193 i_sram\.sram_do_0\[16\]
*194 i_sram\.sram_do_0\[17\]
*195 i_sram\.sram_do_0\[18\]
*196 i_sram\.sram_do_0\[19\]
*197 i_sram\.sram_do_0\[1\]
*198 i_sram\.sram_do_0\[20\]
*199 i_sram\.sram_do_0\[21\]
*200 i_sram\.sram_do_0\[22\]
*201 i_sram\.sram_do_0\[23\]
*202 i_sram\.sram_do_0\[24\]
*203 i_sram\.sram_do_0\[25\]
*204 i_sram\.sram_do_0\[26\]
*205 i_sram\.sram_do_0\[27\]
*206 i_sram\.sram_do_0\[28\]
*207 i_sram\.sram_do_0\[29\]
*208 i_sram\.sram_do_0\[2\]
*209 i_sram\.sram_do_0\[30\]
*210 i_sram\.sram_do_0\[31\]
*211 i_sram\.sram_do_0\[3\]
*212 i_sram\.sram_do_0\[4\]
*213 i_sram\.sram_do_0\[5\]
*214 i_sram\.sram_do_0\[6\]
*215 i_sram\.sram_do_0\[7\]
*216 i_sram\.sram_do_0\[8\]
*217 i_sram\.sram_do_0\[9\]
*218 i_sram\.sram_do_1\[0\]
*219 i_sram\.sram_do_1\[10\]
*220 i_sram\.sram_do_1\[11\]
*221 i_sram\.sram_do_1\[12\]
*222 i_sram\.sram_do_1\[13\]
*223 i_sram\.sram_do_1\[14\]
*224 i_sram\.sram_do_1\[15\]
*225 i_sram\.sram_do_1\[16\]
*226 i_sram\.sram_do_1\[17\]
*227 i_sram\.sram_do_1\[18\]
*228 i_sram\.sram_do_1\[19\]
*229 i_sram\.sram_do_1\[1\]
*230 i_sram\.sram_do_1\[20\]
*231 i_sram\.sram_do_1\[21\]
*232 i_sram\.sram_do_1\[22\]
*233 i_sram\.sram_do_1\[23\]
*234 i_sram\.sram_do_1\[24\]
*235 i_sram\.sram_do_1\[25\]
*236 i_sram\.sram_do_1\[26\]
*237 i_sram\.sram_do_1\[27\]
*238 i_sram\.sram_do_1\[28\]
*239 i_sram\.sram_do_1\[29\]
*240 i_sram\.sram_do_1\[2\]
*241 i_sram\.sram_do_1\[30\]
*242 i_sram\.sram_do_1\[31\]
*243 i_sram\.sram_do_1\[3\]
*244 i_sram\.sram_do_1\[4\]
*245 i_sram\.sram_do_1\[5\]
*246 i_sram\.sram_do_1\[6\]
*247 i_sram\.sram_do_1\[7\]
*248 i_sram\.sram_do_1\[8\]
*249 i_sram\.sram_do_1\[9\]
*250 i_sram\.sram_do_2\[0\]
*251 i_sram\.sram_do_2\[10\]
*252 i_sram\.sram_do_2\[11\]
*253 i_sram\.sram_do_2\[12\]
*254 i_sram\.sram_do_2\[13\]
*255 i_sram\.sram_do_2\[14\]
*256 i_sram\.sram_do_2\[15\]
*257 i_sram\.sram_do_2\[16\]
*258 i_sram\.sram_do_2\[17\]
*259 i_sram\.sram_do_2\[18\]
*260 i_sram\.sram_do_2\[19\]
*261 i_sram\.sram_do_2\[1\]
*262 i_sram\.sram_do_2\[20\]
*263 i_sram\.sram_do_2\[21\]
*264 i_sram\.sram_do_2\[22\]
*265 i_sram\.sram_do_2\[23\]
*266 i_sram\.sram_do_2\[24\]
*267 i_sram\.sram_do_2\[25\]
*268 i_sram\.sram_do_2\[26\]
*269 i_sram\.sram_do_2\[27\]
*270 i_sram\.sram_do_2\[28\]
*271 i_sram\.sram_do_2\[29\]
*272 i_sram\.sram_do_2\[2\]
*273 i_sram\.sram_do_2\[30\]
*274 i_sram\.sram_do_2\[31\]
*275 i_sram\.sram_do_2\[3\]
*276 i_sram\.sram_do_2\[4\]
*277 i_sram\.sram_do_2\[5\]
*278 i_sram\.sram_do_2\[6\]
*279 i_sram\.sram_do_2\[7\]
*280 i_sram\.sram_do_2\[8\]
*281 i_sram\.sram_do_2\[9\]
*282 i_sram\.sram_do_3\[0\]
*283 i_sram\.sram_do_3\[10\]
*284 i_sram\.sram_do_3\[11\]
*285 i_sram\.sram_do_3\[12\]
*286 i_sram\.sram_do_3\[13\]
*287 i_sram\.sram_do_3\[14\]
*288 i_sram\.sram_do_3\[15\]
*289 i_sram\.sram_do_3\[16\]
*290 i_sram\.sram_do_3\[17\]
*291 i_sram\.sram_do_3\[18\]
*292 i_sram\.sram_do_3\[19\]
*293 i_sram\.sram_do_3\[1\]
*294 i_sram\.sram_do_3\[20\]
*295 i_sram\.sram_do_3\[21\]
*296 i_sram\.sram_do_3\[22\]
*297 i_sram\.sram_do_3\[23\]
*298 i_sram\.sram_do_3\[24\]
*299 i_sram\.sram_do_3\[25\]
*300 i_sram\.sram_do_3\[26\]
*301 i_sram\.sram_do_3\[27\]
*302 i_sram\.sram_do_3\[28\]
*303 i_sram\.sram_do_3\[29\]
*304 i_sram\.sram_do_3\[2\]
*305 i_sram\.sram_do_3\[30\]
*306 i_sram\.sram_do_3\[31\]
*307 i_sram\.sram_do_3\[3\]
*308 i_sram\.sram_do_3\[4\]
*309 i_sram\.sram_do_3\[5\]
*310 i_sram\.sram_do_3\[6\]
*311 i_sram\.sram_do_3\[7\]
*312 i_sram\.sram_do_3\[8\]
*313 i_sram\.sram_do_3\[9\]
*314 i_sram\.sram_scan_out_cc_0
*315 i_sram\.sram_scan_out_cc_1
*316 i_sram\.sram_scan_out_cc_2
*317 i_sram\.sram_scan_out_cc_3
*318 net1
*319 net10
*320 net100
*321 net101
*322 net102
*323 net103
*324 net104
*325 net105
*326 net106
*327 net107
*328 net108
*329 net109
*330 net11
*331 net110
*332 net111
*333 net112
*334 net113
*335 net114
*336 net115
*337 net116
*338 net117
*339 net118
*340 net119
*341 net12
*342 net120
*343 net121
*344 net122
*345 net123
*346 net124
*347 net125
*348 net126
*349 net127
*350 net128
*351 net129
*352 net13
*353 net130
*354 net131
*355 net132
*356 net133
*357 net134
*358 net135
*359 net136
*360 net137
*361 net138
*362 net139
*363 net14
*364 net140
*365 net141
*366 net142
*367 net143
*368 net144
*369 net145
*370 net146
*371 net147
*372 net148
*373 net149
*374 net15
*375 net150
*376 net151
*377 net152
*378 net153
*379 net154
*380 net155
*381 net156
*382 net157
*383 net158
*384 net159
*385 net16
*386 net160
*387 net161
*388 net162
*389 net163
*390 net164
*391 net165
*392 net166
*393 net167
*394 net168
*395 net169
*396 net17
*397 net170
*398 net171
*399 net172
*400 net173
*401 net174
*402 net175
*403 net176
*404 net177
*405 net178
*406 net179
*407 net18
*408 net180
*409 net181
*410 net182
*411 net183
*412 net184
*413 net185
*414 net186
*415 net187
*416 net188
*417 net189
*418 net19
*419 net190
*420 net191
*421 net192
*422 net193
*423 net194
*424 net195
*425 net196
*426 net197
*427 net198
*428 net199
*429 net2
*430 net20
*431 net200
*432 net201
*433 net202
*434 net203
*435 net204
*436 net205
*437 net206
*438 net207
*439 net208
*440 net209
*441 net21
*442 net210
*443 net211
*444 net212
*445 net213
*446 net214
*447 net215
*448 net216
*449 net217
*450 net218
*451 net219
*452 net22
*453 net220
*454 net221
*455 net222
*456 net223
*457 net224
*458 net225
*459 net226
*460 net227
*461 net228
*462 net229
*463 net23
*464 net230
*465 net231
*466 net232
*467 net233
*468 net234
*469 net235
*470 net236
*471 net237
*472 net238
*473 net239
*474 net24
*475 net240
*476 net241
*477 net242
*478 net243
*479 net244
*480 net245
*481 net246
*482 net247
*483 net248
*484 net249
*485 net25
*486 net250
*487 net251
*488 net252
*489 net253
*490 net254
*491 net255
*492 net256
*493 net257
*494 net258
*495 net259
*496 net26
*497 net260
*498 net261
*499 net262
*500 net263
*501 net264
*502 net265
*503 net266
*504 net267
*505 net268
*506 net269
*507 net27
*508 net270
*509 net271
*510 net272
*511 net273
*512 net274
*513 net275
*514 net276
*515 net277
*516 net278
*517 net279
*518 net28
*519 net280
*520 net281
*521 net282
*522 net283
*523 net284
*524 net285
*525 net286
*526 net287
*527 net288
*528 net289
*529 net29
*530 net290
*531 net291
*532 net292
*533 net293
*534 net294
*535 net295
*536 net296
*537 net297
*538 net298
*539 net299
*540 net3
*541 net30
*542 net300
*543 net301
*544 net302
*545 net303
*546 net304
*547 net305
*548 net306
*549 net307
*550 net308
*551 net309
*552 net31
*553 net310
*554 net311
*555 net312
*556 net313
*557 net314
*558 net315
*559 net316
*560 net317
*561 net318
*562 net319
*563 net32
*564 net320
*565 net321
*566 net322
*567 net33
*568 net34
*569 net35
*570 net36
*571 net37
*572 net38
*573 net39
*574 net4
*575 net40
*576 net41
*577 net42
*578 net43
*579 net44
*580 net45
*581 net46
*582 net47
*583 net48
*584 net49
*585 net5
*586 net50
*587 net51
*588 net52
*589 net53
*590 net54
*591 net55
*592 net56
*593 net57
*594 net58
*595 net59
*596 net6
*597 net60
*598 net61
*599 net62
*600 net63
*601 net64
*602 net65
*603 net66
*604 net67
*605 net68
*606 net69
*607 net7
*608 net70
*609 net71
*610 net72
*611 net73
*612 net74
*613 net75
*614 net76
*615 net77
*616 net78
*617 net79
*618 net8
*619 net80
*620 net81
*621 net82
*622 net83
*623 net84
*624 net85
*625 net86
*626 net87
*627 net88
*628 net89
*629 net9
*630 net90
*631 net91
*632 net92
*633 net93
*634 net94
*635 net95
*636 net96
*637 net97
*638 net98
*639 net99
*640 ANTENNA_1
*641 ANTENNA_10
*642 ANTENNA_100
*643 ANTENNA_101
*644 ANTENNA_102
*645 ANTENNA_103
*646 ANTENNA_104
*647 ANTENNA_105
*648 ANTENNA_106
*649 ANTENNA_107
*650 ANTENNA_108
*651 ANTENNA_109
*652 ANTENNA_11
*653 ANTENNA_110
*654 ANTENNA_111
*655 ANTENNA_112
*656 ANTENNA_113
*657 ANTENNA_114
*658 ANTENNA_115
*659 ANTENNA_116
*660 ANTENNA_117
*661 ANTENNA_118
*662 ANTENNA_119
*663 ANTENNA_12
*664 ANTENNA_120
*665 ANTENNA_121
*666 ANTENNA_122
*667 ANTENNA_123
*668 ANTENNA_124
*669 ANTENNA_125
*670 ANTENNA_126
*671 ANTENNA_127
*672 ANTENNA_128
*673 ANTENNA_129
*674 ANTENNA_13
*675 ANTENNA_130
*676 ANTENNA_131
*677 ANTENNA_132
*678 ANTENNA_133
*679 ANTENNA_134
*680 ANTENNA_135
*681 ANTENNA_136
*682 ANTENNA_137
*683 ANTENNA_138
*684 ANTENNA_139
*685 ANTENNA_14
*686 ANTENNA_140
*687 ANTENNA_141
*688 ANTENNA_142
*689 ANTENNA_143
*690 ANTENNA_144
*691 ANTENNA_145
*692 ANTENNA_146
*693 ANTENNA_147
*694 ANTENNA_148
*695 ANTENNA_149
*696 ANTENNA_15
*697 ANTENNA_150
*698 ANTENNA_151
*699 ANTENNA_152
*700 ANTENNA_153
*701 ANTENNA_154
*702 ANTENNA_155
*703 ANTENNA_156
*704 ANTENNA_157
*705 ANTENNA_158
*706 ANTENNA_159
*707 ANTENNA_16
*708 ANTENNA_160
*709 ANTENNA_161
*710 ANTENNA_162
*711 ANTENNA_163
*712 ANTENNA_164
*713 ANTENNA_165
*714 ANTENNA_166
*715 ANTENNA_167
*716 ANTENNA_168
*717 ANTENNA_169
*718 ANTENNA_17
*719 ANTENNA_170
*720 ANTENNA_171
*721 ANTENNA_172
*722 ANTENNA_173
*723 ANTENNA_174
*724 ANTENNA_175
*725 ANTENNA_176
*726 ANTENNA_177
*727 ANTENNA_178
*728 ANTENNA_179
*729 ANTENNA_18
*730 ANTENNA_180
*731 ANTENNA_181
*732 ANTENNA_182
*733 ANTENNA_183
*734 ANTENNA_184
*735 ANTENNA_185
*736 ANTENNA_186
*737 ANTENNA_187
*738 ANTENNA_188
*739 ANTENNA_189
*740 ANTENNA_19
*741 ANTENNA_190
*742 ANTENNA_191
*743 ANTENNA_192
*744 ANTENNA_193
*745 ANTENNA_194
*746 ANTENNA_195
*747 ANTENNA_196
*748 ANTENNA_197
*749 ANTENNA_198
*750 ANTENNA_199
*751 ANTENNA_2
*752 ANTENNA_20
*753 ANTENNA_200
*754 ANTENNA_201
*755 ANTENNA_202
*756 ANTENNA_203
*757 ANTENNA_204
*758 ANTENNA_205
*759 ANTENNA_206
*760 ANTENNA_207
*761 ANTENNA_208
*762 ANTENNA_209
*763 ANTENNA_21
*764 ANTENNA_210
*765 ANTENNA_211
*766 ANTENNA_212
*767 ANTENNA_213
*768 ANTENNA_214
*769 ANTENNA_215
*770 ANTENNA_216
*771 ANTENNA_217
*772 ANTENNA_218
*773 ANTENNA_219
*774 ANTENNA_22
*775 ANTENNA_220
*776 ANTENNA_221
*777 ANTENNA_222
*778 ANTENNA_223
*779 ANTENNA_224
*780 ANTENNA_225
*781 ANTENNA_226
*782 ANTENNA_227
*783 ANTENNA_228
*784 ANTENNA_229
*785 ANTENNA_23
*786 ANTENNA_230
*787 ANTENNA_231
*788 ANTENNA_232
*789 ANTENNA_233
*790 ANTENNA_234
*791 ANTENNA_235
*792 ANTENNA_236
*793 ANTENNA_237
*794 ANTENNA_238
*795 ANTENNA_239
*796 ANTENNA_24
*797 ANTENNA_240
*798 ANTENNA_241
*799 ANTENNA_242
*800 ANTENNA_243
*801 ANTENNA_244
*802 ANTENNA_245
*803 ANTENNA_246
*804 ANTENNA_247
*805 ANTENNA_248
*806 ANTENNA_249
*807 ANTENNA_25
*808 ANTENNA_250
*809 ANTENNA_251
*810 ANTENNA_252
*811 ANTENNA_253
*812 ANTENNA_254
*813 ANTENNA_255
*814 ANTENNA_256
*815 ANTENNA_257
*816 ANTENNA_258
*817 ANTENNA_259
*818 ANTENNA_26
*819 ANTENNA_260
*820 ANTENNA_261
*821 ANTENNA_262
*822 ANTENNA_263
*823 ANTENNA_264
*824 ANTENNA_265
*825 ANTENNA_266
*826 ANTENNA_267
*827 ANTENNA_268
*828 ANTENNA_269
*829 ANTENNA_27
*830 ANTENNA_270
*831 ANTENNA_271
*832 ANTENNA_272
*833 ANTENNA_273
*834 ANTENNA_274
*835 ANTENNA_275
*836 ANTENNA_276
*837 ANTENNA_277
*838 ANTENNA_278
*839 ANTENNA_279
*840 ANTENNA_28
*841 ANTENNA_280
*842 ANTENNA_281
*843 ANTENNA_282
*844 ANTENNA_283
*845 ANTENNA_284
*846 ANTENNA_285
*847 ANTENNA_286
*848 ANTENNA_287
*849 ANTENNA_288
*850 ANTENNA_289
*851 ANTENNA_29
*852 ANTENNA_290
*853 ANTENNA_291
*854 ANTENNA_292
*855 ANTENNA_293
*856 ANTENNA_294
*857 ANTENNA_295
*858 ANTENNA_296
*859 ANTENNA_297
*860 ANTENNA_298
*861 ANTENNA_299
*862 ANTENNA_3
*863 ANTENNA_30
*864 ANTENNA_300
*865 ANTENNA_301
*866 ANTENNA_302
*867 ANTENNA_303
*868 ANTENNA_304
*869 ANTENNA_305
*870 ANTENNA_306
*871 ANTENNA_307
*872 ANTENNA_308
*873 ANTENNA_309
*874 ANTENNA_31
*875 ANTENNA_310
*876 ANTENNA_311
*877 ANTENNA_312
*878 ANTENNA_313
*879 ANTENNA_314
*880 ANTENNA_315
*881 ANTENNA_316
*882 ANTENNA_317
*883 ANTENNA_318
*884 ANTENNA_319
*885 ANTENNA_32
*886 ANTENNA_320
*887 ANTENNA_321
*888 ANTENNA_322
*889 ANTENNA_323
*890 ANTENNA_324
*891 ANTENNA_325
*892 ANTENNA_326
*893 ANTENNA_327
*894 ANTENNA_328
*895 ANTENNA_329
*896 ANTENNA_33
*897 ANTENNA_330
*898 ANTENNA_331
*899 ANTENNA_332
*900 ANTENNA_333
*901 ANTENNA_334
*902 ANTENNA_335
*903 ANTENNA_336
*904 ANTENNA_337
*905 ANTENNA_338
*906 ANTENNA_339
*907 ANTENNA_34
*908 ANTENNA_340
*909 ANTENNA_341
*910 ANTENNA_342
*911 ANTENNA_343
*912 ANTENNA_344
*913 ANTENNA_345
*914 ANTENNA_346
*915 ANTENNA_347
*916 ANTENNA_348
*917 ANTENNA_349
*918 ANTENNA_35
*919 ANTENNA_350
*920 ANTENNA_351
*921 ANTENNA_352
*922 ANTENNA_353
*923 ANTENNA_354
*924 ANTENNA_355
*925 ANTENNA_356
*926 ANTENNA_357
*927 ANTENNA_358
*928 ANTENNA_359
*929 ANTENNA_36
*930 ANTENNA_360
*931 ANTENNA_361
*932 ANTENNA_362
*933 ANTENNA_363
*934 ANTENNA_364
*935 ANTENNA_365
*936 ANTENNA_366
*937 ANTENNA_367
*938 ANTENNA_368
*939 ANTENNA_369
*940 ANTENNA_37
*941 ANTENNA_370
*942 ANTENNA_371
*943 ANTENNA_372
*944 ANTENNA_373
*945 ANTENNA_374
*946 ANTENNA_375
*947 ANTENNA_376
*948 ANTENNA_377
*949 ANTENNA_378
*950 ANTENNA_379
*951 ANTENNA_38
*952 ANTENNA_380
*953 ANTENNA_381
*954 ANTENNA_382
*955 ANTENNA_383
*956 ANTENNA_384
*957 ANTENNA_385
*958 ANTENNA_386
*959 ANTENNA_387
*960 ANTENNA_388
*961 ANTENNA_389
*962 ANTENNA_39
*963 ANTENNA_390
*964 ANTENNA_391
*965 ANTENNA_392
*966 ANTENNA_393
*967 ANTENNA_394
*968 ANTENNA_395
*969 ANTENNA_396
*970 ANTENNA_397
*971 ANTENNA_398
*972 ANTENNA_399
*973 ANTENNA_4
*974 ANTENNA_40
*975 ANTENNA_400
*976 ANTENNA_401
*977 ANTENNA_402
*978 ANTENNA_403
*979 ANTENNA_404
*980 ANTENNA_405
*981 ANTENNA_406
*982 ANTENNA_407
*983 ANTENNA_408
*984 ANTENNA_409
*985 ANTENNA_41
*986 ANTENNA_410
*987 ANTENNA_411
*988 ANTENNA_412
*989 ANTENNA_413
*990 ANTENNA_414
*991 ANTENNA_415
*992 ANTENNA_416
*993 ANTENNA_417
*994 ANTENNA_418
*995 ANTENNA_419
*996 ANTENNA_42
*997 ANTENNA_420
*998 ANTENNA_421
*999 ANTENNA_422
*1000 ANTENNA_423
*1001 ANTENNA_424
*1002 ANTENNA_425
*1003 ANTENNA_426
*1004 ANTENNA_427
*1005 ANTENNA_428
*1006 ANTENNA_429
*1007 ANTENNA_43
*1008 ANTENNA_430
*1009 ANTENNA_431
*1010 ANTENNA_432
*1011 ANTENNA_433
*1012 ANTENNA_434
*1013 ANTENNA_435
*1014 ANTENNA_436
*1015 ANTENNA_437
*1016 ANTENNA_438
*1017 ANTENNA_439
*1018 ANTENNA_44
*1019 ANTENNA_440
*1020 ANTENNA_441
*1021 ANTENNA_442
*1022 ANTENNA_443
*1023 ANTENNA_444
*1024 ANTENNA_445
*1025 ANTENNA_446
*1026 ANTENNA_447
*1027 ANTENNA_448
*1028 ANTENNA_449
*1029 ANTENNA_45
*1030 ANTENNA_450
*1031 ANTENNA_451
*1032 ANTENNA_452
*1033 ANTENNA_453
*1034 ANTENNA_454
*1035 ANTENNA_455
*1036 ANTENNA_456
*1037 ANTENNA_457
*1038 ANTENNA_458
*1039 ANTENNA_459
*1040 ANTENNA_46
*1041 ANTENNA_460
*1042 ANTENNA_461
*1043 ANTENNA_462
*1044 ANTENNA_463
*1045 ANTENNA_464
*1046 ANTENNA_465
*1047 ANTENNA_466
*1048 ANTENNA_467
*1049 ANTENNA_468
*1050 ANTENNA_469
*1051 ANTENNA_47
*1052 ANTENNA_470
*1053 ANTENNA_471
*1054 ANTENNA_472
*1055 ANTENNA_473
*1056 ANTENNA_474
*1057 ANTENNA_475
*1058 ANTENNA_476
*1059 ANTENNA_477
*1060 ANTENNA_478
*1061 ANTENNA_479
*1062 ANTENNA_48
*1063 ANTENNA_480
*1064 ANTENNA_49
*1065 ANTENNA_5
*1066 ANTENNA_50
*1067 ANTENNA_51
*1068 ANTENNA_52
*1069 ANTENNA_53
*1070 ANTENNA_54
*1071 ANTENNA_55
*1072 ANTENNA_56
*1073 ANTENNA_57
*1074 ANTENNA_58
*1075 ANTENNA_59
*1076 ANTENNA_6
*1077 ANTENNA_60
*1078 ANTENNA_61
*1079 ANTENNA_62
*1080 ANTENNA_63
*1081 ANTENNA_64
*1082 ANTENNA_65
*1083 ANTENNA_66
*1084 ANTENNA_67
*1085 ANTENNA_68
*1086 ANTENNA_69
*1087 ANTENNA_7
*1088 ANTENNA_70
*1089 ANTENNA_71
*1090 ANTENNA_72
*1091 ANTENNA_73
*1092 ANTENNA_74
*1093 ANTENNA_75
*1094 ANTENNA_76
*1095 ANTENNA_77
*1096 ANTENNA_78
*1097 ANTENNA_79
*1098 ANTENNA_8
*1099 ANTENNA_80
*1100 ANTENNA_81
*1101 ANTENNA_82
*1102 ANTENNA_83
*1103 ANTENNA_84
*1104 ANTENNA_85
*1105 ANTENNA_86
*1106 ANTENNA_87
*1107 ANTENNA_88
*1108 ANTENNA_89
*1109 ANTENNA_9
*1110 ANTENNA_90
*1111 ANTENNA_91
*1112 ANTENNA_92
*1113 ANTENNA_93
*1114 ANTENNA_94
*1115 ANTENNA_95
*1116 ANTENNA_96
*1117 ANTENNA_97
*1118 ANTENNA_98
*1119 ANTENNA_99
*1120 FILLER_0_1005
*1121 FILLER_0_1007
*1122 FILLER_0_1009
*1123 FILLER_0_1017
*1124 FILLER_0_1063
*1125 FILLER_0_1065
*1126 FILLER_0_1077
*1127 FILLER_0_1080
*1128 FILLER_0_1082
*1129 FILLER_0_109
*1130 FILLER_0_1091
*1131 FILLER_0_1093
*1132 FILLER_0_1101
*1133 FILLER_0_111
*1134 FILLER_0_1113
*1135 FILLER_0_1117
*1136 FILLER_0_1119
*1137 FILLER_0_1121
*1138 FILLER_0_113
*1139 FILLER_0_1135
*1140 FILLER_0_1145
*1141 FILLER_0_1147
*1142 FILLER_0_1157
*1143 FILLER_0_1161
*1144 FILLER_0_1164
*1145 FILLER_0_1166
*1146 FILLER_0_1175
*1147 FILLER_0_1201
*1148 FILLER_0_1203
*1149 FILLER_0_1221
*1150 FILLER_0_1230
*1151 FILLER_0_125
*1152 FILLER_0_1259
*1153 FILLER_0_1285
*1154 FILLER_0_1287
*1155 FILLER_0_1313
*1156 FILLER_0_1315
*1157 FILLER_0_1333
*1158 FILLER_0_1335
*1159 FILLER_0_1345
*1160 FILLER_0_1365
*1161 FILLER_0_1369
*1162 FILLER_0_137
*1163 FILLER_0_1371
*1164 FILLER_0_139
*1165 FILLER_0_1397
*1166 FILLER_0_1399
*1167 FILLER_0_141
*1168 FILLER_0_1425
*1169 FILLER_0_1427
*1170 FILLER_0_1453
*1171 FILLER_0_1455
*1172 FILLER_0_1481
*1173 FILLER_0_1483
*1174 FILLER_0_1485
*1175 FILLER_0_15
*1176 FILLER_0_1503
*1177 FILLER_0_153
*1178 FILLER_0_165
*1179 FILLER_0_167
*1180 FILLER_0_169
*1181 FILLER_0_181
*1182 FILLER_0_193
*1183 FILLER_0_195
*1184 FILLER_0_197
*1185 FILLER_0_209
*1186 FILLER_0_221
*1187 FILLER_0_223
*1188 FILLER_0_225
*1189 FILLER_0_237
*1190 FILLER_0_249
*1191 FILLER_0_251
*1192 FILLER_0_253
*1193 FILLER_0_265
*1194 FILLER_0_27
*1195 FILLER_0_277
*1196 FILLER_0_279
*1197 FILLER_0_281
*1198 FILLER_0_29
*1199 FILLER_0_293
*1200 FILLER_0_3
*1201 FILLER_0_305
*1202 FILLER_0_307
*1203 FILLER_0_309
*1204 FILLER_0_321
*1205 FILLER_0_333
*1206 FILLER_0_335
*1207 FILLER_0_337
*1208 FILLER_0_349
*1209 FILLER_0_361
*1210 FILLER_0_363
*1211 FILLER_0_365
*1212 FILLER_0_377
*1213 FILLER_0_389
*1214 FILLER_0_391
*1215 FILLER_0_393
*1216 FILLER_0_405
*1217 FILLER_0_41
*1218 FILLER_0_417
*1219 FILLER_0_419
*1220 FILLER_0_421
*1221 FILLER_0_433
*1222 FILLER_0_445
*1223 FILLER_0_447
*1224 FILLER_0_449
*1225 FILLER_0_460
*1226 FILLER_0_485
*1227 FILLER_0_491
*1228 FILLER_0_495
*1229 FILLER_0_505
*1230 FILLER_0_507
*1231 FILLER_0_53
*1232 FILLER_0_533
*1233 FILLER_0_55
*1234 FILLER_0_557
*1235 FILLER_0_559
*1236 FILLER_0_561
*1237 FILLER_0_563
*1238 FILLER_0_57
*1239 FILLER_0_613
*1240 FILLER_0_615
*1241 FILLER_0_617
*1242 FILLER_0_643
*1243 FILLER_0_645
*1244 FILLER_0_647
*1245 FILLER_0_673
*1246 FILLER_0_675
*1247 FILLER_0_69
*1248 FILLER_0_701
*1249 FILLER_0_703
*1250 FILLER_0_729
*1251 FILLER_0_731
*1252 FILLER_0_757
*1253 FILLER_0_783
*1254 FILLER_0_809
*1255 FILLER_0_81
*1256 FILLER_0_811
*1257 FILLER_0_83
*1258 FILLER_0_837
*1259 FILLER_0_839
*1260 FILLER_0_85
*1261 FILLER_0_865
*1262 FILLER_0_867
*1263 FILLER_0_893
*1264 FILLER_0_895
*1265 FILLER_0_913
*1266 FILLER_0_915
*1267 FILLER_0_918
*1268 FILLER_0_949
*1269 FILLER_0_951
*1270 FILLER_0_97
*1271 FILLER_0_977
*1272 FILLER_0_979
*1273 FILLER_100_1464
*1274 FILLER_100_1476
*1275 FILLER_100_1488
*1276 FILLER_100_1490
*1277 FILLER_100_1502
*1278 FILLER_100_1506
*1279 FILLER_100_703
*1280 FILLER_100_715
*1281 FILLER_100_727
*1282 FILLER_100_729
*1283 FILLER_100_741
*1284 FILLER_100_745
*1285 FILLER_101_1464
*1286 FILLER_101_1476
*1287 FILLER_101_1488
*1288 FILLER_101_1500
*1289 FILLER_101_1504
*1290 FILLER_101_1506
*1291 FILLER_101_703
*1292 FILLER_101_715
*1293 FILLER_101_727
*1294 FILLER_101_739
*1295 FILLER_102_1464
*1296 FILLER_102_1476
*1297 FILLER_102_1488
*1298 FILLER_102_1490
*1299 FILLER_102_1502
*1300 FILLER_102_1506
*1301 FILLER_102_703
*1302 FILLER_102_715
*1303 FILLER_102_727
*1304 FILLER_102_729
*1305 FILLER_103_1464
*1306 FILLER_103_1476
*1307 FILLER_103_1488
*1308 FILLER_103_1500
*1309 FILLER_103_1504
*1310 FILLER_103_1506
*1311 FILLER_103_703
*1312 FILLER_103_715
*1313 FILLER_103_727
*1314 FILLER_103_739
*1315 FILLER_104_1464
*1316 FILLER_104_1476
*1317 FILLER_104_1488
*1318 FILLER_104_1490
*1319 FILLER_104_1502
*1320 FILLER_104_1506
*1321 FILLER_104_703
*1322 FILLER_104_715
*1323 FILLER_104_727
*1324 FILLER_104_729
*1325 FILLER_105_1464
*1326 FILLER_105_1476
*1327 FILLER_105_1488
*1328 FILLER_105_1500
*1329 FILLER_105_1504
*1330 FILLER_105_1506
*1331 FILLER_105_703
*1332 FILLER_105_715
*1333 FILLER_105_727
*1334 FILLER_105_739
*1335 FILLER_106_1464
*1336 FILLER_106_1476
*1337 FILLER_106_1488
*1338 FILLER_106_1490
*1339 FILLER_106_1502
*1340 FILLER_106_1506
*1341 FILLER_106_703
*1342 FILLER_106_715
*1343 FILLER_106_727
*1344 FILLER_106_745
*1345 FILLER_107_1464
*1346 FILLER_107_1476
*1347 FILLER_107_1488
*1348 FILLER_107_1500
*1349 FILLER_107_1504
*1350 FILLER_107_1506
*1351 FILLER_107_703
*1352 FILLER_107_715
*1353 FILLER_107_727
*1354 FILLER_107_739
*1355 FILLER_108_1464
*1356 FILLER_108_1476
*1357 FILLER_108_1488
*1358 FILLER_108_1490
*1359 FILLER_108_1502
*1360 FILLER_108_1506
*1361 FILLER_108_703
*1362 FILLER_108_727
*1363 FILLER_108_729
*1364 FILLER_108_741
*1365 FILLER_108_745
*1366 FILLER_109_1464
*1367 FILLER_109_1476
*1368 FILLER_109_1488
*1369 FILLER_109_1500
*1370 FILLER_109_1504
*1371 FILLER_109_1506
*1372 FILLER_109_703
*1373 FILLER_109_715
*1374 FILLER_109_727
*1375 FILLER_109_739
*1376 FILLER_10_1464
*1377 FILLER_10_1476
*1378 FILLER_10_1488
*1379 FILLER_10_1490
*1380 FILLER_10_1502
*1381 FILLER_10_1506
*1382 FILLER_10_703
*1383 FILLER_10_715
*1384 FILLER_10_727
*1385 FILLER_10_729
*1386 FILLER_10_741
*1387 FILLER_10_745
*1388 FILLER_110_1464
*1389 FILLER_110_1476
*1390 FILLER_110_1488
*1391 FILLER_110_1490
*1392 FILLER_110_1502
*1393 FILLER_110_1506
*1394 FILLER_110_719
*1395 FILLER_110_727
*1396 FILLER_110_729
*1397 FILLER_110_741
*1398 FILLER_110_745
*1399 FILLER_111_1464
*1400 FILLER_111_1476
*1401 FILLER_111_1488
*1402 FILLER_111_1500
*1403 FILLER_111_1504
*1404 FILLER_111_1506
*1405 FILLER_111_703
*1406 FILLER_111_715
*1407 FILLER_111_727
*1408 FILLER_111_739
*1409 FILLER_112_1464
*1410 FILLER_112_1476
*1411 FILLER_112_1488
*1412 FILLER_112_1490
*1413 FILLER_112_1502
*1414 FILLER_112_1506
*1415 FILLER_112_719
*1416 FILLER_112_727
*1417 FILLER_112_729
*1418 FILLER_112_741
*1419 FILLER_112_745
*1420 FILLER_113_1464
*1421 FILLER_113_1476
*1422 FILLER_113_1488
*1423 FILLER_113_1500
*1424 FILLER_113_1504
*1425 FILLER_113_1506
*1426 FILLER_113_703
*1427 FILLER_113_715
*1428 FILLER_113_727
*1429 FILLER_113_739
*1430 FILLER_114_1464
*1431 FILLER_114_1476
*1432 FILLER_114_1488
*1433 FILLER_114_1490
*1434 FILLER_114_1502
*1435 FILLER_114_1506
*1436 FILLER_114_719
*1437 FILLER_114_727
*1438 FILLER_114_729
*1439 FILLER_114_741
*1440 FILLER_114_745
*1441 FILLER_115_1464
*1442 FILLER_115_1476
*1443 FILLER_115_1488
*1444 FILLER_115_1500
*1445 FILLER_115_1504
*1446 FILLER_115_1506
*1447 FILLER_115_719
*1448 FILLER_115_731
*1449 FILLER_115_743
*1450 FILLER_116_1464
*1451 FILLER_116_1476
*1452 FILLER_116_1488
*1453 FILLER_116_1490
*1454 FILLER_116_1502
*1455 FILLER_116_1506
*1456 FILLER_116_719
*1457 FILLER_116_727
*1458 FILLER_116_729
*1459 FILLER_116_737
*1460 FILLER_116_740
*1461 FILLER_116_744
*1462 FILLER_116_746
*1463 FILLER_117_1464
*1464 FILLER_117_1476
*1465 FILLER_117_1488
*1466 FILLER_117_1500
*1467 FILLER_117_1504
*1468 FILLER_117_1506
*1469 FILLER_117_719
*1470 FILLER_117_721
*1471 FILLER_117_740
*1472 FILLER_117_744
*1473 FILLER_117_746
*1474 FILLER_118_1464
*1475 FILLER_118_1476
*1476 FILLER_118_1488
*1477 FILLER_118_1490
*1478 FILLER_118_1502
*1479 FILLER_118_1506
*1480 FILLER_118_719
*1481 FILLER_118_727
*1482 FILLER_118_729
*1483 FILLER_118_737
*1484 FILLER_118_740
*1485 FILLER_118_744
*1486 FILLER_119_1464
*1487 FILLER_119_1476
*1488 FILLER_119_1488
*1489 FILLER_119_1500
*1490 FILLER_119_1504
*1491 FILLER_119_1506
*1492 FILLER_11_1464
*1493 FILLER_11_1476
*1494 FILLER_11_1488
*1495 FILLER_11_1500
*1496 FILLER_11_1504
*1497 FILLER_11_1506
*1498 FILLER_11_703
*1499 FILLER_11_715
*1500 FILLER_11_727
*1501 FILLER_11_739
*1502 FILLER_120_1464
*1503 FILLER_120_1476
*1504 FILLER_120_1488
*1505 FILLER_120_1490
*1506 FILLER_120_1502
*1507 FILLER_120_1506
*1508 FILLER_120_712
*1509 FILLER_120_735
*1510 FILLER_120_737
*1511 FILLER_120_740
*1512 FILLER_120_744
*1513 FILLER_121_1464
*1514 FILLER_121_1476
*1515 FILLER_121_1488
*1516 FILLER_121_1500
*1517 FILLER_121_1504
*1518 FILLER_121_1506
*1519 FILLER_121_721
*1520 FILLER_121_725
*1521 FILLER_121_727
*1522 FILLER_121_730
*1523 FILLER_121_740
*1524 FILLER_121_744
*1525 FILLER_121_746
*1526 FILLER_122_1464
*1527 FILLER_122_1476
*1528 FILLER_122_1488
*1529 FILLER_122_1490
*1530 FILLER_122_1502
*1531 FILLER_122_1506
*1532 FILLER_122_703
*1533 FILLER_122_725
*1534 FILLER_122_727
*1535 FILLER_122_729
*1536 FILLER_123_1464
*1537 FILLER_123_1476
*1538 FILLER_123_1488
*1539 FILLER_123_1500
*1540 FILLER_123_1504
*1541 FILLER_123_1506
*1542 FILLER_123_719
*1543 FILLER_123_721
*1544 FILLER_123_724
*1545 FILLER_123_730
*1546 FILLER_124_1464
*1547 FILLER_124_1476
*1548 FILLER_124_1488
*1549 FILLER_124_1490
*1550 FILLER_124_1502
*1551 FILLER_124_1506
*1552 FILLER_124_725
*1553 FILLER_124_727
*1554 FILLER_125_1464
*1555 FILLER_125_1476
*1556 FILLER_125_1488
*1557 FILLER_125_1500
*1558 FILLER_125_1504
*1559 FILLER_125_1506
*1560 FILLER_125_715
*1561 FILLER_125_738
*1562 FILLER_125_746
*1563 FILLER_126_1464
*1564 FILLER_126_1476
*1565 FILLER_126_1488
*1566 FILLER_126_1490
*1567 FILLER_126_1502
*1568 FILLER_126_1506
*1569 FILLER_126_719
*1570 FILLER_126_721
*1571 FILLER_126_724
*1572 FILLER_127_1464
*1573 FILLER_127_1476
*1574 FILLER_127_1488
*1575 FILLER_127_1500
*1576 FILLER_127_1504
*1577 FILLER_127_1506
*1578 FILLER_127_703
*1579 FILLER_127_715
*1580 FILLER_127_737
*1581 FILLER_127_745
*1582 FILLER_128_1464
*1583 FILLER_128_1476
*1584 FILLER_128_1488
*1585 FILLER_128_1490
*1586 FILLER_128_1502
*1587 FILLER_128_1506
*1588 FILLER_128_703
*1589 FILLER_128_717
*1590 FILLER_128_721
*1591 FILLER_128_744
*1592 FILLER_128_746
*1593 FILLER_129_1464
*1594 FILLER_129_1476
*1595 FILLER_129_1488
*1596 FILLER_129_1500
*1597 FILLER_129_1504
*1598 FILLER_129_1506
*1599 FILLER_129_707
*1600 FILLER_129_739
*1601 FILLER_12_1464
*1602 FILLER_12_1476
*1603 FILLER_12_1488
*1604 FILLER_12_1490
*1605 FILLER_12_1502
*1606 FILLER_12_1506
*1607 FILLER_12_703
*1608 FILLER_12_715
*1609 FILLER_12_727
*1610 FILLER_12_729
*1611 FILLER_12_741
*1612 FILLER_12_745
*1613 FILLER_130_1464
*1614 FILLER_130_1476
*1615 FILLER_130_1488
*1616 FILLER_130_1490
*1617 FILLER_130_1502
*1618 FILLER_130_1506
*1619 FILLER_130_720
*1620 FILLER_130_746
*1621 FILLER_131_1464
*1622 FILLER_131_1476
*1623 FILLER_131_1488
*1624 FILLER_131_1500
*1625 FILLER_131_1504
*1626 FILLER_131_1506
*1627 FILLER_131_707
*1628 FILLER_131_717
*1629 FILLER_131_725
*1630 FILLER_131_727
*1631 FILLER_131_730
*1632 FILLER_131_733
*1633 FILLER_131_745
*1634 FILLER_132_1464
*1635 FILLER_132_1476
*1636 FILLER_132_1488
*1637 FILLER_132_1490
*1638 FILLER_132_1502
*1639 FILLER_132_1506
*1640 FILLER_132_703
*1641 FILLER_132_715
*1642 FILLER_132_727
*1643 FILLER_132_729
*1644 FILLER_132_741
*1645 FILLER_132_745
*1646 FILLER_133_1464
*1647 FILLER_133_1476
*1648 FILLER_133_1488
*1649 FILLER_133_1500
*1650 FILLER_133_1504
*1651 FILLER_133_1506
*1652 FILLER_133_703
*1653 FILLER_133_715
*1654 FILLER_133_727
*1655 FILLER_133_730
*1656 FILLER_133_734
*1657 FILLER_133_737
*1658 FILLER_133_745
*1659 FILLER_134_1464
*1660 FILLER_134_1476
*1661 FILLER_134_1488
*1662 FILLER_134_1490
*1663 FILLER_134_1502
*1664 FILLER_134_1506
*1665 FILLER_134_703
*1666 FILLER_134_715
*1667 FILLER_134_718
*1668 FILLER_134_726
*1669 FILLER_134_729
*1670 FILLER_134_733
*1671 FILLER_134_737
*1672 FILLER_134_745
*1673 FILLER_135_1464
*1674 FILLER_135_1476
*1675 FILLER_135_1488
*1676 FILLER_135_1500
*1677 FILLER_135_1504
*1678 FILLER_135_1506
*1679 FILLER_135_703
*1680 FILLER_135_707
*1681 FILLER_135_727
*1682 FILLER_135_732
*1683 FILLER_136_1464
*1684 FILLER_136_1476
*1685 FILLER_136_1488
*1686 FILLER_136_1490
*1687 FILLER_136_1502
*1688 FILLER_136_1506
*1689 FILLER_136_703
*1690 FILLER_136_715
*1691 FILLER_136_718
*1692 FILLER_136_726
*1693 FILLER_136_729
*1694 FILLER_136_733
*1695 FILLER_136_737
*1696 FILLER_137_1480
*1697 FILLER_137_1492
*1698 FILLER_137_1504
*1699 FILLER_137_1506
*1700 FILLER_137_703
*1701 FILLER_137_715
*1702 FILLER_137_719
*1703 FILLER_137_746
*1704 FILLER_138_1464
*1705 FILLER_138_1476
*1706 FILLER_138_1488
*1707 FILLER_138_1490
*1708 FILLER_138_1502
*1709 FILLER_138_1506
*1710 FILLER_138_703
*1711 FILLER_138_733
*1712 FILLER_138_737
*1713 FILLER_138_745
*1714 FILLER_139_1480
*1715 FILLER_139_1492
*1716 FILLER_139_1504
*1717 FILLER_139_1506
*1718 FILLER_139_705
*1719 FILLER_139_719
*1720 FILLER_139_731
*1721 FILLER_139_743
*1722 FILLER_13_1464
*1723 FILLER_13_1476
*1724 FILLER_13_1488
*1725 FILLER_13_1500
*1726 FILLER_13_1504
*1727 FILLER_13_1506
*1728 FILLER_13_703
*1729 FILLER_13_715
*1730 FILLER_13_727
*1731 FILLER_13_739
*1732 FILLER_140_1464
*1733 FILLER_140_1476
*1734 FILLER_140_1488
*1735 FILLER_140_1490
*1736 FILLER_140_1502
*1737 FILLER_140_1506
*1738 FILLER_140_709
*1739 FILLER_140_721
*1740 FILLER_140_725
*1741 FILLER_140_727
*1742 FILLER_140_729
*1743 FILLER_140_741
*1744 FILLER_140_745
*1745 FILLER_141_1464
*1746 FILLER_141_1476
*1747 FILLER_141_1488
*1748 FILLER_141_1500
*1749 FILLER_141_1504
*1750 FILLER_141_1506
*1751 FILLER_141_720
*1752 FILLER_141_732
*1753 FILLER_141_744
*1754 FILLER_141_746
*1755 FILLER_142_1464
*1756 FILLER_142_1476
*1757 FILLER_142_1488
*1758 FILLER_142_1490
*1759 FILLER_142_1502
*1760 FILLER_142_1506
*1761 FILLER_142_720
*1762 FILLER_142_729
*1763 FILLER_142_741
*1764 FILLER_142_745
*1765 FILLER_143_1464
*1766 FILLER_143_1476
*1767 FILLER_143_1488
*1768 FILLER_143_1500
*1769 FILLER_143_1504
*1770 FILLER_143_1506
*1771 FILLER_143_711
*1772 FILLER_143_723
*1773 FILLER_143_735
*1774 FILLER_144_1464
*1775 FILLER_144_1476
*1776 FILLER_144_1488
*1777 FILLER_144_1490
*1778 FILLER_144_1502
*1779 FILLER_144_1506
*1780 FILLER_144_705
*1781 FILLER_144_717
*1782 FILLER_144_725
*1783 FILLER_144_727
*1784 FILLER_144_729
*1785 FILLER_144_741
*1786 FILLER_144_745
*1787 FILLER_145_1464
*1788 FILLER_145_1476
*1789 FILLER_145_1488
*1790 FILLER_145_1500
*1791 FILLER_145_1504
*1792 FILLER_145_1506
*1793 FILLER_145_703
*1794 FILLER_145_715
*1795 FILLER_145_727
*1796 FILLER_145_739
*1797 FILLER_146_1464
*1798 FILLER_146_1476
*1799 FILLER_146_1488
*1800 FILLER_146_1490
*1801 FILLER_146_1502
*1802 FILLER_146_1506
*1803 FILLER_146_703
*1804 FILLER_146_715
*1805 FILLER_146_727
*1806 FILLER_146_729
*1807 FILLER_146_741
*1808 FILLER_146_745
*1809 FILLER_147_1464
*1810 FILLER_147_1476
*1811 FILLER_147_1488
*1812 FILLER_147_1500
*1813 FILLER_147_1504
*1814 FILLER_147_1506
*1815 FILLER_147_703
*1816 FILLER_147_715
*1817 FILLER_147_727
*1818 FILLER_147_739
*1819 FILLER_148_1464
*1820 FILLER_148_1476
*1821 FILLER_148_1488
*1822 FILLER_148_1490
*1823 FILLER_148_1502
*1824 FILLER_148_1506
*1825 FILLER_148_703
*1826 FILLER_148_715
*1827 FILLER_148_727
*1828 FILLER_148_729
*1829 FILLER_148_741
*1830 FILLER_148_745
*1831 FILLER_149_1464
*1832 FILLER_149_1476
*1833 FILLER_149_1488
*1834 FILLER_149_1500
*1835 FILLER_149_1504
*1836 FILLER_149_1506
*1837 FILLER_149_703
*1838 FILLER_149_715
*1839 FILLER_149_727
*1840 FILLER_149_739
*1841 FILLER_14_1464
*1842 FILLER_14_1476
*1843 FILLER_14_1488
*1844 FILLER_14_1490
*1845 FILLER_14_1502
*1846 FILLER_14_1506
*1847 FILLER_14_703
*1848 FILLER_14_715
*1849 FILLER_14_727
*1850 FILLER_14_729
*1851 FILLER_14_741
*1852 FILLER_14_745
*1853 FILLER_150_1464
*1854 FILLER_150_1476
*1855 FILLER_150_1488
*1856 FILLER_150_1490
*1857 FILLER_150_1502
*1858 FILLER_150_1506
*1859 FILLER_150_703
*1860 FILLER_150_715
*1861 FILLER_150_727
*1862 FILLER_150_729
*1863 FILLER_150_741
*1864 FILLER_150_745
*1865 FILLER_151_1464
*1866 FILLER_151_1476
*1867 FILLER_151_1488
*1868 FILLER_151_1500
*1869 FILLER_151_1504
*1870 FILLER_151_1506
*1871 FILLER_151_703
*1872 FILLER_151_715
*1873 FILLER_151_727
*1874 FILLER_151_739
*1875 FILLER_152_1464
*1876 FILLER_152_1476
*1877 FILLER_152_1488
*1878 FILLER_152_1490
*1879 FILLER_152_1502
*1880 FILLER_152_1506
*1881 FILLER_152_703
*1882 FILLER_152_715
*1883 FILLER_152_727
*1884 FILLER_152_729
*1885 FILLER_152_741
*1886 FILLER_152_745
*1887 FILLER_153_1464
*1888 FILLER_153_1476
*1889 FILLER_153_1488
*1890 FILLER_153_1500
*1891 FILLER_153_1504
*1892 FILLER_153_1506
*1893 FILLER_153_703
*1894 FILLER_153_715
*1895 FILLER_153_727
*1896 FILLER_153_739
*1897 FILLER_154_1464
*1898 FILLER_154_1476
*1899 FILLER_154_1488
*1900 FILLER_154_1490
*1901 FILLER_154_1502
*1902 FILLER_154_1506
*1903 FILLER_154_703
*1904 FILLER_154_715
*1905 FILLER_154_727
*1906 FILLER_154_729
*1907 FILLER_154_741
*1908 FILLER_154_745
*1909 FILLER_155_1464
*1910 FILLER_155_1476
*1911 FILLER_155_1488
*1912 FILLER_155_1500
*1913 FILLER_155_1504
*1914 FILLER_155_1506
*1915 FILLER_155_703
*1916 FILLER_155_715
*1917 FILLER_155_727
*1918 FILLER_155_739
*1919 FILLER_156_1464
*1920 FILLER_156_1476
*1921 FILLER_156_1488
*1922 FILLER_156_1490
*1923 FILLER_156_1502
*1924 FILLER_156_1506
*1925 FILLER_156_703
*1926 FILLER_156_715
*1927 FILLER_156_727
*1928 FILLER_156_729
*1929 FILLER_156_741
*1930 FILLER_156_745
*1931 FILLER_157_1464
*1932 FILLER_157_1476
*1933 FILLER_157_1488
*1934 FILLER_157_1500
*1935 FILLER_157_1504
*1936 FILLER_157_1506
*1937 FILLER_157_703
*1938 FILLER_157_715
*1939 FILLER_157_727
*1940 FILLER_157_739
*1941 FILLER_158_1464
*1942 FILLER_158_1476
*1943 FILLER_158_1488
*1944 FILLER_158_1490
*1945 FILLER_158_1502
*1946 FILLER_158_1506
*1947 FILLER_158_703
*1948 FILLER_158_715
*1949 FILLER_158_727
*1950 FILLER_158_729
*1951 FILLER_158_741
*1952 FILLER_158_745
*1953 FILLER_159_1005
*1954 FILLER_159_1007
*1955 FILLER_159_1009
*1956 FILLER_159_1021
*1957 FILLER_159_1033
*1958 FILLER_159_1035
*1959 FILLER_159_1037
*1960 FILLER_159_1049
*1961 FILLER_159_1053
*1962 FILLER_159_1056
*1963 FILLER_159_1065
*1964 FILLER_159_1077
*1965 FILLER_159_1089
*1966 FILLER_159_109
*1967 FILLER_159_1091
*1968 FILLER_159_1093
*1969 FILLER_159_1105
*1970 FILLER_159_111
*1971 FILLER_159_1117
*1972 FILLER_159_1119
*1973 FILLER_159_1121
*1974 FILLER_159_113
*1975 FILLER_159_1133
*1976 FILLER_159_1145
*1977 FILLER_159_1147
*1978 FILLER_159_1149
*1979 FILLER_159_1161
*1980 FILLER_159_1173
*1981 FILLER_159_1175
*1982 FILLER_159_1177
*1983 FILLER_159_1189
*1984 FILLER_159_1201
*1985 FILLER_159_1203
*1986 FILLER_159_1205
*1987 FILLER_159_1217
*1988 FILLER_159_1229
*1989 FILLER_159_1231
*1990 FILLER_159_1233
*1991 FILLER_159_1245
*1992 FILLER_159_125
*1993 FILLER_159_1257
*1994 FILLER_159_1259
*1995 FILLER_159_1261
*1996 FILLER_159_1287
*1997 FILLER_159_1307
*1998 FILLER_159_1315
*1999 FILLER_159_1317
*2000 FILLER_159_1321
*2001 FILLER_159_1323
*2002 FILLER_159_1345
*2003 FILLER_159_1357
*2004 FILLER_159_1369
*2005 FILLER_159_137
*2006 FILLER_159_1371
*2007 FILLER_159_1373
*2008 FILLER_159_1385
*2009 FILLER_159_139
*2010 FILLER_159_1397
*2011 FILLER_159_1399
*2012 FILLER_159_1401
*2013 FILLER_159_141
*2014 FILLER_159_1413
*2015 FILLER_159_1425
*2016 FILLER_159_1427
*2017 FILLER_159_1429
*2018 FILLER_159_1441
*2019 FILLER_159_1453
*2020 FILLER_159_1455
*2021 FILLER_159_1457
*2022 FILLER_159_1469
*2023 FILLER_159_1481
*2024 FILLER_159_1483
*2025 FILLER_159_1485
*2026 FILLER_159_1497
*2027 FILLER_159_15
*2028 FILLER_159_1505
*2029 FILLER_159_153
*2030 FILLER_159_165
*2031 FILLER_159_167
*2032 FILLER_159_169
*2033 FILLER_159_181
*2034 FILLER_159_193
*2035 FILLER_159_195
*2036 FILLER_159_197
*2037 FILLER_159_209
*2038 FILLER_159_221
*2039 FILLER_159_223
*2040 FILLER_159_225
*2041 FILLER_159_237
*2042 FILLER_159_249
*2043 FILLER_159_251
*2044 FILLER_159_253
*2045 FILLER_159_265
*2046 FILLER_159_27
*2047 FILLER_159_277
*2048 FILLER_159_279
*2049 FILLER_159_281
*2050 FILLER_159_29
*2051 FILLER_159_293
*2052 FILLER_159_3
*2053 FILLER_159_305
*2054 FILLER_159_307
*2055 FILLER_159_309
*2056 FILLER_159_321
*2057 FILLER_159_333
*2058 FILLER_159_335
*2059 FILLER_159_337
*2060 FILLER_159_349
*2061 FILLER_159_361
*2062 FILLER_159_363
*2063 FILLER_159_365
*2064 FILLER_159_377
*2065 FILLER_159_389
*2066 FILLER_159_391
*2067 FILLER_159_393
*2068 FILLER_159_405
*2069 FILLER_159_41
*2070 FILLER_159_417
*2071 FILLER_159_419
*2072 FILLER_159_421
*2073 FILLER_159_433
*2074 FILLER_159_445
*2075 FILLER_159_447
*2076 FILLER_159_449
*2077 FILLER_159_461
*2078 FILLER_159_473
*2079 FILLER_159_475
*2080 FILLER_159_477
*2081 FILLER_159_489
*2082 FILLER_159_501
*2083 FILLER_159_503
*2084 FILLER_159_505
*2085 FILLER_159_517
*2086 FILLER_159_529
*2087 FILLER_159_53
*2088 FILLER_159_531
*2089 FILLER_159_533
*2090 FILLER_159_545
*2091 FILLER_159_55
*2092 FILLER_159_557
*2093 FILLER_159_559
*2094 FILLER_159_561
*2095 FILLER_159_57
*2096 FILLER_159_573
*2097 FILLER_159_585
*2098 FILLER_159_587
*2099 FILLER_159_600
*2100 FILLER_159_612
*2101 FILLER_159_617
*2102 FILLER_159_629
*2103 FILLER_159_641
*2104 FILLER_159_643
*2105 FILLER_159_645
*2106 FILLER_159_657
*2107 FILLER_159_669
*2108 FILLER_159_671
*2109 FILLER_159_673
*2110 FILLER_159_685
*2111 FILLER_159_69
*2112 FILLER_159_697
*2113 FILLER_159_699
*2114 FILLER_159_701
*2115 FILLER_159_713
*2116 FILLER_159_725
*2117 FILLER_159_727
*2118 FILLER_159_729
*2119 FILLER_159_741
*2120 FILLER_159_753
*2121 FILLER_159_755
*2122 FILLER_159_757
*2123 FILLER_159_769
*2124 FILLER_159_781
*2125 FILLER_159_783
*2126 FILLER_159_785
*2127 FILLER_159_797
*2128 FILLER_159_809
*2129 FILLER_159_81
*2130 FILLER_159_811
*2131 FILLER_159_813
*2132 FILLER_159_825
*2133 FILLER_159_83
*2134 FILLER_159_837
*2135 FILLER_159_839
*2136 FILLER_159_841
*2137 FILLER_159_85
*2138 FILLER_159_853
*2139 FILLER_159_865
*2140 FILLER_159_867
*2141 FILLER_159_869
*2142 FILLER_159_881
*2143 FILLER_159_893
*2144 FILLER_159_897
*2145 FILLER_159_912
*2146 FILLER_159_925
*2147 FILLER_159_937
*2148 FILLER_159_949
*2149 FILLER_159_951
*2150 FILLER_159_953
*2151 FILLER_159_957
*2152 FILLER_159_969
*2153 FILLER_159_97
*2154 FILLER_159_977
*2155 FILLER_159_979
*2156 FILLER_159_981
*2157 FILLER_159_989
*2158 FILLER_159_993
*2159 FILLER_15_1464
*2160 FILLER_15_1476
*2161 FILLER_15_1488
*2162 FILLER_15_1500
*2163 FILLER_15_1504
*2164 FILLER_15_1506
*2165 FILLER_15_703
*2166 FILLER_15_715
*2167 FILLER_15_727
*2168 FILLER_15_739
*2169 FILLER_160_1003
*2170 FILLER_160_1015
*2171 FILLER_160_1023
*2172 FILLER_160_1026
*2173 FILLER_160_1034
*2174 FILLER_160_1037
*2175 FILLER_160_1041
*2176 FILLER_160_1044
*2177 FILLER_160_1052
*2178 FILLER_160_1074
*2179 FILLER_160_1076
*2180 FILLER_160_1079
*2181 FILLER_160_109
*2182 FILLER_160_1091
*2183 FILLER_160_1093
*2184 FILLER_160_1105
*2185 FILLER_160_1117
*2186 FILLER_160_1123
*2187 FILLER_160_1135
*2188 FILLER_160_1147
*2189 FILLER_160_1149
*2190 FILLER_160_1161
*2191 FILLER_160_1173
*2192 FILLER_160_1179
*2193 FILLER_160_1191
*2194 FILLER_160_1203
*2195 FILLER_160_1205
*2196 FILLER_160_1209
*2197 FILLER_160_121
*2198 FILLER_160_1211
*2199 FILLER_160_1214
*2200 FILLER_160_1226
*2201 FILLER_160_1238
*2202 FILLER_160_1242
*2203 FILLER_160_1246
*2204 FILLER_160_1258
*2205 FILLER_160_1261
*2206 FILLER_160_1287
*2207 FILLER_160_1291
*2208 FILLER_160_1303
*2209 FILLER_160_1315
*2210 FILLER_160_1317
*2211 FILLER_160_1325
*2212 FILLER_160_133
*2213 FILLER_160_1338
*2214 FILLER_160_1350
*2215 FILLER_160_1362
*2216 FILLER_160_137
*2217 FILLER_160_1370
*2218 FILLER_160_1373
*2219 FILLER_160_1385
*2220 FILLER_160_139
*2221 FILLER_160_1397
*2222 FILLER_160_1409
*2223 FILLER_160_141
*2224 FILLER_160_1421
*2225 FILLER_160_1425
*2226 FILLER_160_1427
*2227 FILLER_160_1429
*2228 FILLER_160_1441
*2229 FILLER_160_1453
*2230 FILLER_160_1465
*2231 FILLER_160_1477
*2232 FILLER_160_1481
*2233 FILLER_160_1483
*2234 FILLER_160_1485
*2235 FILLER_160_1497
*2236 FILLER_160_15
*2237 FILLER_160_1505
*2238 FILLER_160_153
*2239 FILLER_160_165
*2240 FILLER_160_177
*2241 FILLER_160_189
*2242 FILLER_160_193
*2243 FILLER_160_195
*2244 FILLER_160_197
*2245 FILLER_160_209
*2246 FILLER_160_221
*2247 FILLER_160_233
*2248 FILLER_160_245
*2249 FILLER_160_249
*2250 FILLER_160_251
*2251 FILLER_160_253
*2252 FILLER_160_265
*2253 FILLER_160_27
*2254 FILLER_160_277
*2255 FILLER_160_289
*2256 FILLER_160_29
*2257 FILLER_160_3
*2258 FILLER_160_301
*2259 FILLER_160_305
*2260 FILLER_160_307
*2261 FILLER_160_309
*2262 FILLER_160_321
*2263 FILLER_160_333
*2264 FILLER_160_345
*2265 FILLER_160_357
*2266 FILLER_160_361
*2267 FILLER_160_363
*2268 FILLER_160_365
*2269 FILLER_160_377
*2270 FILLER_160_389
*2271 FILLER_160_401
*2272 FILLER_160_41
*2273 FILLER_160_413
*2274 FILLER_160_417
*2275 FILLER_160_419
*2276 FILLER_160_421
*2277 FILLER_160_433
*2278 FILLER_160_445
*2279 FILLER_160_457
*2280 FILLER_160_469
*2281 FILLER_160_473
*2282 FILLER_160_475
*2283 FILLER_160_477
*2284 FILLER_160_489
*2285 FILLER_160_501
*2286 FILLER_160_513
*2287 FILLER_160_525
*2288 FILLER_160_529
*2289 FILLER_160_53
*2290 FILLER_160_547
*2291 FILLER_160_559
*2292 FILLER_160_571
*2293 FILLER_160_583
*2294 FILLER_160_587
*2295 FILLER_160_589
*2296 FILLER_160_601
*2297 FILLER_160_613
*2298 FILLER_160_625
*2299 FILLER_160_637
*2300 FILLER_160_641
*2301 FILLER_160_643
*2302 FILLER_160_645
*2303 FILLER_160_65
*2304 FILLER_160_657
*2305 FILLER_160_669
*2306 FILLER_160_681
*2307 FILLER_160_693
*2308 FILLER_160_697
*2309 FILLER_160_699
*2310 FILLER_160_701
*2311 FILLER_160_713
*2312 FILLER_160_725
*2313 FILLER_160_737
*2314 FILLER_160_749
*2315 FILLER_160_753
*2316 FILLER_160_755
*2317 FILLER_160_757
*2318 FILLER_160_769
*2319 FILLER_160_77
*2320 FILLER_160_781
*2321 FILLER_160_793
*2322 FILLER_160_805
*2323 FILLER_160_809
*2324 FILLER_160_81
*2325 FILLER_160_811
*2326 FILLER_160_813
*2327 FILLER_160_825
*2328 FILLER_160_83
*2329 FILLER_160_837
*2330 FILLER_160_849
*2331 FILLER_160_85
*2332 FILLER_160_861
*2333 FILLER_160_865
*2334 FILLER_160_867
*2335 FILLER_160_869
*2336 FILLER_160_881
*2337 FILLER_160_893
*2338 FILLER_160_897
*2339 FILLER_160_899
*2340 FILLER_160_902
*2341 FILLER_160_914
*2342 FILLER_160_922
*2343 FILLER_160_925
*2344 FILLER_160_937
*2345 FILLER_160_949
*2346 FILLER_160_967
*2347 FILLER_160_97
*2348 FILLER_160_979
*2349 FILLER_160_981
*2350 FILLER_161_1005
*2351 FILLER_161_1007
*2352 FILLER_161_1009
*2353 FILLER_161_1021
*2354 FILLER_161_1036
*2355 FILLER_161_105
*2356 FILLER_161_1054
*2357 FILLER_161_1062
*2358 FILLER_161_1065
*2359 FILLER_161_1089
*2360 FILLER_161_109
*2361 FILLER_161_1100
*2362 FILLER_161_111
*2363 FILLER_161_1112
*2364 FILLER_161_113
*2365 FILLER_161_1135
*2366 FILLER_161_1147
*2367 FILLER_161_1159
*2368 FILLER_161_1171
*2369 FILLER_161_1175
*2370 FILLER_161_1189
*2371 FILLER_161_1201
*2372 FILLER_161_1209
*2373 FILLER_161_1211
*2374 FILLER_161_1224
*2375 FILLER_161_1233
*2376 FILLER_161_1241
*2377 FILLER_161_1243
*2378 FILLER_161_125
*2379 FILLER_161_1256
*2380 FILLER_161_1268
*2381 FILLER_161_1281
*2382 FILLER_161_1285
*2383 FILLER_161_1287
*2384 FILLER_161_1301
*2385 FILLER_161_1313
*2386 FILLER_161_1325
*2387 FILLER_161_1328
*2388 FILLER_161_1340
*2389 FILLER_161_1345
*2390 FILLER_161_1357
*2391 FILLER_161_1369
*2392 FILLER_161_137
*2393 FILLER_161_1381
*2394 FILLER_161_1393
*2395 FILLER_161_1397
*2396 FILLER_161_1399
*2397 FILLER_161_1401
*2398 FILLER_161_1413
*2399 FILLER_161_1425
*2400 FILLER_161_1437
*2401 FILLER_161_1449
*2402 FILLER_161_1453
*2403 FILLER_161_1455
*2404 FILLER_161_1457
*2405 FILLER_161_1469
*2406 FILLER_161_1481
*2407 FILLER_161_149
*2408 FILLER_161_1493
*2409 FILLER_161_15
*2410 FILLER_161_1505
*2411 FILLER_161_161
*2412 FILLER_161_165
*2413 FILLER_161_167
*2414 FILLER_161_169
*2415 FILLER_161_181
*2416 FILLER_161_193
*2417 FILLER_161_205
*2418 FILLER_161_217
*2419 FILLER_161_221
*2420 FILLER_161_223
*2421 FILLER_161_225
*2422 FILLER_161_237
*2423 FILLER_161_249
*2424 FILLER_161_261
*2425 FILLER_161_27
*2426 FILLER_161_273
*2427 FILLER_161_277
*2428 FILLER_161_279
*2429 FILLER_161_281
*2430 FILLER_161_293
*2431 FILLER_161_3
*2432 FILLER_161_305
*2433 FILLER_161_317
*2434 FILLER_161_329
*2435 FILLER_161_333
*2436 FILLER_161_335
*2437 FILLER_161_337
*2438 FILLER_161_349
*2439 FILLER_161_361
*2440 FILLER_161_373
*2441 FILLER_161_385
*2442 FILLER_161_389
*2443 FILLER_161_39
*2444 FILLER_161_391
*2445 FILLER_161_393
*2446 FILLER_161_405
*2447 FILLER_161_417
*2448 FILLER_161_429
*2449 FILLER_161_441
*2450 FILLER_161_445
*2451 FILLER_161_447
*2452 FILLER_161_449
*2453 FILLER_161_461
*2454 FILLER_161_473
*2455 FILLER_161_485
*2456 FILLER_161_497
*2457 FILLER_161_501
*2458 FILLER_161_503
*2459 FILLER_161_505
*2460 FILLER_161_51
*2461 FILLER_161_517
*2462 FILLER_161_529
*2463 FILLER_161_541
*2464 FILLER_161_55
*2465 FILLER_161_553
*2466 FILLER_161_557
*2467 FILLER_161_559
*2468 FILLER_161_57
*2469 FILLER_161_572
*2470 FILLER_161_574
*2471 FILLER_161_602
*2472 FILLER_161_614
*2473 FILLER_161_617
*2474 FILLER_161_629
*2475 FILLER_161_641
*2476 FILLER_161_653
*2477 FILLER_161_665
*2478 FILLER_161_669
*2479 FILLER_161_671
*2480 FILLER_161_673
*2481 FILLER_161_685
*2482 FILLER_161_69
*2483 FILLER_161_697
*2484 FILLER_161_709
*2485 FILLER_161_721
*2486 FILLER_161_725
*2487 FILLER_161_727
*2488 FILLER_161_729
*2489 FILLER_161_741
*2490 FILLER_161_753
*2491 FILLER_161_765
*2492 FILLER_161_777
*2493 FILLER_161_781
*2494 FILLER_161_783
*2495 FILLER_161_785
*2496 FILLER_161_797
*2497 FILLER_161_809
*2498 FILLER_161_81
*2499 FILLER_161_821
*2500 FILLER_161_833
*2501 FILLER_161_837
*2502 FILLER_161_839
*2503 FILLER_161_841
*2504 FILLER_161_853
*2505 FILLER_161_865
*2506 FILLER_161_877
*2507 FILLER_161_889
*2508 FILLER_161_893
*2509 FILLER_161_895
*2510 FILLER_161_897
*2511 FILLER_161_909
*2512 FILLER_161_921
*2513 FILLER_161_93
*2514 FILLER_161_933
*2515 FILLER_161_945
*2516 FILLER_161_949
*2517 FILLER_161_951
*2518 FILLER_161_953
*2519 FILLER_161_957
*2520 FILLER_161_969
*2521 FILLER_161_981
*2522 FILLER_161_989
*2523 FILLER_161_993
*2524 FILLER_162_1005
*2525 FILLER_162_1017
*2526 FILLER_162_1021
*2527 FILLER_162_1023
*2528 FILLER_162_1026
*2529 FILLER_162_1034
*2530 FILLER_162_1037
*2531 FILLER_162_1041
*2532 FILLER_162_1044
*2533 FILLER_162_1056
*2534 FILLER_162_1068
*2535 FILLER_162_1076
*2536 FILLER_162_1079
*2537 FILLER_162_109
*2538 FILLER_162_1091
*2539 FILLER_162_1093
*2540 FILLER_162_1105
*2541 FILLER_162_1117
*2542 FILLER_162_1123
*2543 FILLER_162_1135
*2544 FILLER_162_1147
*2545 FILLER_162_1149
*2546 FILLER_162_1161
*2547 FILLER_162_1173
*2548 FILLER_162_1179
*2549 FILLER_162_1191
*2550 FILLER_162_1203
*2551 FILLER_162_1205
*2552 FILLER_162_1209
*2553 FILLER_162_121
*2554 FILLER_162_1211
*2555 FILLER_162_1214
*2556 FILLER_162_1226
*2557 FILLER_162_1238
*2558 FILLER_162_1242
*2559 FILLER_162_1246
*2560 FILLER_162_1258
*2561 FILLER_162_1261
*2562 FILLER_162_1271
*2563 FILLER_162_1283
*2564 FILLER_162_1287
*2565 FILLER_162_1291
*2566 FILLER_162_1303
*2567 FILLER_162_1315
*2568 FILLER_162_1317
*2569 FILLER_162_1329
*2570 FILLER_162_133
*2571 FILLER_162_1341
*2572 FILLER_162_1353
*2573 FILLER_162_1365
*2574 FILLER_162_1369
*2575 FILLER_162_137
*2576 FILLER_162_1371
*2577 FILLER_162_1373
*2578 FILLER_162_1385
*2579 FILLER_162_139
*2580 FILLER_162_1397
*2581 FILLER_162_1409
*2582 FILLER_162_141
*2583 FILLER_162_1421
*2584 FILLER_162_1425
*2585 FILLER_162_1427
*2586 FILLER_162_1429
*2587 FILLER_162_1441
*2588 FILLER_162_1453
*2589 FILLER_162_1465
*2590 FILLER_162_1477
*2591 FILLER_162_1481
*2592 FILLER_162_1483
*2593 FILLER_162_1485
*2594 FILLER_162_1497
*2595 FILLER_162_15
*2596 FILLER_162_1505
*2597 FILLER_162_153
*2598 FILLER_162_165
*2599 FILLER_162_177
*2600 FILLER_162_189
*2601 FILLER_162_193
*2602 FILLER_162_195
*2603 FILLER_162_197
*2604 FILLER_162_209
*2605 FILLER_162_221
*2606 FILLER_162_233
*2607 FILLER_162_245
*2608 FILLER_162_249
*2609 FILLER_162_251
*2610 FILLER_162_253
*2611 FILLER_162_265
*2612 FILLER_162_27
*2613 FILLER_162_277
*2614 FILLER_162_289
*2615 FILLER_162_29
*2616 FILLER_162_3
*2617 FILLER_162_301
*2618 FILLER_162_305
*2619 FILLER_162_307
*2620 FILLER_162_309
*2621 FILLER_162_321
*2622 FILLER_162_333
*2623 FILLER_162_345
*2624 FILLER_162_357
*2625 FILLER_162_361
*2626 FILLER_162_363
*2627 FILLER_162_365
*2628 FILLER_162_377
*2629 FILLER_162_389
*2630 FILLER_162_401
*2631 FILLER_162_41
*2632 FILLER_162_413
*2633 FILLER_162_417
*2634 FILLER_162_419
*2635 FILLER_162_421
*2636 FILLER_162_433
*2637 FILLER_162_445
*2638 FILLER_162_457
*2639 FILLER_162_469
*2640 FILLER_162_473
*2641 FILLER_162_475
*2642 FILLER_162_477
*2643 FILLER_162_489
*2644 FILLER_162_501
*2645 FILLER_162_513
*2646 FILLER_162_525
*2647 FILLER_162_529
*2648 FILLER_162_53
*2649 FILLER_162_531
*2650 FILLER_162_533
*2651 FILLER_162_545
*2652 FILLER_162_557
*2653 FILLER_162_569
*2654 FILLER_162_581
*2655 FILLER_162_587
*2656 FILLER_162_589
*2657 FILLER_162_601
*2658 FILLER_162_613
*2659 FILLER_162_625
*2660 FILLER_162_637
*2661 FILLER_162_641
*2662 FILLER_162_643
*2663 FILLER_162_645
*2664 FILLER_162_65
*2665 FILLER_162_657
*2666 FILLER_162_669
*2667 FILLER_162_681
*2668 FILLER_162_693
*2669 FILLER_162_697
*2670 FILLER_162_699
*2671 FILLER_162_701
*2672 FILLER_162_713
*2673 FILLER_162_725
*2674 FILLER_162_737
*2675 FILLER_162_749
*2676 FILLER_162_753
*2677 FILLER_162_755
*2678 FILLER_162_757
*2679 FILLER_162_769
*2680 FILLER_162_77
*2681 FILLER_162_781
*2682 FILLER_162_793
*2683 FILLER_162_805
*2684 FILLER_162_809
*2685 FILLER_162_81
*2686 FILLER_162_811
*2687 FILLER_162_813
*2688 FILLER_162_825
*2689 FILLER_162_83
*2690 FILLER_162_837
*2691 FILLER_162_849
*2692 FILLER_162_85
*2693 FILLER_162_861
*2694 FILLER_162_865
*2695 FILLER_162_867
*2696 FILLER_162_869
*2697 FILLER_162_881
*2698 FILLER_162_893
*2699 FILLER_162_905
*2700 FILLER_162_917
*2701 FILLER_162_921
*2702 FILLER_162_923
*2703 FILLER_162_925
*2704 FILLER_162_937
*2705 FILLER_162_949
*2706 FILLER_162_961
*2707 FILLER_162_97
*2708 FILLER_162_973
*2709 FILLER_162_977
*2710 FILLER_162_979
*2711 FILLER_162_981
*2712 FILLER_162_993
*2713 FILLER_163_1001
*2714 FILLER_163_1005
*2715 FILLER_163_1007
*2716 FILLER_163_1009
*2717 FILLER_163_1021
*2718 FILLER_163_1033
*2719 FILLER_163_1045
*2720 FILLER_163_105
*2721 FILLER_163_1057
*2722 FILLER_163_1061
*2723 FILLER_163_1063
*2724 FILLER_163_1065
*2725 FILLER_163_1077
*2726 FILLER_163_1089
*2727 FILLER_163_109
*2728 FILLER_163_1101
*2729 FILLER_163_111
*2730 FILLER_163_1113
*2731 FILLER_163_1117
*2732 FILLER_163_1119
*2733 FILLER_163_1121
*2734 FILLER_163_113
*2735 FILLER_163_1133
*2736 FILLER_163_1145
*2737 FILLER_163_1157
*2738 FILLER_163_1169
*2739 FILLER_163_1173
*2740 FILLER_163_1175
*2741 FILLER_163_1177
*2742 FILLER_163_1189
*2743 FILLER_163_1201
*2744 FILLER_163_1213
*2745 FILLER_163_1225
*2746 FILLER_163_1229
*2747 FILLER_163_1231
*2748 FILLER_163_1233
*2749 FILLER_163_1245
*2750 FILLER_163_125
*2751 FILLER_163_1257
*2752 FILLER_163_1269
*2753 FILLER_163_1281
*2754 FILLER_163_1285
*2755 FILLER_163_1287
*2756 FILLER_163_1289
*2757 FILLER_163_1301
*2758 FILLER_163_1313
*2759 FILLER_163_1325
*2760 FILLER_163_1337
*2761 FILLER_163_1341
*2762 FILLER_163_1343
*2763 FILLER_163_1345
*2764 FILLER_163_1357
*2765 FILLER_163_1369
*2766 FILLER_163_137
*2767 FILLER_163_1381
*2768 FILLER_163_1393
*2769 FILLER_163_1397
*2770 FILLER_163_1399
*2771 FILLER_163_1401
*2772 FILLER_163_1413
*2773 FILLER_163_1425
*2774 FILLER_163_1437
*2775 FILLER_163_1449
*2776 FILLER_163_1453
*2777 FILLER_163_1455
*2778 FILLER_163_1457
*2779 FILLER_163_1469
*2780 FILLER_163_1481
*2781 FILLER_163_149
*2782 FILLER_163_1493
*2783 FILLER_163_15
*2784 FILLER_163_1505
*2785 FILLER_163_161
*2786 FILLER_163_165
*2787 FILLER_163_167
*2788 FILLER_163_169
*2789 FILLER_163_181
*2790 FILLER_163_193
*2791 FILLER_163_205
*2792 FILLER_163_217
*2793 FILLER_163_221
*2794 FILLER_163_223
*2795 FILLER_163_225
*2796 FILLER_163_237
*2797 FILLER_163_249
*2798 FILLER_163_261
*2799 FILLER_163_27
*2800 FILLER_163_273
*2801 FILLER_163_277
*2802 FILLER_163_279
*2803 FILLER_163_281
*2804 FILLER_163_293
*2805 FILLER_163_3
*2806 FILLER_163_305
*2807 FILLER_163_317
*2808 FILLER_163_329
*2809 FILLER_163_333
*2810 FILLER_163_335
*2811 FILLER_163_337
*2812 FILLER_163_349
*2813 FILLER_163_361
*2814 FILLER_163_373
*2815 FILLER_163_385
*2816 FILLER_163_389
*2817 FILLER_163_39
*2818 FILLER_163_391
*2819 FILLER_163_393
*2820 FILLER_163_405
*2821 FILLER_163_417
*2822 FILLER_163_429
*2823 FILLER_163_441
*2824 FILLER_163_445
*2825 FILLER_163_447
*2826 FILLER_163_449
*2827 FILLER_163_461
*2828 FILLER_163_473
*2829 FILLER_163_485
*2830 FILLER_163_497
*2831 FILLER_163_501
*2832 FILLER_163_503
*2833 FILLER_163_505
*2834 FILLER_163_51
*2835 FILLER_163_517
*2836 FILLER_163_529
*2837 FILLER_163_541
*2838 FILLER_163_55
*2839 FILLER_163_553
*2840 FILLER_163_557
*2841 FILLER_163_559
*2842 FILLER_163_561
*2843 FILLER_163_57
*2844 FILLER_163_573
*2845 FILLER_163_585
*2846 FILLER_163_597
*2847 FILLER_163_609
*2848 FILLER_163_613
*2849 FILLER_163_615
*2850 FILLER_163_617
*2851 FILLER_163_629
*2852 FILLER_163_641
*2853 FILLER_163_653
*2854 FILLER_163_665
*2855 FILLER_163_669
*2856 FILLER_163_671
*2857 FILLER_163_673
*2858 FILLER_163_685
*2859 FILLER_163_69
*2860 FILLER_163_697
*2861 FILLER_163_709
*2862 FILLER_163_721
*2863 FILLER_163_725
*2864 FILLER_163_727
*2865 FILLER_163_729
*2866 FILLER_163_741
*2867 FILLER_163_753
*2868 FILLER_163_765
*2869 FILLER_163_777
*2870 FILLER_163_781
*2871 FILLER_163_783
*2872 FILLER_163_785
*2873 FILLER_163_797
*2874 FILLER_163_809
*2875 FILLER_163_81
*2876 FILLER_163_821
*2877 FILLER_163_833
*2878 FILLER_163_837
*2879 FILLER_163_839
*2880 FILLER_163_841
*2881 FILLER_163_853
*2882 FILLER_163_865
*2883 FILLER_163_877
*2884 FILLER_163_889
*2885 FILLER_163_893
*2886 FILLER_163_895
*2887 FILLER_163_897
*2888 FILLER_163_909
*2889 FILLER_163_921
*2890 FILLER_163_93
*2891 FILLER_163_933
*2892 FILLER_163_945
*2893 FILLER_163_949
*2894 FILLER_163_951
*2895 FILLER_163_953
*2896 FILLER_163_965
*2897 FILLER_163_977
*2898 FILLER_163_989
*2899 FILLER_164_1005
*2900 FILLER_164_1017
*2901 FILLER_164_1029
*2902 FILLER_164_1033
*2903 FILLER_164_1035
*2904 FILLER_164_1037
*2905 FILLER_164_1049
*2906 FILLER_164_1061
*2907 FILLER_164_1073
*2908 FILLER_164_1085
*2909 FILLER_164_1089
*2910 FILLER_164_109
*2911 FILLER_164_1091
*2912 FILLER_164_1093
*2913 FILLER_164_1105
*2914 FILLER_164_1117
*2915 FILLER_164_1129
*2916 FILLER_164_1141
*2917 FILLER_164_1145
*2918 FILLER_164_1147
*2919 FILLER_164_1149
*2920 FILLER_164_1161
*2921 FILLER_164_1173
*2922 FILLER_164_1185
*2923 FILLER_164_1197
*2924 FILLER_164_1201
*2925 FILLER_164_1203
*2926 FILLER_164_1205
*2927 FILLER_164_121
*2928 FILLER_164_1217
*2929 FILLER_164_1229
*2930 FILLER_164_1241
*2931 FILLER_164_1253
*2932 FILLER_164_1257
*2933 FILLER_164_1259
*2934 FILLER_164_1261
*2935 FILLER_164_1273
*2936 FILLER_164_1285
*2937 FILLER_164_1297
*2938 FILLER_164_1309
*2939 FILLER_164_1313
*2940 FILLER_164_1315
*2941 FILLER_164_1317
*2942 FILLER_164_1329
*2943 FILLER_164_133
*2944 FILLER_164_1341
*2945 FILLER_164_1353
*2946 FILLER_164_1365
*2947 FILLER_164_1369
*2948 FILLER_164_137
*2949 FILLER_164_1371
*2950 FILLER_164_1373
*2951 FILLER_164_1385
*2952 FILLER_164_139
*2953 FILLER_164_1397
*2954 FILLER_164_1409
*2955 FILLER_164_141
*2956 FILLER_164_1421
*2957 FILLER_164_1425
*2958 FILLER_164_1427
*2959 FILLER_164_1429
*2960 FILLER_164_1441
*2961 FILLER_164_1453
*2962 FILLER_164_1465
*2963 FILLER_164_1477
*2964 FILLER_164_1481
*2965 FILLER_164_1483
*2966 FILLER_164_1485
*2967 FILLER_164_1497
*2968 FILLER_164_15
*2969 FILLER_164_1505
*2970 FILLER_164_153
*2971 FILLER_164_165
*2972 FILLER_164_177
*2973 FILLER_164_189
*2974 FILLER_164_193
*2975 FILLER_164_195
*2976 FILLER_164_197
*2977 FILLER_164_209
*2978 FILLER_164_221
*2979 FILLER_164_233
*2980 FILLER_164_245
*2981 FILLER_164_249
*2982 FILLER_164_251
*2983 FILLER_164_253
*2984 FILLER_164_265
*2985 FILLER_164_27
*2986 FILLER_164_277
*2987 FILLER_164_289
*2988 FILLER_164_29
*2989 FILLER_164_3
*2990 FILLER_164_301
*2991 FILLER_164_305
*2992 FILLER_164_307
*2993 FILLER_164_309
*2994 FILLER_164_321
*2995 FILLER_164_333
*2996 FILLER_164_345
*2997 FILLER_164_357
*2998 FILLER_164_361
*2999 FILLER_164_363
*3000 FILLER_164_365
*3001 FILLER_164_377
*3002 FILLER_164_389
*3003 FILLER_164_401
*3004 FILLER_164_41
*3005 FILLER_164_413
*3006 FILLER_164_417
*3007 FILLER_164_419
*3008 FILLER_164_421
*3009 FILLER_164_433
*3010 FILLER_164_445
*3011 FILLER_164_457
*3012 FILLER_164_469
*3013 FILLER_164_473
*3014 FILLER_164_475
*3015 FILLER_164_477
*3016 FILLER_164_489
*3017 FILLER_164_501
*3018 FILLER_164_513
*3019 FILLER_164_525
*3020 FILLER_164_529
*3021 FILLER_164_53
*3022 FILLER_164_531
*3023 FILLER_164_533
*3024 FILLER_164_545
*3025 FILLER_164_557
*3026 FILLER_164_569
*3027 FILLER_164_581
*3028 FILLER_164_585
*3029 FILLER_164_587
*3030 FILLER_164_589
*3031 FILLER_164_601
*3032 FILLER_164_613
*3033 FILLER_164_625
*3034 FILLER_164_637
*3035 FILLER_164_641
*3036 FILLER_164_643
*3037 FILLER_164_645
*3038 FILLER_164_65
*3039 FILLER_164_657
*3040 FILLER_164_669
*3041 FILLER_164_681
*3042 FILLER_164_693
*3043 FILLER_164_697
*3044 FILLER_164_699
*3045 FILLER_164_701
*3046 FILLER_164_713
*3047 FILLER_164_725
*3048 FILLER_164_737
*3049 FILLER_164_749
*3050 FILLER_164_753
*3051 FILLER_164_755
*3052 FILLER_164_757
*3053 FILLER_164_769
*3054 FILLER_164_77
*3055 FILLER_164_781
*3056 FILLER_164_793
*3057 FILLER_164_805
*3058 FILLER_164_809
*3059 FILLER_164_81
*3060 FILLER_164_811
*3061 FILLER_164_813
*3062 FILLER_164_825
*3063 FILLER_164_83
*3064 FILLER_164_837
*3065 FILLER_164_849
*3066 FILLER_164_85
*3067 FILLER_164_861
*3068 FILLER_164_865
*3069 FILLER_164_867
*3070 FILLER_164_869
*3071 FILLER_164_881
*3072 FILLER_164_893
*3073 FILLER_164_905
*3074 FILLER_164_917
*3075 FILLER_164_921
*3076 FILLER_164_923
*3077 FILLER_164_925
*3078 FILLER_164_937
*3079 FILLER_164_949
*3080 FILLER_164_961
*3081 FILLER_164_97
*3082 FILLER_164_973
*3083 FILLER_164_977
*3084 FILLER_164_979
*3085 FILLER_164_981
*3086 FILLER_164_993
*3087 FILLER_165_1001
*3088 FILLER_165_1005
*3089 FILLER_165_1007
*3090 FILLER_165_1009
*3091 FILLER_165_1021
*3092 FILLER_165_1033
*3093 FILLER_165_1045
*3094 FILLER_165_105
*3095 FILLER_165_1057
*3096 FILLER_165_1061
*3097 FILLER_165_1063
*3098 FILLER_165_1065
*3099 FILLER_165_1077
*3100 FILLER_165_1089
*3101 FILLER_165_109
*3102 FILLER_165_1101
*3103 FILLER_165_111
*3104 FILLER_165_1113
*3105 FILLER_165_1117
*3106 FILLER_165_1119
*3107 FILLER_165_1121
*3108 FILLER_165_113
*3109 FILLER_165_1133
*3110 FILLER_165_1145
*3111 FILLER_165_1157
*3112 FILLER_165_1169
*3113 FILLER_165_1173
*3114 FILLER_165_1175
*3115 FILLER_165_1177
*3116 FILLER_165_1189
*3117 FILLER_165_1201
*3118 FILLER_165_1213
*3119 FILLER_165_1225
*3120 FILLER_165_1229
*3121 FILLER_165_1231
*3122 FILLER_165_1233
*3123 FILLER_165_1245
*3124 FILLER_165_125
*3125 FILLER_165_1257
*3126 FILLER_165_1269
*3127 FILLER_165_1281
*3128 FILLER_165_1285
*3129 FILLER_165_1287
*3130 FILLER_165_1289
*3131 FILLER_165_1301
*3132 FILLER_165_1313
*3133 FILLER_165_1325
*3134 FILLER_165_1337
*3135 FILLER_165_1341
*3136 FILLER_165_1343
*3137 FILLER_165_1345
*3138 FILLER_165_1357
*3139 FILLER_165_1369
*3140 FILLER_165_137
*3141 FILLER_165_1381
*3142 FILLER_165_1393
*3143 FILLER_165_1397
*3144 FILLER_165_1399
*3145 FILLER_165_1401
*3146 FILLER_165_1413
*3147 FILLER_165_1425
*3148 FILLER_165_1437
*3149 FILLER_165_1449
*3150 FILLER_165_1453
*3151 FILLER_165_1455
*3152 FILLER_165_1457
*3153 FILLER_165_1469
*3154 FILLER_165_1481
*3155 FILLER_165_149
*3156 FILLER_165_1493
*3157 FILLER_165_15
*3158 FILLER_165_1505
*3159 FILLER_165_161
*3160 FILLER_165_165
*3161 FILLER_165_167
*3162 FILLER_165_169
*3163 FILLER_165_181
*3164 FILLER_165_193
*3165 FILLER_165_205
*3166 FILLER_165_217
*3167 FILLER_165_221
*3168 FILLER_165_223
*3169 FILLER_165_225
*3170 FILLER_165_237
*3171 FILLER_165_249
*3172 FILLER_165_261
*3173 FILLER_165_27
*3174 FILLER_165_273
*3175 FILLER_165_277
*3176 FILLER_165_279
*3177 FILLER_165_281
*3178 FILLER_165_293
*3179 FILLER_165_3
*3180 FILLER_165_305
*3181 FILLER_165_317
*3182 FILLER_165_329
*3183 FILLER_165_333
*3184 FILLER_165_335
*3185 FILLER_165_337
*3186 FILLER_165_349
*3187 FILLER_165_361
*3188 FILLER_165_373
*3189 FILLER_165_385
*3190 FILLER_165_389
*3191 FILLER_165_39
*3192 FILLER_165_391
*3193 FILLER_165_393
*3194 FILLER_165_405
*3195 FILLER_165_417
*3196 FILLER_165_429
*3197 FILLER_165_441
*3198 FILLER_165_445
*3199 FILLER_165_447
*3200 FILLER_165_449
*3201 FILLER_165_461
*3202 FILLER_165_473
*3203 FILLER_165_485
*3204 FILLER_165_497
*3205 FILLER_165_501
*3206 FILLER_165_503
*3207 FILLER_165_505
*3208 FILLER_165_51
*3209 FILLER_165_517
*3210 FILLER_165_529
*3211 FILLER_165_541
*3212 FILLER_165_55
*3213 FILLER_165_553
*3214 FILLER_165_557
*3215 FILLER_165_559
*3216 FILLER_165_561
*3217 FILLER_165_57
*3218 FILLER_165_573
*3219 FILLER_165_585
*3220 FILLER_165_597
*3221 FILLER_165_609
*3222 FILLER_165_613
*3223 FILLER_165_615
*3224 FILLER_165_617
*3225 FILLER_165_629
*3226 FILLER_165_641
*3227 FILLER_165_653
*3228 FILLER_165_665
*3229 FILLER_165_669
*3230 FILLER_165_671
*3231 FILLER_165_673
*3232 FILLER_165_685
*3233 FILLER_165_69
*3234 FILLER_165_697
*3235 FILLER_165_709
*3236 FILLER_165_721
*3237 FILLER_165_725
*3238 FILLER_165_727
*3239 FILLER_165_729
*3240 FILLER_165_741
*3241 FILLER_165_753
*3242 FILLER_165_765
*3243 FILLER_165_777
*3244 FILLER_165_781
*3245 FILLER_165_783
*3246 FILLER_165_785
*3247 FILLER_165_797
*3248 FILLER_165_809
*3249 FILLER_165_81
*3250 FILLER_165_821
*3251 FILLER_165_833
*3252 FILLER_165_837
*3253 FILLER_165_839
*3254 FILLER_165_841
*3255 FILLER_165_853
*3256 FILLER_165_865
*3257 FILLER_165_877
*3258 FILLER_165_889
*3259 FILLER_165_893
*3260 FILLER_165_895
*3261 FILLER_165_897
*3262 FILLER_165_909
*3263 FILLER_165_921
*3264 FILLER_165_93
*3265 FILLER_165_933
*3266 FILLER_165_945
*3267 FILLER_165_949
*3268 FILLER_165_951
*3269 FILLER_165_953
*3270 FILLER_165_965
*3271 FILLER_165_977
*3272 FILLER_165_989
*3273 FILLER_166_1005
*3274 FILLER_166_1017
*3275 FILLER_166_1029
*3276 FILLER_166_1033
*3277 FILLER_166_1035
*3278 FILLER_166_1037
*3279 FILLER_166_1049
*3280 FILLER_166_1061
*3281 FILLER_166_1073
*3282 FILLER_166_1085
*3283 FILLER_166_1089
*3284 FILLER_166_109
*3285 FILLER_166_1091
*3286 FILLER_166_1093
*3287 FILLER_166_1105
*3288 FILLER_166_1117
*3289 FILLER_166_1129
*3290 FILLER_166_1141
*3291 FILLER_166_1145
*3292 FILLER_166_1147
*3293 FILLER_166_1149
*3294 FILLER_166_1161
*3295 FILLER_166_1173
*3296 FILLER_166_1185
*3297 FILLER_166_1197
*3298 FILLER_166_1201
*3299 FILLER_166_1203
*3300 FILLER_166_1205
*3301 FILLER_166_121
*3302 FILLER_166_1217
*3303 FILLER_166_1229
*3304 FILLER_166_1241
*3305 FILLER_166_1253
*3306 FILLER_166_1257
*3307 FILLER_166_1259
*3308 FILLER_166_1261
*3309 FILLER_166_1273
*3310 FILLER_166_1285
*3311 FILLER_166_1297
*3312 FILLER_166_1309
*3313 FILLER_166_1313
*3314 FILLER_166_1315
*3315 FILLER_166_1317
*3316 FILLER_166_1329
*3317 FILLER_166_133
*3318 FILLER_166_1341
*3319 FILLER_166_1353
*3320 FILLER_166_1365
*3321 FILLER_166_1369
*3322 FILLER_166_137
*3323 FILLER_166_1371
*3324 FILLER_166_1373
*3325 FILLER_166_1385
*3326 FILLER_166_139
*3327 FILLER_166_1397
*3328 FILLER_166_1409
*3329 FILLER_166_141
*3330 FILLER_166_1421
*3331 FILLER_166_1425
*3332 FILLER_166_1427
*3333 FILLER_166_1429
*3334 FILLER_166_1441
*3335 FILLER_166_1453
*3336 FILLER_166_1465
*3337 FILLER_166_1477
*3338 FILLER_166_1481
*3339 FILLER_166_1483
*3340 FILLER_166_1485
*3341 FILLER_166_1497
*3342 FILLER_166_15
*3343 FILLER_166_1505
*3344 FILLER_166_153
*3345 FILLER_166_165
*3346 FILLER_166_177
*3347 FILLER_166_189
*3348 FILLER_166_193
*3349 FILLER_166_195
*3350 FILLER_166_197
*3351 FILLER_166_209
*3352 FILLER_166_221
*3353 FILLER_166_233
*3354 FILLER_166_245
*3355 FILLER_166_249
*3356 FILLER_166_251
*3357 FILLER_166_253
*3358 FILLER_166_265
*3359 FILLER_166_27
*3360 FILLER_166_277
*3361 FILLER_166_289
*3362 FILLER_166_29
*3363 FILLER_166_3
*3364 FILLER_166_301
*3365 FILLER_166_305
*3366 FILLER_166_307
*3367 FILLER_166_309
*3368 FILLER_166_321
*3369 FILLER_166_333
*3370 FILLER_166_345
*3371 FILLER_166_357
*3372 FILLER_166_361
*3373 FILLER_166_363
*3374 FILLER_166_365
*3375 FILLER_166_377
*3376 FILLER_166_389
*3377 FILLER_166_401
*3378 FILLER_166_41
*3379 FILLER_166_413
*3380 FILLER_166_417
*3381 FILLER_166_419
*3382 FILLER_166_421
*3383 FILLER_166_433
*3384 FILLER_166_445
*3385 FILLER_166_457
*3386 FILLER_166_469
*3387 FILLER_166_473
*3388 FILLER_166_475
*3389 FILLER_166_477
*3390 FILLER_166_489
*3391 FILLER_166_501
*3392 FILLER_166_513
*3393 FILLER_166_525
*3394 FILLER_166_529
*3395 FILLER_166_53
*3396 FILLER_166_531
*3397 FILLER_166_533
*3398 FILLER_166_545
*3399 FILLER_166_557
*3400 FILLER_166_569
*3401 FILLER_166_581
*3402 FILLER_166_585
*3403 FILLER_166_587
*3404 FILLER_166_589
*3405 FILLER_166_601
*3406 FILLER_166_613
*3407 FILLER_166_625
*3408 FILLER_166_637
*3409 FILLER_166_641
*3410 FILLER_166_643
*3411 FILLER_166_645
*3412 FILLER_166_65
*3413 FILLER_166_657
*3414 FILLER_166_669
*3415 FILLER_166_681
*3416 FILLER_166_693
*3417 FILLER_166_697
*3418 FILLER_166_699
*3419 FILLER_166_701
*3420 FILLER_166_713
*3421 FILLER_166_725
*3422 FILLER_166_737
*3423 FILLER_166_749
*3424 FILLER_166_753
*3425 FILLER_166_755
*3426 FILLER_166_757
*3427 FILLER_166_769
*3428 FILLER_166_77
*3429 FILLER_166_781
*3430 FILLER_166_793
*3431 FILLER_166_805
*3432 FILLER_166_809
*3433 FILLER_166_81
*3434 FILLER_166_811
*3435 FILLER_166_813
*3436 FILLER_166_825
*3437 FILLER_166_83
*3438 FILLER_166_837
*3439 FILLER_166_849
*3440 FILLER_166_85
*3441 FILLER_166_861
*3442 FILLER_166_865
*3443 FILLER_166_867
*3444 FILLER_166_869
*3445 FILLER_166_881
*3446 FILLER_166_893
*3447 FILLER_166_905
*3448 FILLER_166_917
*3449 FILLER_166_921
*3450 FILLER_166_923
*3451 FILLER_166_925
*3452 FILLER_166_937
*3453 FILLER_166_949
*3454 FILLER_166_961
*3455 FILLER_166_97
*3456 FILLER_166_973
*3457 FILLER_166_977
*3458 FILLER_166_979
*3459 FILLER_166_981
*3460 FILLER_166_993
*3461 FILLER_167_1001
*3462 FILLER_167_1005
*3463 FILLER_167_1007
*3464 FILLER_167_1009
*3465 FILLER_167_1021
*3466 FILLER_167_1033
*3467 FILLER_167_1045
*3468 FILLER_167_105
*3469 FILLER_167_1057
*3470 FILLER_167_1061
*3471 FILLER_167_1063
*3472 FILLER_167_1065
*3473 FILLER_167_1077
*3474 FILLER_167_1089
*3475 FILLER_167_109
*3476 FILLER_167_1101
*3477 FILLER_167_111
*3478 FILLER_167_1113
*3479 FILLER_167_1117
*3480 FILLER_167_1119
*3481 FILLER_167_1121
*3482 FILLER_167_113
*3483 FILLER_167_1133
*3484 FILLER_167_1145
*3485 FILLER_167_1157
*3486 FILLER_167_1169
*3487 FILLER_167_1173
*3488 FILLER_167_1175
*3489 FILLER_167_1177
*3490 FILLER_167_1189
*3491 FILLER_167_1201
*3492 FILLER_167_1213
*3493 FILLER_167_1225
*3494 FILLER_167_1229
*3495 FILLER_167_1231
*3496 FILLER_167_1233
*3497 FILLER_167_1245
*3498 FILLER_167_125
*3499 FILLER_167_1257
*3500 FILLER_167_1269
*3501 FILLER_167_1281
*3502 FILLER_167_1285
*3503 FILLER_167_1287
*3504 FILLER_167_1289
*3505 FILLER_167_1301
*3506 FILLER_167_1313
*3507 FILLER_167_1325
*3508 FILLER_167_1337
*3509 FILLER_167_1341
*3510 FILLER_167_1343
*3511 FILLER_167_1345
*3512 FILLER_167_1357
*3513 FILLER_167_1369
*3514 FILLER_167_137
*3515 FILLER_167_1381
*3516 FILLER_167_1393
*3517 FILLER_167_1397
*3518 FILLER_167_1399
*3519 FILLER_167_1401
*3520 FILLER_167_1413
*3521 FILLER_167_1425
*3522 FILLER_167_1437
*3523 FILLER_167_1449
*3524 FILLER_167_1453
*3525 FILLER_167_1455
*3526 FILLER_167_1457
*3527 FILLER_167_1469
*3528 FILLER_167_1481
*3529 FILLER_167_149
*3530 FILLER_167_1493
*3531 FILLER_167_15
*3532 FILLER_167_1505
*3533 FILLER_167_161
*3534 FILLER_167_165
*3535 FILLER_167_167
*3536 FILLER_167_169
*3537 FILLER_167_181
*3538 FILLER_167_193
*3539 FILLER_167_205
*3540 FILLER_167_217
*3541 FILLER_167_221
*3542 FILLER_167_223
*3543 FILLER_167_225
*3544 FILLER_167_237
*3545 FILLER_167_249
*3546 FILLER_167_261
*3547 FILLER_167_27
*3548 FILLER_167_273
*3549 FILLER_167_277
*3550 FILLER_167_279
*3551 FILLER_167_281
*3552 FILLER_167_293
*3553 FILLER_167_3
*3554 FILLER_167_305
*3555 FILLER_167_317
*3556 FILLER_167_329
*3557 FILLER_167_333
*3558 FILLER_167_335
*3559 FILLER_167_337
*3560 FILLER_167_349
*3561 FILLER_167_361
*3562 FILLER_167_373
*3563 FILLER_167_385
*3564 FILLER_167_389
*3565 FILLER_167_39
*3566 FILLER_167_391
*3567 FILLER_167_393
*3568 FILLER_167_405
*3569 FILLER_167_417
*3570 FILLER_167_429
*3571 FILLER_167_441
*3572 FILLER_167_445
*3573 FILLER_167_447
*3574 FILLER_167_449
*3575 FILLER_167_461
*3576 FILLER_167_473
*3577 FILLER_167_485
*3578 FILLER_167_497
*3579 FILLER_167_501
*3580 FILLER_167_503
*3581 FILLER_167_505
*3582 FILLER_167_51
*3583 FILLER_167_517
*3584 FILLER_167_529
*3585 FILLER_167_541
*3586 FILLER_167_55
*3587 FILLER_167_553
*3588 FILLER_167_557
*3589 FILLER_167_559
*3590 FILLER_167_561
*3591 FILLER_167_57
*3592 FILLER_167_573
*3593 FILLER_167_585
*3594 FILLER_167_597
*3595 FILLER_167_609
*3596 FILLER_167_613
*3597 FILLER_167_615
*3598 FILLER_167_617
*3599 FILLER_167_629
*3600 FILLER_167_641
*3601 FILLER_167_653
*3602 FILLER_167_665
*3603 FILLER_167_669
*3604 FILLER_167_671
*3605 FILLER_167_673
*3606 FILLER_167_685
*3607 FILLER_167_69
*3608 FILLER_167_697
*3609 FILLER_167_709
*3610 FILLER_167_721
*3611 FILLER_167_725
*3612 FILLER_167_727
*3613 FILLER_167_729
*3614 FILLER_167_741
*3615 FILLER_167_753
*3616 FILLER_167_765
*3617 FILLER_167_777
*3618 FILLER_167_781
*3619 FILLER_167_783
*3620 FILLER_167_785
*3621 FILLER_167_797
*3622 FILLER_167_809
*3623 FILLER_167_81
*3624 FILLER_167_821
*3625 FILLER_167_833
*3626 FILLER_167_837
*3627 FILLER_167_839
*3628 FILLER_167_841
*3629 FILLER_167_853
*3630 FILLER_167_865
*3631 FILLER_167_877
*3632 FILLER_167_889
*3633 FILLER_167_893
*3634 FILLER_167_895
*3635 FILLER_167_897
*3636 FILLER_167_909
*3637 FILLER_167_921
*3638 FILLER_167_93
*3639 FILLER_167_933
*3640 FILLER_167_945
*3641 FILLER_167_949
*3642 FILLER_167_951
*3643 FILLER_167_953
*3644 FILLER_167_965
*3645 FILLER_167_977
*3646 FILLER_167_989
*3647 FILLER_168_1005
*3648 FILLER_168_1017
*3649 FILLER_168_1029
*3650 FILLER_168_1033
*3651 FILLER_168_1035
*3652 FILLER_168_1037
*3653 FILLER_168_1049
*3654 FILLER_168_1053
*3655 FILLER_168_1074
*3656 FILLER_168_1086
*3657 FILLER_168_109
*3658 FILLER_168_1090
*3659 FILLER_168_1093
*3660 FILLER_168_1105
*3661 FILLER_168_1117
*3662 FILLER_168_1129
*3663 FILLER_168_1141
*3664 FILLER_168_1145
*3665 FILLER_168_1147
*3666 FILLER_168_1149
*3667 FILLER_168_1161
*3668 FILLER_168_1173
*3669 FILLER_168_1185
*3670 FILLER_168_1197
*3671 FILLER_168_1201
*3672 FILLER_168_1203
*3673 FILLER_168_1205
*3674 FILLER_168_121
*3675 FILLER_168_1217
*3676 FILLER_168_1229
*3677 FILLER_168_1241
*3678 FILLER_168_1253
*3679 FILLER_168_1257
*3680 FILLER_168_1259
*3681 FILLER_168_1261
*3682 FILLER_168_1273
*3683 FILLER_168_1285
*3684 FILLER_168_1297
*3685 FILLER_168_1309
*3686 FILLER_168_1313
*3687 FILLER_168_1315
*3688 FILLER_168_1317
*3689 FILLER_168_1329
*3690 FILLER_168_133
*3691 FILLER_168_1341
*3692 FILLER_168_1353
*3693 FILLER_168_1365
*3694 FILLER_168_1369
*3695 FILLER_168_137
*3696 FILLER_168_1371
*3697 FILLER_168_1373
*3698 FILLER_168_1385
*3699 FILLER_168_139
*3700 FILLER_168_1397
*3701 FILLER_168_1409
*3702 FILLER_168_141
*3703 FILLER_168_1421
*3704 FILLER_168_1425
*3705 FILLER_168_1427
*3706 FILLER_168_1429
*3707 FILLER_168_1441
*3708 FILLER_168_1453
*3709 FILLER_168_1465
*3710 FILLER_168_1477
*3711 FILLER_168_1481
*3712 FILLER_168_1483
*3713 FILLER_168_1485
*3714 FILLER_168_1497
*3715 FILLER_168_15
*3716 FILLER_168_1505
*3717 FILLER_168_153
*3718 FILLER_168_165
*3719 FILLER_168_177
*3720 FILLER_168_189
*3721 FILLER_168_193
*3722 FILLER_168_195
*3723 FILLER_168_197
*3724 FILLER_168_209
*3725 FILLER_168_221
*3726 FILLER_168_233
*3727 FILLER_168_245
*3728 FILLER_168_249
*3729 FILLER_168_251
*3730 FILLER_168_253
*3731 FILLER_168_265
*3732 FILLER_168_27
*3733 FILLER_168_277
*3734 FILLER_168_289
*3735 FILLER_168_29
*3736 FILLER_168_3
*3737 FILLER_168_301
*3738 FILLER_168_305
*3739 FILLER_168_307
*3740 FILLER_168_309
*3741 FILLER_168_321
*3742 FILLER_168_333
*3743 FILLER_168_345
*3744 FILLER_168_357
*3745 FILLER_168_361
*3746 FILLER_168_363
*3747 FILLER_168_365
*3748 FILLER_168_377
*3749 FILLER_168_389
*3750 FILLER_168_401
*3751 FILLER_168_41
*3752 FILLER_168_413
*3753 FILLER_168_417
*3754 FILLER_168_419
*3755 FILLER_168_421
*3756 FILLER_168_433
*3757 FILLER_168_445
*3758 FILLER_168_457
*3759 FILLER_168_469
*3760 FILLER_168_473
*3761 FILLER_168_475
*3762 FILLER_168_477
*3763 FILLER_168_489
*3764 FILLER_168_501
*3765 FILLER_168_513
*3766 FILLER_168_525
*3767 FILLER_168_529
*3768 FILLER_168_53
*3769 FILLER_168_531
*3770 FILLER_168_533
*3771 FILLER_168_545
*3772 FILLER_168_557
*3773 FILLER_168_569
*3774 FILLER_168_581
*3775 FILLER_168_585
*3776 FILLER_168_587
*3777 FILLER_168_589
*3778 FILLER_168_601
*3779 FILLER_168_613
*3780 FILLER_168_625
*3781 FILLER_168_637
*3782 FILLER_168_641
*3783 FILLER_168_643
*3784 FILLER_168_645
*3785 FILLER_168_65
*3786 FILLER_168_657
*3787 FILLER_168_669
*3788 FILLER_168_681
*3789 FILLER_168_693
*3790 FILLER_168_697
*3791 FILLER_168_699
*3792 FILLER_168_701
*3793 FILLER_168_713
*3794 FILLER_168_725
*3795 FILLER_168_737
*3796 FILLER_168_749
*3797 FILLER_168_753
*3798 FILLER_168_755
*3799 FILLER_168_757
*3800 FILLER_168_769
*3801 FILLER_168_77
*3802 FILLER_168_781
*3803 FILLER_168_793
*3804 FILLER_168_805
*3805 FILLER_168_809
*3806 FILLER_168_81
*3807 FILLER_168_811
*3808 FILLER_168_813
*3809 FILLER_168_825
*3810 FILLER_168_83
*3811 FILLER_168_837
*3812 FILLER_168_849
*3813 FILLER_168_85
*3814 FILLER_168_861
*3815 FILLER_168_865
*3816 FILLER_168_867
*3817 FILLER_168_869
*3818 FILLER_168_881
*3819 FILLER_168_893
*3820 FILLER_168_905
*3821 FILLER_168_917
*3822 FILLER_168_921
*3823 FILLER_168_923
*3824 FILLER_168_925
*3825 FILLER_168_937
*3826 FILLER_168_949
*3827 FILLER_168_961
*3828 FILLER_168_97
*3829 FILLER_168_973
*3830 FILLER_168_977
*3831 FILLER_168_979
*3832 FILLER_168_981
*3833 FILLER_168_993
*3834 FILLER_169_1005
*3835 FILLER_169_1007
*3836 FILLER_169_1009
*3837 FILLER_169_1021
*3838 FILLER_169_1033
*3839 FILLER_169_1035
*3840 FILLER_169_1037
*3841 FILLER_169_1049
*3842 FILLER_169_1053
*3843 FILLER_169_1060
*3844 FILLER_169_1065
*3845 FILLER_169_1077
*3846 FILLER_169_1089
*3847 FILLER_169_109
*3848 FILLER_169_1091
*3849 FILLER_169_1093
*3850 FILLER_169_1105
*3851 FILLER_169_111
*3852 FILLER_169_1117
*3853 FILLER_169_1119
*3854 FILLER_169_1121
*3855 FILLER_169_113
*3856 FILLER_169_1133
*3857 FILLER_169_1145
*3858 FILLER_169_1147
*3859 FILLER_169_1149
*3860 FILLER_169_1161
*3861 FILLER_169_1173
*3862 FILLER_169_1175
*3863 FILLER_169_1177
*3864 FILLER_169_1189
*3865 FILLER_169_1201
*3866 FILLER_169_1203
*3867 FILLER_169_1205
*3868 FILLER_169_1217
*3869 FILLER_169_1229
*3870 FILLER_169_1231
*3871 FILLER_169_1233
*3872 FILLER_169_1245
*3873 FILLER_169_125
*3874 FILLER_169_1257
*3875 FILLER_169_1259
*3876 FILLER_169_1261
*3877 FILLER_169_1273
*3878 FILLER_169_1285
*3879 FILLER_169_1287
*3880 FILLER_169_1289
*3881 FILLER_169_1301
*3882 FILLER_169_1313
*3883 FILLER_169_1315
*3884 FILLER_169_1317
*3885 FILLER_169_1329
*3886 FILLER_169_1341
*3887 FILLER_169_1343
*3888 FILLER_169_1345
*3889 FILLER_169_1357
*3890 FILLER_169_1369
*3891 FILLER_169_137
*3892 FILLER_169_1371
*3893 FILLER_169_1373
*3894 FILLER_169_1385
*3895 FILLER_169_139
*3896 FILLER_169_1397
*3897 FILLER_169_1399
*3898 FILLER_169_1401
*3899 FILLER_169_141
*3900 FILLER_169_1413
*3901 FILLER_169_1425
*3902 FILLER_169_1427
*3903 FILLER_169_1429
*3904 FILLER_169_1441
*3905 FILLER_169_1453
*3906 FILLER_169_1455
*3907 FILLER_169_1457
*3908 FILLER_169_1469
*3909 FILLER_169_1481
*3910 FILLER_169_1483
*3911 FILLER_169_1485
*3912 FILLER_169_1497
*3913 FILLER_169_15
*3914 FILLER_169_1505
*3915 FILLER_169_153
*3916 FILLER_169_165
*3917 FILLER_169_167
*3918 FILLER_169_169
*3919 FILLER_169_181
*3920 FILLER_169_193
*3921 FILLER_169_195
*3922 FILLER_169_197
*3923 FILLER_169_209
*3924 FILLER_169_221
*3925 FILLER_169_223
*3926 FILLER_169_225
*3927 FILLER_169_237
*3928 FILLER_169_249
*3929 FILLER_169_251
*3930 FILLER_169_253
*3931 FILLER_169_265
*3932 FILLER_169_27
*3933 FILLER_169_277
*3934 FILLER_169_279
*3935 FILLER_169_281
*3936 FILLER_169_29
*3937 FILLER_169_293
*3938 FILLER_169_3
*3939 FILLER_169_305
*3940 FILLER_169_307
*3941 FILLER_169_309
*3942 FILLER_169_321
*3943 FILLER_169_333
*3944 FILLER_169_335
*3945 FILLER_169_337
*3946 FILLER_169_349
*3947 FILLER_169_361
*3948 FILLER_169_363
*3949 FILLER_169_365
*3950 FILLER_169_377
*3951 FILLER_169_389
*3952 FILLER_169_391
*3953 FILLER_169_393
*3954 FILLER_169_405
*3955 FILLER_169_41
*3956 FILLER_169_417
*3957 FILLER_169_419
*3958 FILLER_169_421
*3959 FILLER_169_433
*3960 FILLER_169_445
*3961 FILLER_169_447
*3962 FILLER_169_449
*3963 FILLER_169_461
*3964 FILLER_169_473
*3965 FILLER_169_475
*3966 FILLER_169_477
*3967 FILLER_169_489
*3968 FILLER_169_501
*3969 FILLER_169_503
*3970 FILLER_169_505
*3971 FILLER_169_517
*3972 FILLER_169_529
*3973 FILLER_169_53
*3974 FILLER_169_531
*3975 FILLER_169_533
*3976 FILLER_169_545
*3977 FILLER_169_55
*3978 FILLER_169_557
*3979 FILLER_169_559
*3980 FILLER_169_561
*3981 FILLER_169_57
*3982 FILLER_169_573
*3983 FILLER_169_585
*3984 FILLER_169_587
*3985 FILLER_169_589
*3986 FILLER_169_601
*3987 FILLER_169_613
*3988 FILLER_169_615
*3989 FILLER_169_617
*3990 FILLER_169_629
*3991 FILLER_169_641
*3992 FILLER_169_643
*3993 FILLER_169_645
*3994 FILLER_169_657
*3995 FILLER_169_669
*3996 FILLER_169_671
*3997 FILLER_169_673
*3998 FILLER_169_685
*3999 FILLER_169_69
*4000 FILLER_169_697
*4001 FILLER_169_699
*4002 FILLER_169_701
*4003 FILLER_169_713
*4004 FILLER_169_725
*4005 FILLER_169_727
*4006 FILLER_169_729
*4007 FILLER_169_741
*4008 FILLER_169_753
*4009 FILLER_169_755
*4010 FILLER_169_757
*4011 FILLER_169_769
*4012 FILLER_169_781
*4013 FILLER_169_783
*4014 FILLER_169_785
*4015 FILLER_169_797
*4016 FILLER_169_809
*4017 FILLER_169_81
*4018 FILLER_169_811
*4019 FILLER_169_813
*4020 FILLER_169_825
*4021 FILLER_169_83
*4022 FILLER_169_837
*4023 FILLER_169_839
*4024 FILLER_169_841
*4025 FILLER_169_85
*4026 FILLER_169_853
*4027 FILLER_169_865
*4028 FILLER_169_867
*4029 FILLER_169_869
*4030 FILLER_169_881
*4031 FILLER_169_893
*4032 FILLER_169_895
*4033 FILLER_169_897
*4034 FILLER_169_909
*4035 FILLER_169_921
*4036 FILLER_169_923
*4037 FILLER_169_925
*4038 FILLER_169_937
*4039 FILLER_169_949
*4040 FILLER_169_951
*4041 FILLER_169_953
*4042 FILLER_169_965
*4043 FILLER_169_97
*4044 FILLER_169_977
*4045 FILLER_169_979
*4046 FILLER_169_981
*4047 FILLER_169_993
*4048 FILLER_16_1464
*4049 FILLER_16_1476
*4050 FILLER_16_1488
*4051 FILLER_16_1490
*4052 FILLER_16_1502
*4053 FILLER_16_1506
*4054 FILLER_16_703
*4055 FILLER_16_715
*4056 FILLER_16_727
*4057 FILLER_16_729
*4058 FILLER_16_741
*4059 FILLER_16_745
*4060 FILLER_170_1464
*4061 FILLER_170_1476
*4062 FILLER_170_1488
*4063 FILLER_170_1490
*4064 FILLER_170_1502
*4065 FILLER_170_1506
*4066 FILLER_170_703
*4067 FILLER_170_715
*4068 FILLER_170_727
*4069 FILLER_170_729
*4070 FILLER_170_741
*4071 FILLER_170_745
*4072 FILLER_171_1464
*4073 FILLER_171_1476
*4074 FILLER_171_1488
*4075 FILLER_171_1500
*4076 FILLER_171_1504
*4077 FILLER_171_1506
*4078 FILLER_171_703
*4079 FILLER_171_715
*4080 FILLER_171_727
*4081 FILLER_171_739
*4082 FILLER_172_1464
*4083 FILLER_172_1476
*4084 FILLER_172_1488
*4085 FILLER_172_1490
*4086 FILLER_172_1502
*4087 FILLER_172_1506
*4088 FILLER_172_703
*4089 FILLER_172_715
*4090 FILLER_172_727
*4091 FILLER_172_729
*4092 FILLER_172_741
*4093 FILLER_172_745
*4094 FILLER_173_1464
*4095 FILLER_173_1476
*4096 FILLER_173_1488
*4097 FILLER_173_1500
*4098 FILLER_173_1504
*4099 FILLER_173_1506
*4100 FILLER_173_703
*4101 FILLER_173_715
*4102 FILLER_173_727
*4103 FILLER_173_739
*4104 FILLER_174_1464
*4105 FILLER_174_1476
*4106 FILLER_174_1488
*4107 FILLER_174_1490
*4108 FILLER_174_1502
*4109 FILLER_174_1506
*4110 FILLER_174_703
*4111 FILLER_174_715
*4112 FILLER_174_727
*4113 FILLER_174_729
*4114 FILLER_174_741
*4115 FILLER_174_745
*4116 FILLER_175_1464
*4117 FILLER_175_1476
*4118 FILLER_175_1488
*4119 FILLER_175_1500
*4120 FILLER_175_1504
*4121 FILLER_175_1506
*4122 FILLER_175_703
*4123 FILLER_175_715
*4124 FILLER_175_727
*4125 FILLER_175_739
*4126 FILLER_176_1464
*4127 FILLER_176_1476
*4128 FILLER_176_1488
*4129 FILLER_176_1490
*4130 FILLER_176_1502
*4131 FILLER_176_1506
*4132 FILLER_176_703
*4133 FILLER_176_715
*4134 FILLER_176_727
*4135 FILLER_176_729
*4136 FILLER_176_741
*4137 FILLER_176_745
*4138 FILLER_177_1464
*4139 FILLER_177_1476
*4140 FILLER_177_1488
*4141 FILLER_177_1500
*4142 FILLER_177_1504
*4143 FILLER_177_1506
*4144 FILLER_177_703
*4145 FILLER_177_715
*4146 FILLER_177_727
*4147 FILLER_177_739
*4148 FILLER_178_1464
*4149 FILLER_178_1476
*4150 FILLER_178_1488
*4151 FILLER_178_1490
*4152 FILLER_178_1502
*4153 FILLER_178_1506
*4154 FILLER_178_703
*4155 FILLER_178_715
*4156 FILLER_178_727
*4157 FILLER_178_729
*4158 FILLER_178_741
*4159 FILLER_178_745
*4160 FILLER_179_1464
*4161 FILLER_179_1476
*4162 FILLER_179_1488
*4163 FILLER_179_1500
*4164 FILLER_179_1504
*4165 FILLER_179_1506
*4166 FILLER_179_703
*4167 FILLER_179_715
*4168 FILLER_179_727
*4169 FILLER_179_739
*4170 FILLER_17_1464
*4171 FILLER_17_1476
*4172 FILLER_17_1488
*4173 FILLER_17_1500
*4174 FILLER_17_1504
*4175 FILLER_17_1506
*4176 FILLER_17_703
*4177 FILLER_17_715
*4178 FILLER_17_727
*4179 FILLER_17_739
*4180 FILLER_180_1464
*4181 FILLER_180_1476
*4182 FILLER_180_1488
*4183 FILLER_180_1490
*4184 FILLER_180_1502
*4185 FILLER_180_1506
*4186 FILLER_180_703
*4187 FILLER_180_715
*4188 FILLER_180_727
*4189 FILLER_180_729
*4190 FILLER_180_741
*4191 FILLER_180_745
*4192 FILLER_181_1464
*4193 FILLER_181_1476
*4194 FILLER_181_1488
*4195 FILLER_181_1500
*4196 FILLER_181_1504
*4197 FILLER_181_1506
*4198 FILLER_181_703
*4199 FILLER_181_715
*4200 FILLER_181_727
*4201 FILLER_181_739
*4202 FILLER_182_1464
*4203 FILLER_182_1476
*4204 FILLER_182_1488
*4205 FILLER_182_1490
*4206 FILLER_182_1502
*4207 FILLER_182_1506
*4208 FILLER_182_703
*4209 FILLER_182_715
*4210 FILLER_182_727
*4211 FILLER_182_729
*4212 FILLER_182_741
*4213 FILLER_182_745
*4214 FILLER_183_1464
*4215 FILLER_183_1476
*4216 FILLER_183_1488
*4217 FILLER_183_1500
*4218 FILLER_183_1504
*4219 FILLER_183_1506
*4220 FILLER_183_703
*4221 FILLER_183_715
*4222 FILLER_183_727
*4223 FILLER_183_739
*4224 FILLER_184_1464
*4225 FILLER_184_1476
*4226 FILLER_184_1488
*4227 FILLER_184_1490
*4228 FILLER_184_1502
*4229 FILLER_184_1506
*4230 FILLER_184_703
*4231 FILLER_184_715
*4232 FILLER_184_727
*4233 FILLER_184_729
*4234 FILLER_184_741
*4235 FILLER_184_745
*4236 FILLER_185_1464
*4237 FILLER_185_1476
*4238 FILLER_185_1488
*4239 FILLER_185_1500
*4240 FILLER_185_1504
*4241 FILLER_185_1506
*4242 FILLER_185_703
*4243 FILLER_185_715
*4244 FILLER_185_727
*4245 FILLER_185_739
*4246 FILLER_186_1464
*4247 FILLER_186_1476
*4248 FILLER_186_1488
*4249 FILLER_186_1490
*4250 FILLER_186_1502
*4251 FILLER_186_1506
*4252 FILLER_186_703
*4253 FILLER_186_715
*4254 FILLER_186_727
*4255 FILLER_186_729
*4256 FILLER_186_741
*4257 FILLER_186_745
*4258 FILLER_187_1464
*4259 FILLER_187_1476
*4260 FILLER_187_1488
*4261 FILLER_187_1500
*4262 FILLER_187_1504
*4263 FILLER_187_1506
*4264 FILLER_187_703
*4265 FILLER_187_715
*4266 FILLER_187_727
*4267 FILLER_187_739
*4268 FILLER_188_1464
*4269 FILLER_188_1476
*4270 FILLER_188_1488
*4271 FILLER_188_1490
*4272 FILLER_188_1502
*4273 FILLER_188_1506
*4274 FILLER_188_703
*4275 FILLER_188_715
*4276 FILLER_188_727
*4277 FILLER_188_729
*4278 FILLER_188_741
*4279 FILLER_188_745
*4280 FILLER_189_1464
*4281 FILLER_189_1476
*4282 FILLER_189_1488
*4283 FILLER_189_1500
*4284 FILLER_189_1504
*4285 FILLER_189_1506
*4286 FILLER_189_703
*4287 FILLER_189_715
*4288 FILLER_189_727
*4289 FILLER_189_739
*4290 FILLER_18_1464
*4291 FILLER_18_1476
*4292 FILLER_18_1488
*4293 FILLER_18_1490
*4294 FILLER_18_1502
*4295 FILLER_18_1506
*4296 FILLER_18_712
*4297 FILLER_18_724
*4298 FILLER_18_729
*4299 FILLER_18_741
*4300 FILLER_18_745
*4301 FILLER_190_1464
*4302 FILLER_190_1476
*4303 FILLER_190_1488
*4304 FILLER_190_1490
*4305 FILLER_190_1502
*4306 FILLER_190_1506
*4307 FILLER_190_703
*4308 FILLER_190_715
*4309 FILLER_190_727
*4310 FILLER_190_729
*4311 FILLER_190_741
*4312 FILLER_190_745
*4313 FILLER_191_1464
*4314 FILLER_191_1476
*4315 FILLER_191_1488
*4316 FILLER_191_1500
*4317 FILLER_191_1504
*4318 FILLER_191_1506
*4319 FILLER_191_703
*4320 FILLER_191_715
*4321 FILLER_191_727
*4322 FILLER_191_739
*4323 FILLER_192_1464
*4324 FILLER_192_1476
*4325 FILLER_192_1488
*4326 FILLER_192_1490
*4327 FILLER_192_1502
*4328 FILLER_192_1506
*4329 FILLER_192_703
*4330 FILLER_192_715
*4331 FILLER_192_727
*4332 FILLER_192_729
*4333 FILLER_192_741
*4334 FILLER_192_745
*4335 FILLER_193_1464
*4336 FILLER_193_1476
*4337 FILLER_193_1488
*4338 FILLER_193_1500
*4339 FILLER_193_1504
*4340 FILLER_193_1506
*4341 FILLER_193_703
*4342 FILLER_193_715
*4343 FILLER_193_727
*4344 FILLER_193_739
*4345 FILLER_194_1464
*4346 FILLER_194_1476
*4347 FILLER_194_1488
*4348 FILLER_194_1490
*4349 FILLER_194_1502
*4350 FILLER_194_1506
*4351 FILLER_194_703
*4352 FILLER_194_715
*4353 FILLER_194_727
*4354 FILLER_194_729
*4355 FILLER_194_741
*4356 FILLER_194_745
*4357 FILLER_195_1464
*4358 FILLER_195_1476
*4359 FILLER_195_1488
*4360 FILLER_195_1500
*4361 FILLER_195_1504
*4362 FILLER_195_1506
*4363 FILLER_195_703
*4364 FILLER_195_715
*4365 FILLER_195_727
*4366 FILLER_195_739
*4367 FILLER_196_1464
*4368 FILLER_196_1476
*4369 FILLER_196_1488
*4370 FILLER_196_1490
*4371 FILLER_196_1502
*4372 FILLER_196_1506
*4373 FILLER_196_703
*4374 FILLER_196_715
*4375 FILLER_196_727
*4376 FILLER_196_729
*4377 FILLER_196_741
*4378 FILLER_196_745
*4379 FILLER_197_1464
*4380 FILLER_197_1476
*4381 FILLER_197_1488
*4382 FILLER_197_1500
*4383 FILLER_197_1504
*4384 FILLER_197_1506
*4385 FILLER_197_703
*4386 FILLER_197_715
*4387 FILLER_197_727
*4388 FILLER_197_739
*4389 FILLER_198_1464
*4390 FILLER_198_1476
*4391 FILLER_198_1488
*4392 FILLER_198_1490
*4393 FILLER_198_1502
*4394 FILLER_198_1506
*4395 FILLER_198_703
*4396 FILLER_198_715
*4397 FILLER_198_727
*4398 FILLER_198_729
*4399 FILLER_198_741
*4400 FILLER_198_745
*4401 FILLER_199_1464
*4402 FILLER_199_1476
*4403 FILLER_199_1488
*4404 FILLER_199_1500
*4405 FILLER_199_1504
*4406 FILLER_199_1506
*4407 FILLER_199_703
*4408 FILLER_199_715
*4409 FILLER_199_727
*4410 FILLER_199_739
*4411 FILLER_19_1464
*4412 FILLER_19_1476
*4413 FILLER_19_1488
*4414 FILLER_19_1500
*4415 FILLER_19_1504
*4416 FILLER_19_1506
*4417 FILLER_19_703
*4418 FILLER_19_715
*4419 FILLER_19_727
*4420 FILLER_19_739
*4421 FILLER_1_1003
*4422 FILLER_1_1007
*4423 FILLER_1_1017
*4424 FILLER_1_1036
*4425 FILLER_1_105
*4426 FILLER_1_1063
*4427 FILLER_1_1065
*4428 FILLER_1_1067
*4429 FILLER_1_1076
*4430 FILLER_1_109
*4431 FILLER_1_1096
*4432 FILLER_1_1100
*4433 FILLER_1_1102
*4434 FILLER_1_111
*4435 FILLER_1_1113
*4436 FILLER_1_1117
*4437 FILLER_1_1119
*4438 FILLER_1_1129
*4439 FILLER_1_113
*4440 FILLER_1_1151
*4441 FILLER_1_1153
*4442 FILLER_1_1172
*4443 FILLER_1_1209
*4444 FILLER_1_1221
*4445 FILLER_1_1223
*4446 FILLER_1_125
*4447 FILLER_1_1275
*4448 FILLER_1_1279
*4449 FILLER_1_1305
*4450 FILLER_1_1331
*4451 FILLER_1_1343
*4452 FILLER_1_1345
*4453 FILLER_1_137
*4454 FILLER_1_1373
*4455 FILLER_1_1393
*4456 FILLER_1_1397
*4457 FILLER_1_1399
*4458 FILLER_1_1401
*4459 FILLER_1_1405
*4460 FILLER_1_1423
*4461 FILLER_1_1427
*4462 FILLER_1_1436
*4463 FILLER_1_1453
*4464 FILLER_1_1455
*4465 FILLER_1_1457
*4466 FILLER_1_1466
*4467 FILLER_1_149
*4468 FILLER_1_15
*4469 FILLER_1_161
*4470 FILLER_1_165
*4471 FILLER_1_167
*4472 FILLER_1_169
*4473 FILLER_1_181
*4474 FILLER_1_193
*4475 FILLER_1_205
*4476 FILLER_1_217
*4477 FILLER_1_221
*4478 FILLER_1_223
*4479 FILLER_1_225
*4480 FILLER_1_237
*4481 FILLER_1_249
*4482 FILLER_1_261
*4483 FILLER_1_27
*4484 FILLER_1_273
*4485 FILLER_1_277
*4486 FILLER_1_279
*4487 FILLER_1_281
*4488 FILLER_1_293
*4489 FILLER_1_3
*4490 FILLER_1_305
*4491 FILLER_1_317
*4492 FILLER_1_329
*4493 FILLER_1_333
*4494 FILLER_1_335
*4495 FILLER_1_337
*4496 FILLER_1_349
*4497 FILLER_1_361
*4498 FILLER_1_373
*4499 FILLER_1_385
*4500 FILLER_1_389
*4501 FILLER_1_39
*4502 FILLER_1_391
*4503 FILLER_1_393
*4504 FILLER_1_405
*4505 FILLER_1_417
*4506 FILLER_1_429
*4507 FILLER_1_441
*4508 FILLER_1_445
*4509 FILLER_1_447
*4510 FILLER_1_449
*4511 FILLER_1_461
*4512 FILLER_1_465
*4513 FILLER_1_483
*4514 FILLER_1_495
*4515 FILLER_1_503
*4516 FILLER_1_505
*4517 FILLER_1_51
*4518 FILLER_1_517
*4519 FILLER_1_543
*4520 FILLER_1_55
*4521 FILLER_1_57
*4522 FILLER_1_613
*4523 FILLER_1_615
*4524 FILLER_1_633
*4525 FILLER_1_653
*4526 FILLER_1_655
*4527 FILLER_1_673
*4528 FILLER_1_69
*4529 FILLER_1_723
*4530 FILLER_1_727
*4531 FILLER_1_753
*4532 FILLER_1_781
*4533 FILLER_1_783
*4534 FILLER_1_785
*4535 FILLER_1_81
*4536 FILLER_1_835
*4537 FILLER_1_839
*4538 FILLER_1_873
*4539 FILLER_1_893
*4540 FILLER_1_895
*4541 FILLER_1_913
*4542 FILLER_1_915
*4543 FILLER_1_926
*4544 FILLER_1_93
*4545 FILLER_1_951
*4546 FILLER_1_953
*4547 FILLER_1_973
*4548 FILLER_1_977
*4549 FILLER_200_1464
*4550 FILLER_200_1476
*4551 FILLER_200_1488
*4552 FILLER_200_1490
*4553 FILLER_200_1502
*4554 FILLER_200_1506
*4555 FILLER_200_703
*4556 FILLER_200_715
*4557 FILLER_200_727
*4558 FILLER_200_729
*4559 FILLER_200_741
*4560 FILLER_200_745
*4561 FILLER_201_1464
*4562 FILLER_201_1476
*4563 FILLER_201_1488
*4564 FILLER_201_1500
*4565 FILLER_201_1504
*4566 FILLER_201_1506
*4567 FILLER_201_703
*4568 FILLER_201_715
*4569 FILLER_201_727
*4570 FILLER_201_739
*4571 FILLER_202_1464
*4572 FILLER_202_1476
*4573 FILLER_202_1488
*4574 FILLER_202_1490
*4575 FILLER_202_1502
*4576 FILLER_202_1506
*4577 FILLER_202_703
*4578 FILLER_202_715
*4579 FILLER_202_727
*4580 FILLER_202_729
*4581 FILLER_202_741
*4582 FILLER_202_745
*4583 FILLER_203_1464
*4584 FILLER_203_1476
*4585 FILLER_203_1488
*4586 FILLER_203_1500
*4587 FILLER_203_1504
*4588 FILLER_203_1506
*4589 FILLER_203_703
*4590 FILLER_203_715
*4591 FILLER_203_727
*4592 FILLER_203_739
*4593 FILLER_204_1464
*4594 FILLER_204_1476
*4595 FILLER_204_1488
*4596 FILLER_204_1490
*4597 FILLER_204_1502
*4598 FILLER_204_1506
*4599 FILLER_204_703
*4600 FILLER_204_715
*4601 FILLER_204_727
*4602 FILLER_204_729
*4603 FILLER_204_741
*4604 FILLER_204_745
*4605 FILLER_205_1464
*4606 FILLER_205_1476
*4607 FILLER_205_1488
*4608 FILLER_205_1500
*4609 FILLER_205_1504
*4610 FILLER_205_1506
*4611 FILLER_205_703
*4612 FILLER_205_715
*4613 FILLER_205_727
*4614 FILLER_205_739
*4615 FILLER_206_1464
*4616 FILLER_206_1476
*4617 FILLER_206_1488
*4618 FILLER_206_1490
*4619 FILLER_206_1502
*4620 FILLER_206_1506
*4621 FILLER_206_703
*4622 FILLER_206_715
*4623 FILLER_206_727
*4624 FILLER_206_729
*4625 FILLER_206_741
*4626 FILLER_206_745
*4627 FILLER_207_1464
*4628 FILLER_207_1476
*4629 FILLER_207_1488
*4630 FILLER_207_1500
*4631 FILLER_207_1504
*4632 FILLER_207_1506
*4633 FILLER_207_703
*4634 FILLER_207_715
*4635 FILLER_207_727
*4636 FILLER_207_739
*4637 FILLER_208_1464
*4638 FILLER_208_1476
*4639 FILLER_208_1488
*4640 FILLER_208_1490
*4641 FILLER_208_1502
*4642 FILLER_208_1506
*4643 FILLER_208_703
*4644 FILLER_208_715
*4645 FILLER_208_727
*4646 FILLER_208_729
*4647 FILLER_208_741
*4648 FILLER_208_745
*4649 FILLER_209_1464
*4650 FILLER_209_1476
*4651 FILLER_209_1488
*4652 FILLER_209_1500
*4653 FILLER_209_1504
*4654 FILLER_209_1506
*4655 FILLER_209_703
*4656 FILLER_209_715
*4657 FILLER_209_727
*4658 FILLER_209_739
*4659 FILLER_20_1464
*4660 FILLER_20_1476
*4661 FILLER_20_1488
*4662 FILLER_20_1490
*4663 FILLER_20_1502
*4664 FILLER_20_1506
*4665 FILLER_20_703
*4666 FILLER_20_715
*4667 FILLER_20_719
*4668 FILLER_20_721
*4669 FILLER_20_725
*4670 FILLER_20_727
*4671 FILLER_20_729
*4672 FILLER_20_741
*4673 FILLER_20_745
*4674 FILLER_210_1464
*4675 FILLER_210_1476
*4676 FILLER_210_1488
*4677 FILLER_210_1490
*4678 FILLER_210_1502
*4679 FILLER_210_1506
*4680 FILLER_210_703
*4681 FILLER_210_715
*4682 FILLER_210_727
*4683 FILLER_210_729
*4684 FILLER_210_741
*4685 FILLER_210_745
*4686 FILLER_211_1464
*4687 FILLER_211_1476
*4688 FILLER_211_1488
*4689 FILLER_211_1500
*4690 FILLER_211_1504
*4691 FILLER_211_1506
*4692 FILLER_211_703
*4693 FILLER_211_715
*4694 FILLER_211_727
*4695 FILLER_211_739
*4696 FILLER_212_1464
*4697 FILLER_212_1476
*4698 FILLER_212_1488
*4699 FILLER_212_1490
*4700 FILLER_212_1502
*4701 FILLER_212_1506
*4702 FILLER_212_703
*4703 FILLER_212_715
*4704 FILLER_212_727
*4705 FILLER_212_729
*4706 FILLER_212_741
*4707 FILLER_212_745
*4708 FILLER_213_1464
*4709 FILLER_213_1476
*4710 FILLER_213_1488
*4711 FILLER_213_1500
*4712 FILLER_213_1504
*4713 FILLER_213_1506
*4714 FILLER_213_703
*4715 FILLER_213_715
*4716 FILLER_213_727
*4717 FILLER_213_739
*4718 FILLER_214_1464
*4719 FILLER_214_1476
*4720 FILLER_214_1488
*4721 FILLER_214_1490
*4722 FILLER_214_1502
*4723 FILLER_214_1506
*4724 FILLER_214_703
*4725 FILLER_214_715
*4726 FILLER_214_727
*4727 FILLER_214_729
*4728 FILLER_214_741
*4729 FILLER_214_745
*4730 FILLER_215_1464
*4731 FILLER_215_1476
*4732 FILLER_215_1488
*4733 FILLER_215_1500
*4734 FILLER_215_1504
*4735 FILLER_215_1506
*4736 FILLER_215_703
*4737 FILLER_215_715
*4738 FILLER_215_727
*4739 FILLER_215_739
*4740 FILLER_216_1464
*4741 FILLER_216_1476
*4742 FILLER_216_1488
*4743 FILLER_216_1490
*4744 FILLER_216_1502
*4745 FILLER_216_1506
*4746 FILLER_216_703
*4747 FILLER_216_715
*4748 FILLER_216_727
*4749 FILLER_216_729
*4750 FILLER_216_741
*4751 FILLER_216_745
*4752 FILLER_217_1464
*4753 FILLER_217_1476
*4754 FILLER_217_1488
*4755 FILLER_217_1500
*4756 FILLER_217_1504
*4757 FILLER_217_1506
*4758 FILLER_217_703
*4759 FILLER_217_715
*4760 FILLER_217_727
*4761 FILLER_217_739
*4762 FILLER_218_1464
*4763 FILLER_218_1476
*4764 FILLER_218_1488
*4765 FILLER_218_1490
*4766 FILLER_218_1502
*4767 FILLER_218_1506
*4768 FILLER_218_703
*4769 FILLER_218_715
*4770 FILLER_218_727
*4771 FILLER_218_729
*4772 FILLER_218_741
*4773 FILLER_218_745
*4774 FILLER_219_1464
*4775 FILLER_219_1476
*4776 FILLER_219_1488
*4777 FILLER_219_1500
*4778 FILLER_219_1504
*4779 FILLER_219_1506
*4780 FILLER_219_703
*4781 FILLER_219_715
*4782 FILLER_219_727
*4783 FILLER_219_739
*4784 FILLER_21_1464
*4785 FILLER_21_1476
*4786 FILLER_21_1488
*4787 FILLER_21_1500
*4788 FILLER_21_1504
*4789 FILLER_21_1506
*4790 FILLER_21_703
*4791 FILLER_21_715
*4792 FILLER_21_727
*4793 FILLER_21_739
*4794 FILLER_220_1464
*4795 FILLER_220_1476
*4796 FILLER_220_1488
*4797 FILLER_220_1490
*4798 FILLER_220_1502
*4799 FILLER_220_1506
*4800 FILLER_220_703
*4801 FILLER_220_715
*4802 FILLER_220_727
*4803 FILLER_220_729
*4804 FILLER_220_741
*4805 FILLER_220_745
*4806 FILLER_221_1464
*4807 FILLER_221_1476
*4808 FILLER_221_1488
*4809 FILLER_221_1500
*4810 FILLER_221_1504
*4811 FILLER_221_1506
*4812 FILLER_221_703
*4813 FILLER_221_715
*4814 FILLER_221_727
*4815 FILLER_221_739
*4816 FILLER_222_1464
*4817 FILLER_222_1476
*4818 FILLER_222_1488
*4819 FILLER_222_1490
*4820 FILLER_222_1502
*4821 FILLER_222_1506
*4822 FILLER_222_703
*4823 FILLER_222_715
*4824 FILLER_222_727
*4825 FILLER_222_729
*4826 FILLER_222_741
*4827 FILLER_222_745
*4828 FILLER_223_1464
*4829 FILLER_223_1476
*4830 FILLER_223_1488
*4831 FILLER_223_1500
*4832 FILLER_223_1504
*4833 FILLER_223_1506
*4834 FILLER_223_703
*4835 FILLER_223_715
*4836 FILLER_223_727
*4837 FILLER_223_739
*4838 FILLER_224_1464
*4839 FILLER_224_1476
*4840 FILLER_224_1488
*4841 FILLER_224_1490
*4842 FILLER_224_1502
*4843 FILLER_224_1506
*4844 FILLER_224_703
*4845 FILLER_224_715
*4846 FILLER_224_727
*4847 FILLER_224_729
*4848 FILLER_224_741
*4849 FILLER_224_745
*4850 FILLER_225_1464
*4851 FILLER_225_1476
*4852 FILLER_225_1488
*4853 FILLER_225_1500
*4854 FILLER_225_1504
*4855 FILLER_225_1506
*4856 FILLER_225_703
*4857 FILLER_225_715
*4858 FILLER_225_727
*4859 FILLER_225_739
*4860 FILLER_226_1464
*4861 FILLER_226_1476
*4862 FILLER_226_1488
*4863 FILLER_226_1490
*4864 FILLER_226_1502
*4865 FILLER_226_1506
*4866 FILLER_226_703
*4867 FILLER_226_715
*4868 FILLER_226_727
*4869 FILLER_226_729
*4870 FILLER_226_741
*4871 FILLER_226_745
*4872 FILLER_227_1464
*4873 FILLER_227_1476
*4874 FILLER_227_1488
*4875 FILLER_227_1500
*4876 FILLER_227_1504
*4877 FILLER_227_1506
*4878 FILLER_227_703
*4879 FILLER_227_715
*4880 FILLER_227_727
*4881 FILLER_227_739
*4882 FILLER_228_1464
*4883 FILLER_228_1476
*4884 FILLER_228_1488
*4885 FILLER_228_1490
*4886 FILLER_228_1502
*4887 FILLER_228_1506
*4888 FILLER_228_703
*4889 FILLER_228_715
*4890 FILLER_228_727
*4891 FILLER_228_729
*4892 FILLER_228_741
*4893 FILLER_228_745
*4894 FILLER_229_1464
*4895 FILLER_229_1476
*4896 FILLER_229_1488
*4897 FILLER_229_1500
*4898 FILLER_229_1504
*4899 FILLER_229_1506
*4900 FILLER_229_703
*4901 FILLER_229_715
*4902 FILLER_229_727
*4903 FILLER_229_739
*4904 FILLER_22_1464
*4905 FILLER_22_1476
*4906 FILLER_22_1488
*4907 FILLER_22_1490
*4908 FILLER_22_1502
*4909 FILLER_22_1506
*4910 FILLER_22_703
*4911 FILLER_22_715
*4912 FILLER_22_727
*4913 FILLER_22_729
*4914 FILLER_22_735
*4915 FILLER_230_1464
*4916 FILLER_230_1476
*4917 FILLER_230_1488
*4918 FILLER_230_1490
*4919 FILLER_230_1502
*4920 FILLER_230_1506
*4921 FILLER_230_703
*4922 FILLER_230_715
*4923 FILLER_230_727
*4924 FILLER_230_729
*4925 FILLER_230_741
*4926 FILLER_230_745
*4927 FILLER_231_1464
*4928 FILLER_231_1476
*4929 FILLER_231_1488
*4930 FILLER_231_1500
*4931 FILLER_231_1504
*4932 FILLER_231_1506
*4933 FILLER_231_703
*4934 FILLER_231_715
*4935 FILLER_231_727
*4936 FILLER_231_739
*4937 FILLER_232_1464
*4938 FILLER_232_1476
*4939 FILLER_232_1488
*4940 FILLER_232_1490
*4941 FILLER_232_1502
*4942 FILLER_232_1506
*4943 FILLER_232_703
*4944 FILLER_232_715
*4945 FILLER_232_727
*4946 FILLER_232_729
*4947 FILLER_232_741
*4948 FILLER_232_745
*4949 FILLER_233_1464
*4950 FILLER_233_1476
*4951 FILLER_233_1488
*4952 FILLER_233_1500
*4953 FILLER_233_1504
*4954 FILLER_233_1506
*4955 FILLER_233_703
*4956 FILLER_233_715
*4957 FILLER_233_727
*4958 FILLER_233_739
*4959 FILLER_234_1464
*4960 FILLER_234_1476
*4961 FILLER_234_1488
*4962 FILLER_234_1490
*4963 FILLER_234_1502
*4964 FILLER_234_1506
*4965 FILLER_234_703
*4966 FILLER_234_715
*4967 FILLER_234_727
*4968 FILLER_234_729
*4969 FILLER_234_741
*4970 FILLER_234_745
*4971 FILLER_235_1464
*4972 FILLER_235_1476
*4973 FILLER_235_1488
*4974 FILLER_235_1500
*4975 FILLER_235_1504
*4976 FILLER_235_1506
*4977 FILLER_235_703
*4978 FILLER_235_715
*4979 FILLER_235_727
*4980 FILLER_235_739
*4981 FILLER_236_1464
*4982 FILLER_236_1476
*4983 FILLER_236_1488
*4984 FILLER_236_1490
*4985 FILLER_236_1502
*4986 FILLER_236_1506
*4987 FILLER_236_703
*4988 FILLER_236_715
*4989 FILLER_236_727
*4990 FILLER_236_729
*4991 FILLER_236_741
*4992 FILLER_236_745
*4993 FILLER_237_1464
*4994 FILLER_237_1476
*4995 FILLER_237_1488
*4996 FILLER_237_1500
*4997 FILLER_237_1504
*4998 FILLER_237_1506
*4999 FILLER_237_703
*5000 FILLER_237_715
*5001 FILLER_237_727
*5002 FILLER_237_739
*5003 FILLER_238_1467
*5004 FILLER_238_1479
*5005 FILLER_238_1487
*5006 FILLER_238_1490
*5007 FILLER_238_1502
*5008 FILLER_238_1506
*5009 FILLER_238_706
*5010 FILLER_238_718
*5011 FILLER_238_726
*5012 FILLER_238_729
*5013 FILLER_238_741
*5014 FILLER_238_745
*5015 FILLER_239_1464
*5016 FILLER_239_1476
*5017 FILLER_239_1488
*5018 FILLER_239_1500
*5019 FILLER_239_1504
*5020 FILLER_239_1506
*5021 FILLER_239_703
*5022 FILLER_239_715
*5023 FILLER_239_727
*5024 FILLER_239_739
*5025 FILLER_23_1464
*5026 FILLER_23_1476
*5027 FILLER_23_1488
*5028 FILLER_23_1500
*5029 FILLER_23_1504
*5030 FILLER_23_1506
*5031 FILLER_23_703
*5032 FILLER_23_730
*5033 FILLER_23_732
*5034 FILLER_23_742
*5035 FILLER_23_746
*5036 FILLER_240_1467
*5037 FILLER_240_1479
*5038 FILLER_240_1487
*5039 FILLER_240_1490
*5040 FILLER_240_1502
*5041 FILLER_240_1506
*5042 FILLER_240_706
*5043 FILLER_240_718
*5044 FILLER_240_726
*5045 FILLER_240_729
*5046 FILLER_240_741
*5047 FILLER_240_745
*5048 FILLER_241_1464
*5049 FILLER_241_1476
*5050 FILLER_241_1488
*5051 FILLER_241_1500
*5052 FILLER_241_1504
*5053 FILLER_241_1506
*5054 FILLER_241_703
*5055 FILLER_241_715
*5056 FILLER_241_727
*5057 FILLER_241_739
*5058 FILLER_242_1464
*5059 FILLER_242_1476
*5060 FILLER_242_1488
*5061 FILLER_242_1490
*5062 FILLER_242_1502
*5063 FILLER_242_1506
*5064 FILLER_242_703
*5065 FILLER_242_715
*5066 FILLER_242_727
*5067 FILLER_242_729
*5068 FILLER_242_741
*5069 FILLER_242_745
*5070 FILLER_243_1464
*5071 FILLER_243_1476
*5072 FILLER_243_1488
*5073 FILLER_243_1500
*5074 FILLER_243_1504
*5075 FILLER_243_1506
*5076 FILLER_243_703
*5077 FILLER_243_715
*5078 FILLER_243_727
*5079 FILLER_243_739
*5080 FILLER_244_1464
*5081 FILLER_244_1476
*5082 FILLER_244_1488
*5083 FILLER_244_1490
*5084 FILLER_244_1502
*5085 FILLER_244_1506
*5086 FILLER_244_703
*5087 FILLER_244_715
*5088 FILLER_244_727
*5089 FILLER_244_729
*5090 FILLER_244_741
*5091 FILLER_244_745
*5092 FILLER_245_1464
*5093 FILLER_245_1476
*5094 FILLER_245_1488
*5095 FILLER_245_1500
*5096 FILLER_245_1504
*5097 FILLER_245_1506
*5098 FILLER_245_703
*5099 FILLER_245_715
*5100 FILLER_245_727
*5101 FILLER_245_739
*5102 FILLER_246_1470
*5103 FILLER_246_1482
*5104 FILLER_246_1486
*5105 FILLER_246_1488
*5106 FILLER_246_1490
*5107 FILLER_246_1502
*5108 FILLER_246_1506
*5109 FILLER_246_709
*5110 FILLER_246_721
*5111 FILLER_246_725
*5112 FILLER_246_727
*5113 FILLER_246_729
*5114 FILLER_246_741
*5115 FILLER_246_745
*5116 FILLER_247_1464
*5117 FILLER_247_1476
*5118 FILLER_247_1488
*5119 FILLER_247_1500
*5120 FILLER_247_1504
*5121 FILLER_247_1506
*5122 FILLER_247_703
*5123 FILLER_247_715
*5124 FILLER_247_727
*5125 FILLER_247_739
*5126 FILLER_248_1464
*5127 FILLER_248_1476
*5128 FILLER_248_1488
*5129 FILLER_248_1490
*5130 FILLER_248_1502
*5131 FILLER_248_1506
*5132 FILLER_248_703
*5133 FILLER_248_715
*5134 FILLER_248_727
*5135 FILLER_248_729
*5136 FILLER_248_741
*5137 FILLER_248_745
*5138 FILLER_249_1467
*5139 FILLER_249_1479
*5140 FILLER_249_1491
*5141 FILLER_249_1503
*5142 FILLER_249_706
*5143 FILLER_249_718
*5144 FILLER_249_730
*5145 FILLER_249_742
*5146 FILLER_249_746
*5147 FILLER_24_1464
*5148 FILLER_24_1476
*5149 FILLER_24_1488
*5150 FILLER_24_1490
*5151 FILLER_24_1502
*5152 FILLER_24_1506
*5153 FILLER_24_723
*5154 FILLER_24_727
*5155 FILLER_24_729
*5156 FILLER_24_733
*5157 FILLER_24_735
*5158 FILLER_250_1464
*5159 FILLER_250_1476
*5160 FILLER_250_1488
*5161 FILLER_250_1490
*5162 FILLER_250_1502
*5163 FILLER_250_1506
*5164 FILLER_250_703
*5165 FILLER_250_715
*5166 FILLER_250_727
*5167 FILLER_250_729
*5168 FILLER_250_741
*5169 FILLER_250_745
*5170 FILLER_251_1467
*5171 FILLER_251_1479
*5172 FILLER_251_1491
*5173 FILLER_251_1503
*5174 FILLER_251_706
*5175 FILLER_251_718
*5176 FILLER_251_730
*5177 FILLER_251_742
*5178 FILLER_251_746
*5179 FILLER_252_1467
*5180 FILLER_252_1479
*5181 FILLER_252_1487
*5182 FILLER_252_1490
*5183 FILLER_252_1502
*5184 FILLER_252_1506
*5185 FILLER_252_706
*5186 FILLER_252_718
*5187 FILLER_252_726
*5188 FILLER_252_729
*5189 FILLER_252_741
*5190 FILLER_252_745
*5191 FILLER_253_1464
*5192 FILLER_253_1476
*5193 FILLER_253_1488
*5194 FILLER_253_1500
*5195 FILLER_253_1504
*5196 FILLER_253_1506
*5197 FILLER_253_703
*5198 FILLER_253_715
*5199 FILLER_253_727
*5200 FILLER_253_739
*5201 FILLER_254_1464
*5202 FILLER_254_1476
*5203 FILLER_254_1488
*5204 FILLER_254_1490
*5205 FILLER_254_1502
*5206 FILLER_254_1506
*5207 FILLER_254_703
*5208 FILLER_254_715
*5209 FILLER_254_727
*5210 FILLER_254_729
*5211 FILLER_254_741
*5212 FILLER_254_745
*5213 FILLER_255_1464
*5214 FILLER_255_1476
*5215 FILLER_255_1488
*5216 FILLER_255_1500
*5217 FILLER_255_1504
*5218 FILLER_255_1506
*5219 FILLER_255_703
*5220 FILLER_255_715
*5221 FILLER_255_727
*5222 FILLER_255_739
*5223 FILLER_256_1470
*5224 FILLER_256_1482
*5225 FILLER_256_1486
*5226 FILLER_256_1488
*5227 FILLER_256_1490
*5228 FILLER_256_1502
*5229 FILLER_256_1506
*5230 FILLER_256_709
*5231 FILLER_256_721
*5232 FILLER_256_725
*5233 FILLER_256_727
*5234 FILLER_256_729
*5235 FILLER_256_741
*5236 FILLER_256_745
*5237 FILLER_257_1464
*5238 FILLER_257_1476
*5239 FILLER_257_1488
*5240 FILLER_257_1500
*5241 FILLER_257_1504
*5242 FILLER_257_1506
*5243 FILLER_257_703
*5244 FILLER_257_715
*5245 FILLER_257_727
*5246 FILLER_257_739
*5247 FILLER_258_1464
*5248 FILLER_258_1476
*5249 FILLER_258_1488
*5250 FILLER_258_1490
*5251 FILLER_258_1502
*5252 FILLER_258_1506
*5253 FILLER_258_703
*5254 FILLER_258_715
*5255 FILLER_258_727
*5256 FILLER_258_729
*5257 FILLER_258_741
*5258 FILLER_258_745
*5259 FILLER_259_1464
*5260 FILLER_259_1476
*5261 FILLER_259_1488
*5262 FILLER_259_1500
*5263 FILLER_259_1504
*5264 FILLER_259_1506
*5265 FILLER_259_703
*5266 FILLER_259_715
*5267 FILLER_259_727
*5268 FILLER_259_739
*5269 FILLER_25_1464
*5270 FILLER_25_1476
*5271 FILLER_25_1488
*5272 FILLER_25_1500
*5273 FILLER_25_1504
*5274 FILLER_25_1506
*5275 FILLER_25_718
*5276 FILLER_25_730
*5277 FILLER_25_742
*5278 FILLER_25_746
*5279 FILLER_260_1464
*5280 FILLER_260_1476
*5281 FILLER_260_1488
*5282 FILLER_260_1490
*5283 FILLER_260_1502
*5284 FILLER_260_1506
*5285 FILLER_260_703
*5286 FILLER_260_715
*5287 FILLER_260_727
*5288 FILLER_260_729
*5289 FILLER_260_741
*5290 FILLER_260_745
*5291 FILLER_261_1464
*5292 FILLER_261_1476
*5293 FILLER_261_1488
*5294 FILLER_261_1500
*5295 FILLER_261_1504
*5296 FILLER_261_1506
*5297 FILLER_261_703
*5298 FILLER_261_715
*5299 FILLER_261_727
*5300 FILLER_261_739
*5301 FILLER_262_1464
*5302 FILLER_262_1476
*5303 FILLER_262_1488
*5304 FILLER_262_1490
*5305 FILLER_262_1502
*5306 FILLER_262_1506
*5307 FILLER_262_703
*5308 FILLER_262_715
*5309 FILLER_262_727
*5310 FILLER_262_729
*5311 FILLER_262_741
*5312 FILLER_262_745
*5313 FILLER_263_1464
*5314 FILLER_263_1476
*5315 FILLER_263_1488
*5316 FILLER_263_1500
*5317 FILLER_263_1504
*5318 FILLER_263_1506
*5319 FILLER_263_703
*5320 FILLER_263_715
*5321 FILLER_263_727
*5322 FILLER_263_739
*5323 FILLER_264_1464
*5324 FILLER_264_1476
*5325 FILLER_264_1488
*5326 FILLER_264_1490
*5327 FILLER_264_1502
*5328 FILLER_264_1506
*5329 FILLER_264_703
*5330 FILLER_264_715
*5331 FILLER_264_727
*5332 FILLER_264_729
*5333 FILLER_264_741
*5334 FILLER_264_745
*5335 FILLER_265_1464
*5336 FILLER_265_1476
*5337 FILLER_265_1488
*5338 FILLER_265_1500
*5339 FILLER_265_1504
*5340 FILLER_265_1506
*5341 FILLER_265_703
*5342 FILLER_265_715
*5343 FILLER_265_727
*5344 FILLER_265_739
*5345 FILLER_266_1464
*5346 FILLER_266_1476
*5347 FILLER_266_1488
*5348 FILLER_266_1490
*5349 FILLER_266_1502
*5350 FILLER_266_1506
*5351 FILLER_266_703
*5352 FILLER_266_715
*5353 FILLER_266_727
*5354 FILLER_266_729
*5355 FILLER_266_741
*5356 FILLER_266_745
*5357 FILLER_267_1464
*5358 FILLER_267_1476
*5359 FILLER_267_1488
*5360 FILLER_267_1500
*5361 FILLER_267_1504
*5362 FILLER_267_1506
*5363 FILLER_267_703
*5364 FILLER_267_715
*5365 FILLER_267_727
*5366 FILLER_267_739
*5367 FILLER_268_1464
*5368 FILLER_268_1476
*5369 FILLER_268_1488
*5370 FILLER_268_1490
*5371 FILLER_268_1502
*5372 FILLER_268_1506
*5373 FILLER_268_703
*5374 FILLER_268_715
*5375 FILLER_268_727
*5376 FILLER_268_729
*5377 FILLER_268_741
*5378 FILLER_268_745
*5379 FILLER_269_1464
*5380 FILLER_269_1476
*5381 FILLER_269_1488
*5382 FILLER_269_1500
*5383 FILLER_269_1504
*5384 FILLER_269_1506
*5385 FILLER_269_703
*5386 FILLER_269_715
*5387 FILLER_269_727
*5388 FILLER_269_739
*5389 FILLER_26_1464
*5390 FILLER_26_1476
*5391 FILLER_26_1488
*5392 FILLER_26_1490
*5393 FILLER_26_1502
*5394 FILLER_26_1506
*5395 FILLER_26_703
*5396 FILLER_26_715
*5397 FILLER_26_727
*5398 FILLER_26_729
*5399 FILLER_26_741
*5400 FILLER_26_745
*5401 FILLER_270_1464
*5402 FILLER_270_1476
*5403 FILLER_270_1488
*5404 FILLER_270_1490
*5405 FILLER_270_1502
*5406 FILLER_270_1506
*5407 FILLER_270_703
*5408 FILLER_270_715
*5409 FILLER_270_727
*5410 FILLER_270_729
*5411 FILLER_270_741
*5412 FILLER_270_745
*5413 FILLER_271_1464
*5414 FILLER_271_1476
*5415 FILLER_271_1488
*5416 FILLER_271_1500
*5417 FILLER_271_1504
*5418 FILLER_271_1506
*5419 FILLER_271_703
*5420 FILLER_271_715
*5421 FILLER_271_727
*5422 FILLER_271_739
*5423 FILLER_272_1464
*5424 FILLER_272_1476
*5425 FILLER_272_1488
*5426 FILLER_272_1490
*5427 FILLER_272_1502
*5428 FILLER_272_1506
*5429 FILLER_272_703
*5430 FILLER_272_715
*5431 FILLER_272_727
*5432 FILLER_272_729
*5433 FILLER_272_741
*5434 FILLER_272_745
*5435 FILLER_273_1464
*5436 FILLER_273_1476
*5437 FILLER_273_1488
*5438 FILLER_273_1500
*5439 FILLER_273_1504
*5440 FILLER_273_1506
*5441 FILLER_273_703
*5442 FILLER_273_715
*5443 FILLER_273_727
*5444 FILLER_273_739
*5445 FILLER_274_1464
*5446 FILLER_274_1476
*5447 FILLER_274_1488
*5448 FILLER_274_1490
*5449 FILLER_274_1502
*5450 FILLER_274_1506
*5451 FILLER_274_703
*5452 FILLER_274_715
*5453 FILLER_274_727
*5454 FILLER_274_729
*5455 FILLER_274_741
*5456 FILLER_274_745
*5457 FILLER_275_1464
*5458 FILLER_275_1476
*5459 FILLER_275_1488
*5460 FILLER_275_1500
*5461 FILLER_275_1504
*5462 FILLER_275_1506
*5463 FILLER_275_703
*5464 FILLER_275_715
*5465 FILLER_275_727
*5466 FILLER_275_739
*5467 FILLER_276_1464
*5468 FILLER_276_1476
*5469 FILLER_276_1488
*5470 FILLER_276_1490
*5471 FILLER_276_1502
*5472 FILLER_276_1506
*5473 FILLER_276_703
*5474 FILLER_276_715
*5475 FILLER_276_727
*5476 FILLER_276_729
*5477 FILLER_276_741
*5478 FILLER_276_745
*5479 FILLER_277_1464
*5480 FILLER_277_1476
*5481 FILLER_277_1488
*5482 FILLER_277_1500
*5483 FILLER_277_1504
*5484 FILLER_277_1506
*5485 FILLER_277_703
*5486 FILLER_277_715
*5487 FILLER_277_727
*5488 FILLER_277_739
*5489 FILLER_278_1464
*5490 FILLER_278_1476
*5491 FILLER_278_1488
*5492 FILLER_278_1490
*5493 FILLER_278_1502
*5494 FILLER_278_1506
*5495 FILLER_278_703
*5496 FILLER_278_715
*5497 FILLER_278_727
*5498 FILLER_278_729
*5499 FILLER_278_741
*5500 FILLER_278_745
*5501 FILLER_279_1464
*5502 FILLER_279_1476
*5503 FILLER_279_1488
*5504 FILLER_279_1500
*5505 FILLER_279_1504
*5506 FILLER_279_1506
*5507 FILLER_279_703
*5508 FILLER_279_715
*5509 FILLER_279_727
*5510 FILLER_279_739
*5511 FILLER_27_1464
*5512 FILLER_27_1476
*5513 FILLER_27_1488
*5514 FILLER_27_1500
*5515 FILLER_27_1504
*5516 FILLER_27_1506
*5517 FILLER_27_703
*5518 FILLER_27_715
*5519 FILLER_27_727
*5520 FILLER_27_746
*5521 FILLER_280_1464
*5522 FILLER_280_1476
*5523 FILLER_280_1488
*5524 FILLER_280_1490
*5525 FILLER_280_1502
*5526 FILLER_280_1506
*5527 FILLER_280_703
*5528 FILLER_280_715
*5529 FILLER_280_727
*5530 FILLER_280_729
*5531 FILLER_280_741
*5532 FILLER_280_745
*5533 FILLER_281_1464
*5534 FILLER_281_1476
*5535 FILLER_281_1488
*5536 FILLER_281_1500
*5537 FILLER_281_1504
*5538 FILLER_281_1506
*5539 FILLER_281_703
*5540 FILLER_281_715
*5541 FILLER_281_727
*5542 FILLER_281_739
*5543 FILLER_282_1464
*5544 FILLER_282_1476
*5545 FILLER_282_1488
*5546 FILLER_282_1490
*5547 FILLER_282_1502
*5548 FILLER_282_1506
*5549 FILLER_282_703
*5550 FILLER_282_715
*5551 FILLER_282_727
*5552 FILLER_282_729
*5553 FILLER_282_741
*5554 FILLER_282_745
*5555 FILLER_283_1464
*5556 FILLER_283_1476
*5557 FILLER_283_1488
*5558 FILLER_283_1500
*5559 FILLER_283_1504
*5560 FILLER_283_1506
*5561 FILLER_283_703
*5562 FILLER_283_715
*5563 FILLER_283_727
*5564 FILLER_283_739
*5565 FILLER_284_1464
*5566 FILLER_284_1476
*5567 FILLER_284_1488
*5568 FILLER_284_1490
*5569 FILLER_284_1502
*5570 FILLER_284_1506
*5571 FILLER_284_703
*5572 FILLER_284_715
*5573 FILLER_284_727
*5574 FILLER_284_729
*5575 FILLER_284_741
*5576 FILLER_284_745
*5577 FILLER_285_1464
*5578 FILLER_285_1476
*5579 FILLER_285_1488
*5580 FILLER_285_1500
*5581 FILLER_285_1504
*5582 FILLER_285_1506
*5583 FILLER_285_703
*5584 FILLER_285_715
*5585 FILLER_285_727
*5586 FILLER_285_739
*5587 FILLER_286_1464
*5588 FILLER_286_1476
*5589 FILLER_286_1488
*5590 FILLER_286_1490
*5591 FILLER_286_1502
*5592 FILLER_286_1506
*5593 FILLER_286_703
*5594 FILLER_286_715
*5595 FILLER_286_727
*5596 FILLER_286_729
*5597 FILLER_286_741
*5598 FILLER_286_745
*5599 FILLER_287_1464
*5600 FILLER_287_1476
*5601 FILLER_287_1488
*5602 FILLER_287_1500
*5603 FILLER_287_1504
*5604 FILLER_287_1506
*5605 FILLER_287_703
*5606 FILLER_287_715
*5607 FILLER_287_727
*5608 FILLER_287_739
*5609 FILLER_288_1464
*5610 FILLER_288_1476
*5611 FILLER_288_1488
*5612 FILLER_288_1490
*5613 FILLER_288_1502
*5614 FILLER_288_1506
*5615 FILLER_288_703
*5616 FILLER_288_715
*5617 FILLER_288_727
*5618 FILLER_288_729
*5619 FILLER_288_741
*5620 FILLER_288_745
*5621 FILLER_289_1464
*5622 FILLER_289_1476
*5623 FILLER_289_1488
*5624 FILLER_289_1500
*5625 FILLER_289_1504
*5626 FILLER_289_1506
*5627 FILLER_289_703
*5628 FILLER_289_715
*5629 FILLER_289_727
*5630 FILLER_289_739
*5631 FILLER_28_1464
*5632 FILLER_28_1476
*5633 FILLER_28_1488
*5634 FILLER_28_1490
*5635 FILLER_28_1502
*5636 FILLER_28_1506
*5637 FILLER_28_703
*5638 FILLER_28_715
*5639 FILLER_28_727
*5640 FILLER_28_729
*5641 FILLER_28_741
*5642 FILLER_28_745
*5643 FILLER_290_1464
*5644 FILLER_290_1476
*5645 FILLER_290_1488
*5646 FILLER_290_1490
*5647 FILLER_290_1502
*5648 FILLER_290_1506
*5649 FILLER_290_703
*5650 FILLER_290_715
*5651 FILLER_290_727
*5652 FILLER_290_729
*5653 FILLER_290_741
*5654 FILLER_290_745
*5655 FILLER_291_1464
*5656 FILLER_291_1476
*5657 FILLER_291_1488
*5658 FILLER_291_1500
*5659 FILLER_291_1504
*5660 FILLER_291_1506
*5661 FILLER_291_703
*5662 FILLER_291_715
*5663 FILLER_291_727
*5664 FILLER_291_739
*5665 FILLER_292_1464
*5666 FILLER_292_1476
*5667 FILLER_292_1488
*5668 FILLER_292_1490
*5669 FILLER_292_1502
*5670 FILLER_292_1506
*5671 FILLER_292_703
*5672 FILLER_292_715
*5673 FILLER_292_727
*5674 FILLER_292_729
*5675 FILLER_292_741
*5676 FILLER_292_745
*5677 FILLER_293_1464
*5678 FILLER_293_1476
*5679 FILLER_293_1488
*5680 FILLER_293_1500
*5681 FILLER_293_1504
*5682 FILLER_293_1506
*5683 FILLER_293_703
*5684 FILLER_293_715
*5685 FILLER_293_727
*5686 FILLER_293_739
*5687 FILLER_294_1464
*5688 FILLER_294_1476
*5689 FILLER_294_1488
*5690 FILLER_294_1490
*5691 FILLER_294_1502
*5692 FILLER_294_1506
*5693 FILLER_294_703
*5694 FILLER_294_715
*5695 FILLER_294_727
*5696 FILLER_294_729
*5697 FILLER_294_741
*5698 FILLER_294_745
*5699 FILLER_295_1464
*5700 FILLER_295_1476
*5701 FILLER_295_1488
*5702 FILLER_295_1500
*5703 FILLER_295_1504
*5704 FILLER_295_1506
*5705 FILLER_295_703
*5706 FILLER_295_715
*5707 FILLER_295_727
*5708 FILLER_295_739
*5709 FILLER_296_1464
*5710 FILLER_296_1476
*5711 FILLER_296_1488
*5712 FILLER_296_1490
*5713 FILLER_296_1502
*5714 FILLER_296_1506
*5715 FILLER_296_703
*5716 FILLER_296_715
*5717 FILLER_296_727
*5718 FILLER_296_729
*5719 FILLER_296_741
*5720 FILLER_296_745
*5721 FILLER_297_1464
*5722 FILLER_297_1476
*5723 FILLER_297_1488
*5724 FILLER_297_1500
*5725 FILLER_297_1504
*5726 FILLER_297_1506
*5727 FILLER_297_703
*5728 FILLER_297_715
*5729 FILLER_297_727
*5730 FILLER_297_739
*5731 FILLER_298_1464
*5732 FILLER_298_1476
*5733 FILLER_298_1488
*5734 FILLER_298_1490
*5735 FILLER_298_1502
*5736 FILLER_298_1506
*5737 FILLER_298_703
*5738 FILLER_298_715
*5739 FILLER_298_727
*5740 FILLER_298_729
*5741 FILLER_298_741
*5742 FILLER_298_745
*5743 FILLER_299_1464
*5744 FILLER_299_1476
*5745 FILLER_299_1488
*5746 FILLER_299_1500
*5747 FILLER_299_1504
*5748 FILLER_299_1506
*5749 FILLER_299_703
*5750 FILLER_299_715
*5751 FILLER_299_727
*5752 FILLER_299_739
*5753 FILLER_29_1464
*5754 FILLER_29_1476
*5755 FILLER_29_1488
*5756 FILLER_29_1500
*5757 FILLER_29_1504
*5758 FILLER_29_1506
*5759 FILLER_29_703
*5760 FILLER_29_715
*5761 FILLER_29_727
*5762 FILLER_29_735
*5763 FILLER_29_737
*5764 FILLER_29_740
*5765 FILLER_2_1005
*5766 FILLER_2_1013
*5767 FILLER_2_1016
*5768 FILLER_2_1037
*5769 FILLER_2_1041
*5770 FILLER_2_1050
*5771 FILLER_2_1052
*5772 FILLER_2_1057
*5773 FILLER_2_1069
*5774 FILLER_2_1077
*5775 FILLER_2_1088
*5776 FILLER_2_109
*5777 FILLER_2_1093
*5778 FILLER_2_1097
*5779 FILLER_2_1100
*5780 FILLER_2_1102
*5781 FILLER_2_1121
*5782 FILLER_2_1143
*5783 FILLER_2_1147
*5784 FILLER_2_1149
*5785 FILLER_2_1157
*5786 FILLER_2_1161
*5787 FILLER_2_1188
*5788 FILLER_2_1200
*5789 FILLER_2_1205
*5790 FILLER_2_121
*5791 FILLER_2_1213
*5792 FILLER_2_1216
*5793 FILLER_2_1228
*5794 FILLER_2_1232
*5795 FILLER_2_1235
*5796 FILLER_2_1247
*5797 FILLER_2_1257
*5798 FILLER_2_1259
*5799 FILLER_2_1261
*5800 FILLER_2_1273
*5801 FILLER_2_1281
*5802 FILLER_2_1283
*5803 FILLER_2_1292
*5804 FILLER_2_1304
*5805 FILLER_2_1325
*5806 FILLER_2_133
*5807 FILLER_2_1337
*5808 FILLER_2_1345
*5809 FILLER_2_1357
*5810 FILLER_2_1369
*5811 FILLER_2_137
*5812 FILLER_2_1371
*5813 FILLER_2_1389
*5814 FILLER_2_139
*5815 FILLER_2_1397
*5816 FILLER_2_1399
*5817 FILLER_2_141
*5818 FILLER_2_1416
*5819 FILLER_2_1429
*5820 FILLER_2_1433
*5821 FILLER_2_1442
*5822 FILLER_2_1454
*5823 FILLER_2_1470
*5824 FILLER_2_1482
*5825 FILLER_2_1485
*5826 FILLER_2_1487
*5827 FILLER_2_15
*5828 FILLER_2_1504
*5829 FILLER_2_1506
*5830 FILLER_2_153
*5831 FILLER_2_165
*5832 FILLER_2_177
*5833 FILLER_2_189
*5834 FILLER_2_193
*5835 FILLER_2_195
*5836 FILLER_2_197
*5837 FILLER_2_209
*5838 FILLER_2_221
*5839 FILLER_2_233
*5840 FILLER_2_245
*5841 FILLER_2_249
*5842 FILLER_2_251
*5843 FILLER_2_253
*5844 FILLER_2_265
*5845 FILLER_2_27
*5846 FILLER_2_277
*5847 FILLER_2_289
*5848 FILLER_2_29
*5849 FILLER_2_3
*5850 FILLER_2_301
*5851 FILLER_2_305
*5852 FILLER_2_307
*5853 FILLER_2_309
*5854 FILLER_2_321
*5855 FILLER_2_333
*5856 FILLER_2_345
*5857 FILLER_2_357
*5858 FILLER_2_361
*5859 FILLER_2_363
*5860 FILLER_2_365
*5861 FILLER_2_377
*5862 FILLER_2_389
*5863 FILLER_2_401
*5864 FILLER_2_41
*5865 FILLER_2_413
*5866 FILLER_2_417
*5867 FILLER_2_419
*5868 FILLER_2_421
*5869 FILLER_2_433
*5870 FILLER_2_445
*5871 FILLER_2_457
*5872 FILLER_2_469
*5873 FILLER_2_473
*5874 FILLER_2_475
*5875 FILLER_2_477
*5876 FILLER_2_489
*5877 FILLER_2_501
*5878 FILLER_2_513
*5879 FILLER_2_525
*5880 FILLER_2_529
*5881 FILLER_2_53
*5882 FILLER_2_531
*5883 FILLER_2_533
*5884 FILLER_2_545
*5885 FILLER_2_573
*5886 FILLER_2_585
*5887 FILLER_2_587
*5888 FILLER_2_589
*5889 FILLER_2_591
*5890 FILLER_2_594
*5891 FILLER_2_598
*5892 FILLER_2_609
*5893 FILLER_2_613
*5894 FILLER_2_625
*5895 FILLER_2_627
*5896 FILLER_2_645
*5897 FILLER_2_65
*5898 FILLER_2_663
*5899 FILLER_2_689
*5900 FILLER_2_691
*5901 FILLER_2_701
*5902 FILLER_2_743
*5903 FILLER_2_747
*5904 FILLER_2_757
*5905 FILLER_2_761
*5906 FILLER_2_77
*5907 FILLER_2_770
*5908 FILLER_2_780
*5909 FILLER_2_808
*5910 FILLER_2_81
*5911 FILLER_2_821
*5912 FILLER_2_823
*5913 FILLER_2_83
*5914 FILLER_2_840
*5915 FILLER_2_844
*5916 FILLER_2_846
*5917 FILLER_2_85
*5918 FILLER_2_863
*5919 FILLER_2_867
*5920 FILLER_2_909
*5921 FILLER_2_913
*5922 FILLER_2_918
*5923 FILLER_2_922
*5924 FILLER_2_965
*5925 FILLER_2_97
*5926 FILLER_2_977
*5927 FILLER_2_979
*5928 FILLER_2_981
*5929 FILLER_2_993
*5930 FILLER_300_1464
*5931 FILLER_300_1476
*5932 FILLER_300_1488
*5933 FILLER_300_1490
*5934 FILLER_300_1502
*5935 FILLER_300_1506
*5936 FILLER_300_703
*5937 FILLER_300_715
*5938 FILLER_300_727
*5939 FILLER_300_729
*5940 FILLER_300_741
*5941 FILLER_300_745
*5942 FILLER_301_1464
*5943 FILLER_301_1476
*5944 FILLER_301_1488
*5945 FILLER_301_1500
*5946 FILLER_301_1504
*5947 FILLER_301_1506
*5948 FILLER_301_703
*5949 FILLER_301_715
*5950 FILLER_301_727
*5951 FILLER_301_739
*5952 FILLER_302_1464
*5953 FILLER_302_1476
*5954 FILLER_302_1488
*5955 FILLER_302_1490
*5956 FILLER_302_1502
*5957 FILLER_302_1506
*5958 FILLER_302_703
*5959 FILLER_302_715
*5960 FILLER_302_727
*5961 FILLER_302_729
*5962 FILLER_302_741
*5963 FILLER_302_745
*5964 FILLER_303_1464
*5965 FILLER_303_1476
*5966 FILLER_303_1488
*5967 FILLER_303_1500
*5968 FILLER_303_1504
*5969 FILLER_303_1506
*5970 FILLER_303_703
*5971 FILLER_303_715
*5972 FILLER_303_727
*5973 FILLER_303_739
*5974 FILLER_304_1464
*5975 FILLER_304_1476
*5976 FILLER_304_1488
*5977 FILLER_304_1490
*5978 FILLER_304_1502
*5979 FILLER_304_1506
*5980 FILLER_304_703
*5981 FILLER_304_715
*5982 FILLER_304_727
*5983 FILLER_304_729
*5984 FILLER_304_741
*5985 FILLER_304_745
*5986 FILLER_305_1464
*5987 FILLER_305_1476
*5988 FILLER_305_1488
*5989 FILLER_305_1500
*5990 FILLER_305_1504
*5991 FILLER_305_1506
*5992 FILLER_305_703
*5993 FILLER_305_715
*5994 FILLER_305_727
*5995 FILLER_305_739
*5996 FILLER_306_1464
*5997 FILLER_306_1476
*5998 FILLER_306_1488
*5999 FILLER_306_1490
*6000 FILLER_306_1502
*6001 FILLER_306_1506
*6002 FILLER_306_703
*6003 FILLER_306_715
*6004 FILLER_306_727
*6005 FILLER_306_729
*6006 FILLER_306_741
*6007 FILLER_306_745
*6008 FILLER_307_1464
*6009 FILLER_307_1476
*6010 FILLER_307_1488
*6011 FILLER_307_1500
*6012 FILLER_307_1504
*6013 FILLER_307_1506
*6014 FILLER_307_703
*6015 FILLER_307_715
*6016 FILLER_307_727
*6017 FILLER_307_739
*6018 FILLER_308_1464
*6019 FILLER_308_1476
*6020 FILLER_308_1488
*6021 FILLER_308_1490
*6022 FILLER_308_1502
*6023 FILLER_308_1506
*6024 FILLER_308_703
*6025 FILLER_308_715
*6026 FILLER_308_727
*6027 FILLER_308_729
*6028 FILLER_308_741
*6029 FILLER_308_745
*6030 FILLER_309_1464
*6031 FILLER_309_1476
*6032 FILLER_309_1488
*6033 FILLER_309_1500
*6034 FILLER_309_1504
*6035 FILLER_309_1506
*6036 FILLER_309_703
*6037 FILLER_309_715
*6038 FILLER_309_727
*6039 FILLER_309_739
*6040 FILLER_30_1464
*6041 FILLER_30_1476
*6042 FILLER_30_1488
*6043 FILLER_30_1490
*6044 FILLER_30_1502
*6045 FILLER_30_1506
*6046 FILLER_30_703
*6047 FILLER_30_715
*6048 FILLER_30_723
*6049 FILLER_30_729
*6050 FILLER_310_1464
*6051 FILLER_310_1476
*6052 FILLER_310_1488
*6053 FILLER_310_1490
*6054 FILLER_310_1502
*6055 FILLER_310_1506
*6056 FILLER_310_703
*6057 FILLER_310_715
*6058 FILLER_310_727
*6059 FILLER_310_729
*6060 FILLER_310_741
*6061 FILLER_310_745
*6062 FILLER_311_1464
*6063 FILLER_311_1476
*6064 FILLER_311_1488
*6065 FILLER_311_1500
*6066 FILLER_311_1504
*6067 FILLER_311_1506
*6068 FILLER_311_703
*6069 FILLER_311_715
*6070 FILLER_311_727
*6071 FILLER_311_739
*6072 FILLER_312_1464
*6073 FILLER_312_1476
*6074 FILLER_312_1488
*6075 FILLER_312_1490
*6076 FILLER_312_1502
*6077 FILLER_312_1506
*6078 FILLER_312_703
*6079 FILLER_312_715
*6080 FILLER_312_727
*6081 FILLER_312_729
*6082 FILLER_312_741
*6083 FILLER_312_745
*6084 FILLER_313_1464
*6085 FILLER_313_1476
*6086 FILLER_313_1488
*6087 FILLER_313_1500
*6088 FILLER_313_1504
*6089 FILLER_313_1506
*6090 FILLER_313_703
*6091 FILLER_313_715
*6092 FILLER_313_727
*6093 FILLER_313_739
*6094 FILLER_314_1464
*6095 FILLER_314_1476
*6096 FILLER_314_1488
*6097 FILLER_314_1490
*6098 FILLER_314_1502
*6099 FILLER_314_1506
*6100 FILLER_314_703
*6101 FILLER_314_715
*6102 FILLER_314_727
*6103 FILLER_314_729
*6104 FILLER_314_741
*6105 FILLER_314_745
*6106 FILLER_315_1464
*6107 FILLER_315_1476
*6108 FILLER_315_1488
*6109 FILLER_315_1500
*6110 FILLER_315_1504
*6111 FILLER_315_1506
*6112 FILLER_315_703
*6113 FILLER_315_715
*6114 FILLER_315_727
*6115 FILLER_315_739
*6116 FILLER_316_1464
*6117 FILLER_316_1476
*6118 FILLER_316_1488
*6119 FILLER_316_1490
*6120 FILLER_316_1502
*6121 FILLER_316_1506
*6122 FILLER_316_703
*6123 FILLER_316_715
*6124 FILLER_316_727
*6125 FILLER_316_729
*6126 FILLER_316_741
*6127 FILLER_316_745
*6128 FILLER_317_1464
*6129 FILLER_317_1476
*6130 FILLER_317_1488
*6131 FILLER_317_1500
*6132 FILLER_317_1504
*6133 FILLER_317_1506
*6134 FILLER_317_703
*6135 FILLER_317_715
*6136 FILLER_317_727
*6137 FILLER_317_739
*6138 FILLER_318_1464
*6139 FILLER_318_1476
*6140 FILLER_318_1488
*6141 FILLER_318_1490
*6142 FILLER_318_1502
*6143 FILLER_318_1506
*6144 FILLER_318_703
*6145 FILLER_318_715
*6146 FILLER_318_727
*6147 FILLER_318_729
*6148 FILLER_318_741
*6149 FILLER_318_745
*6150 FILLER_319_1464
*6151 FILLER_319_1476
*6152 FILLER_319_1488
*6153 FILLER_319_1500
*6154 FILLER_319_1504
*6155 FILLER_319_1506
*6156 FILLER_319_703
*6157 FILLER_319_715
*6158 FILLER_319_727
*6159 FILLER_319_739
*6160 FILLER_31_1464
*6161 FILLER_31_1476
*6162 FILLER_31_1488
*6163 FILLER_31_1500
*6164 FILLER_31_1504
*6165 FILLER_31_1506
*6166 FILLER_31_703
*6167 FILLER_31_715
*6168 FILLER_31_727
*6169 FILLER_31_739
*6170 FILLER_320_1464
*6171 FILLER_320_1476
*6172 FILLER_320_1488
*6173 FILLER_320_1490
*6174 FILLER_320_1502
*6175 FILLER_320_1506
*6176 FILLER_320_703
*6177 FILLER_320_715
*6178 FILLER_320_727
*6179 FILLER_320_729
*6180 FILLER_320_741
*6181 FILLER_320_745
*6182 FILLER_321_1005
*6183 FILLER_321_1007
*6184 FILLER_321_1009
*6185 FILLER_321_1021
*6186 FILLER_321_1033
*6187 FILLER_321_1035
*6188 FILLER_321_1037
*6189 FILLER_321_1049
*6190 FILLER_321_1061
*6191 FILLER_321_1063
*6192 FILLER_321_1065
*6193 FILLER_321_1077
*6194 FILLER_321_1089
*6195 FILLER_321_109
*6196 FILLER_321_1091
*6197 FILLER_321_1093
*6198 FILLER_321_1105
*6199 FILLER_321_111
*6200 FILLER_321_1117
*6201 FILLER_321_1119
*6202 FILLER_321_1121
*6203 FILLER_321_113
*6204 FILLER_321_1133
*6205 FILLER_321_1145
*6206 FILLER_321_1147
*6207 FILLER_321_1149
*6208 FILLER_321_1161
*6209 FILLER_321_1173
*6210 FILLER_321_1175
*6211 FILLER_321_1177
*6212 FILLER_321_1189
*6213 FILLER_321_1201
*6214 FILLER_321_1203
*6215 FILLER_321_1205
*6216 FILLER_321_1217
*6217 FILLER_321_1229
*6218 FILLER_321_1231
*6219 FILLER_321_1233
*6220 FILLER_321_1245
*6221 FILLER_321_125
*6222 FILLER_321_1257
*6223 FILLER_321_1259
*6224 FILLER_321_1261
*6225 FILLER_321_1273
*6226 FILLER_321_1285
*6227 FILLER_321_1287
*6228 FILLER_321_1289
*6229 FILLER_321_1301
*6230 FILLER_321_1313
*6231 FILLER_321_1315
*6232 FILLER_321_1317
*6233 FILLER_321_1329
*6234 FILLER_321_1341
*6235 FILLER_321_1343
*6236 FILLER_321_1345
*6237 FILLER_321_1357
*6238 FILLER_321_1369
*6239 FILLER_321_137
*6240 FILLER_321_1371
*6241 FILLER_321_1373
*6242 FILLER_321_1385
*6243 FILLER_321_139
*6244 FILLER_321_1397
*6245 FILLER_321_1399
*6246 FILLER_321_1401
*6247 FILLER_321_141
*6248 FILLER_321_1413
*6249 FILLER_321_1425
*6250 FILLER_321_1427
*6251 FILLER_321_1429
*6252 FILLER_321_1441
*6253 FILLER_321_1453
*6254 FILLER_321_1455
*6255 FILLER_321_1457
*6256 FILLER_321_1469
*6257 FILLER_321_1481
*6258 FILLER_321_1483
*6259 FILLER_321_1485
*6260 FILLER_321_1497
*6261 FILLER_321_15
*6262 FILLER_321_1505
*6263 FILLER_321_153
*6264 FILLER_321_165
*6265 FILLER_321_167
*6266 FILLER_321_169
*6267 FILLER_321_181
*6268 FILLER_321_193
*6269 FILLER_321_195
*6270 FILLER_321_197
*6271 FILLER_321_209
*6272 FILLER_321_221
*6273 FILLER_321_223
*6274 FILLER_321_225
*6275 FILLER_321_237
*6276 FILLER_321_249
*6277 FILLER_321_251
*6278 FILLER_321_253
*6279 FILLER_321_265
*6280 FILLER_321_27
*6281 FILLER_321_277
*6282 FILLER_321_279
*6283 FILLER_321_281
*6284 FILLER_321_29
*6285 FILLER_321_293
*6286 FILLER_321_3
*6287 FILLER_321_305
*6288 FILLER_321_307
*6289 FILLER_321_309
*6290 FILLER_321_321
*6291 FILLER_321_333
*6292 FILLER_321_335
*6293 FILLER_321_337
*6294 FILLER_321_349
*6295 FILLER_321_361
*6296 FILLER_321_363
*6297 FILLER_321_365
*6298 FILLER_321_377
*6299 FILLER_321_389
*6300 FILLER_321_391
*6301 FILLER_321_393
*6302 FILLER_321_405
*6303 FILLER_321_41
*6304 FILLER_321_417
*6305 FILLER_321_419
*6306 FILLER_321_421
*6307 FILLER_321_433
*6308 FILLER_321_445
*6309 FILLER_321_447
*6310 FILLER_321_449
*6311 FILLER_321_461
*6312 FILLER_321_473
*6313 FILLER_321_475
*6314 FILLER_321_477
*6315 FILLER_321_489
*6316 FILLER_321_501
*6317 FILLER_321_503
*6318 FILLER_321_505
*6319 FILLER_321_517
*6320 FILLER_321_529
*6321 FILLER_321_53
*6322 FILLER_321_531
*6323 FILLER_321_533
*6324 FILLER_321_545
*6325 FILLER_321_55
*6326 FILLER_321_557
*6327 FILLER_321_559
*6328 FILLER_321_561
*6329 FILLER_321_57
*6330 FILLER_321_573
*6331 FILLER_321_585
*6332 FILLER_321_587
*6333 FILLER_321_589
*6334 FILLER_321_601
*6335 FILLER_321_613
*6336 FILLER_321_615
*6337 FILLER_321_617
*6338 FILLER_321_629
*6339 FILLER_321_641
*6340 FILLER_321_643
*6341 FILLER_321_645
*6342 FILLER_321_657
*6343 FILLER_321_669
*6344 FILLER_321_671
*6345 FILLER_321_673
*6346 FILLER_321_685
*6347 FILLER_321_69
*6348 FILLER_321_697
*6349 FILLER_321_699
*6350 FILLER_321_701
*6351 FILLER_321_713
*6352 FILLER_321_725
*6353 FILLER_321_727
*6354 FILLER_321_729
*6355 FILLER_321_741
*6356 FILLER_321_753
*6357 FILLER_321_755
*6358 FILLER_321_757
*6359 FILLER_321_769
*6360 FILLER_321_781
*6361 FILLER_321_783
*6362 FILLER_321_785
*6363 FILLER_321_797
*6364 FILLER_321_809
*6365 FILLER_321_81
*6366 FILLER_321_811
*6367 FILLER_321_813
*6368 FILLER_321_825
*6369 FILLER_321_83
*6370 FILLER_321_837
*6371 FILLER_321_839
*6372 FILLER_321_841
*6373 FILLER_321_85
*6374 FILLER_321_853
*6375 FILLER_321_865
*6376 FILLER_321_867
*6377 FILLER_321_869
*6378 FILLER_321_881
*6379 FILLER_321_893
*6380 FILLER_321_895
*6381 FILLER_321_897
*6382 FILLER_321_909
*6383 FILLER_321_921
*6384 FILLER_321_923
*6385 FILLER_321_925
*6386 FILLER_321_937
*6387 FILLER_321_949
*6388 FILLER_321_951
*6389 FILLER_321_953
*6390 FILLER_321_965
*6391 FILLER_321_97
*6392 FILLER_321_977
*6393 FILLER_321_979
*6394 FILLER_321_981
*6395 FILLER_321_993
*6396 FILLER_322_1005
*6397 FILLER_322_1017
*6398 FILLER_322_1029
*6399 FILLER_322_1033
*6400 FILLER_322_1035
*6401 FILLER_322_1037
*6402 FILLER_322_1049
*6403 FILLER_322_1061
*6404 FILLER_322_1073
*6405 FILLER_322_1085
*6406 FILLER_322_1089
*6407 FILLER_322_109
*6408 FILLER_322_1091
*6409 FILLER_322_1093
*6410 FILLER_322_1105
*6411 FILLER_322_1117
*6412 FILLER_322_1129
*6413 FILLER_322_1141
*6414 FILLER_322_1145
*6415 FILLER_322_1147
*6416 FILLER_322_1149
*6417 FILLER_322_1161
*6418 FILLER_322_1173
*6419 FILLER_322_1185
*6420 FILLER_322_1197
*6421 FILLER_322_1201
*6422 FILLER_322_1203
*6423 FILLER_322_1205
*6424 FILLER_322_121
*6425 FILLER_322_1217
*6426 FILLER_322_1229
*6427 FILLER_322_1241
*6428 FILLER_322_1253
*6429 FILLER_322_1257
*6430 FILLER_322_1259
*6431 FILLER_322_1261
*6432 FILLER_322_1273
*6433 FILLER_322_1285
*6434 FILLER_322_1297
*6435 FILLER_322_1309
*6436 FILLER_322_1313
*6437 FILLER_322_1315
*6438 FILLER_322_1317
*6439 FILLER_322_1329
*6440 FILLER_322_133
*6441 FILLER_322_1341
*6442 FILLER_322_1353
*6443 FILLER_322_1365
*6444 FILLER_322_1369
*6445 FILLER_322_137
*6446 FILLER_322_1371
*6447 FILLER_322_1373
*6448 FILLER_322_1385
*6449 FILLER_322_139
*6450 FILLER_322_1397
*6451 FILLER_322_1409
*6452 FILLER_322_141
*6453 FILLER_322_1421
*6454 FILLER_322_1425
*6455 FILLER_322_1427
*6456 FILLER_322_1429
*6457 FILLER_322_1441
*6458 FILLER_322_1453
*6459 FILLER_322_1465
*6460 FILLER_322_1477
*6461 FILLER_322_1481
*6462 FILLER_322_1483
*6463 FILLER_322_1485
*6464 FILLER_322_1497
*6465 FILLER_322_15
*6466 FILLER_322_1505
*6467 FILLER_322_153
*6468 FILLER_322_165
*6469 FILLER_322_177
*6470 FILLER_322_189
*6471 FILLER_322_193
*6472 FILLER_322_195
*6473 FILLER_322_197
*6474 FILLER_322_209
*6475 FILLER_322_221
*6476 FILLER_322_233
*6477 FILLER_322_245
*6478 FILLER_322_249
*6479 FILLER_322_251
*6480 FILLER_322_253
*6481 FILLER_322_265
*6482 FILLER_322_27
*6483 FILLER_322_277
*6484 FILLER_322_289
*6485 FILLER_322_29
*6486 FILLER_322_3
*6487 FILLER_322_301
*6488 FILLER_322_305
*6489 FILLER_322_307
*6490 FILLER_322_309
*6491 FILLER_322_321
*6492 FILLER_322_333
*6493 FILLER_322_345
*6494 FILLER_322_357
*6495 FILLER_322_361
*6496 FILLER_322_363
*6497 FILLER_322_365
*6498 FILLER_322_377
*6499 FILLER_322_389
*6500 FILLER_322_401
*6501 FILLER_322_41
*6502 FILLER_322_413
*6503 FILLER_322_417
*6504 FILLER_322_419
*6505 FILLER_322_421
*6506 FILLER_322_433
*6507 FILLER_322_445
*6508 FILLER_322_457
*6509 FILLER_322_469
*6510 FILLER_322_473
*6511 FILLER_322_475
*6512 FILLER_322_477
*6513 FILLER_322_489
*6514 FILLER_322_501
*6515 FILLER_322_513
*6516 FILLER_322_525
*6517 FILLER_322_529
*6518 FILLER_322_53
*6519 FILLER_322_531
*6520 FILLER_322_533
*6521 FILLER_322_545
*6522 FILLER_322_557
*6523 FILLER_322_569
*6524 FILLER_322_581
*6525 FILLER_322_585
*6526 FILLER_322_587
*6527 FILLER_322_589
*6528 FILLER_322_601
*6529 FILLER_322_613
*6530 FILLER_322_625
*6531 FILLER_322_637
*6532 FILLER_322_641
*6533 FILLER_322_643
*6534 FILLER_322_645
*6535 FILLER_322_65
*6536 FILLER_322_657
*6537 FILLER_322_669
*6538 FILLER_322_681
*6539 FILLER_322_693
*6540 FILLER_322_697
*6541 FILLER_322_699
*6542 FILLER_322_701
*6543 FILLER_322_713
*6544 FILLER_322_725
*6545 FILLER_322_737
*6546 FILLER_322_749
*6547 FILLER_322_753
*6548 FILLER_322_755
*6549 FILLER_322_757
*6550 FILLER_322_769
*6551 FILLER_322_77
*6552 FILLER_322_781
*6553 FILLER_322_793
*6554 FILLER_322_805
*6555 FILLER_322_809
*6556 FILLER_322_81
*6557 FILLER_322_811
*6558 FILLER_322_813
*6559 FILLER_322_825
*6560 FILLER_322_83
*6561 FILLER_322_837
*6562 FILLER_322_849
*6563 FILLER_322_85
*6564 FILLER_322_861
*6565 FILLER_322_865
*6566 FILLER_322_867
*6567 FILLER_322_869
*6568 FILLER_322_881
*6569 FILLER_322_893
*6570 FILLER_322_905
*6571 FILLER_322_917
*6572 FILLER_322_921
*6573 FILLER_322_923
*6574 FILLER_322_925
*6575 FILLER_322_937
*6576 FILLER_322_949
*6577 FILLER_322_961
*6578 FILLER_322_97
*6579 FILLER_322_973
*6580 FILLER_322_977
*6581 FILLER_322_979
*6582 FILLER_322_981
*6583 FILLER_322_993
*6584 FILLER_323_1001
*6585 FILLER_323_1005
*6586 FILLER_323_1007
*6587 FILLER_323_1009
*6588 FILLER_323_1021
*6589 FILLER_323_1033
*6590 FILLER_323_1045
*6591 FILLER_323_105
*6592 FILLER_323_1057
*6593 FILLER_323_1061
*6594 FILLER_323_1063
*6595 FILLER_323_1065
*6596 FILLER_323_1077
*6597 FILLER_323_1089
*6598 FILLER_323_109
*6599 FILLER_323_1101
*6600 FILLER_323_111
*6601 FILLER_323_1113
*6602 FILLER_323_1117
*6603 FILLER_323_1119
*6604 FILLER_323_1121
*6605 FILLER_323_113
*6606 FILLER_323_1133
*6607 FILLER_323_1145
*6608 FILLER_323_1157
*6609 FILLER_323_1169
*6610 FILLER_323_1173
*6611 FILLER_323_1175
*6612 FILLER_323_1177
*6613 FILLER_323_1189
*6614 FILLER_323_1201
*6615 FILLER_323_1213
*6616 FILLER_323_1225
*6617 FILLER_323_1229
*6618 FILLER_323_1231
*6619 FILLER_323_1233
*6620 FILLER_323_1245
*6621 FILLER_323_125
*6622 FILLER_323_1257
*6623 FILLER_323_1269
*6624 FILLER_323_1281
*6625 FILLER_323_1285
*6626 FILLER_323_1287
*6627 FILLER_323_1289
*6628 FILLER_323_1301
*6629 FILLER_323_1313
*6630 FILLER_323_1325
*6631 FILLER_323_1337
*6632 FILLER_323_1341
*6633 FILLER_323_1343
*6634 FILLER_323_1345
*6635 FILLER_323_1357
*6636 FILLER_323_1369
*6637 FILLER_323_137
*6638 FILLER_323_1381
*6639 FILLER_323_1393
*6640 FILLER_323_1397
*6641 FILLER_323_1399
*6642 FILLER_323_1401
*6643 FILLER_323_1413
*6644 FILLER_323_1425
*6645 FILLER_323_1437
*6646 FILLER_323_1449
*6647 FILLER_323_1453
*6648 FILLER_323_1455
*6649 FILLER_323_1457
*6650 FILLER_323_1469
*6651 FILLER_323_1481
*6652 FILLER_323_149
*6653 FILLER_323_1493
*6654 FILLER_323_15
*6655 FILLER_323_1505
*6656 FILLER_323_161
*6657 FILLER_323_165
*6658 FILLER_323_167
*6659 FILLER_323_169
*6660 FILLER_323_181
*6661 FILLER_323_193
*6662 FILLER_323_205
*6663 FILLER_323_217
*6664 FILLER_323_221
*6665 FILLER_323_223
*6666 FILLER_323_225
*6667 FILLER_323_237
*6668 FILLER_323_249
*6669 FILLER_323_261
*6670 FILLER_323_27
*6671 FILLER_323_273
*6672 FILLER_323_277
*6673 FILLER_323_279
*6674 FILLER_323_281
*6675 FILLER_323_293
*6676 FILLER_323_3
*6677 FILLER_323_305
*6678 FILLER_323_317
*6679 FILLER_323_329
*6680 FILLER_323_333
*6681 FILLER_323_335
*6682 FILLER_323_337
*6683 FILLER_323_349
*6684 FILLER_323_361
*6685 FILLER_323_373
*6686 FILLER_323_385
*6687 FILLER_323_389
*6688 FILLER_323_39
*6689 FILLER_323_391
*6690 FILLER_323_393
*6691 FILLER_323_405
*6692 FILLER_323_417
*6693 FILLER_323_429
*6694 FILLER_323_441
*6695 FILLER_323_445
*6696 FILLER_323_447
*6697 FILLER_323_449
*6698 FILLER_323_461
*6699 FILLER_323_473
*6700 FILLER_323_485
*6701 FILLER_323_497
*6702 FILLER_323_501
*6703 FILLER_323_503
*6704 FILLER_323_505
*6705 FILLER_323_51
*6706 FILLER_323_517
*6707 FILLER_323_529
*6708 FILLER_323_541
*6709 FILLER_323_55
*6710 FILLER_323_553
*6711 FILLER_323_557
*6712 FILLER_323_559
*6713 FILLER_323_561
*6714 FILLER_323_57
*6715 FILLER_323_573
*6716 FILLER_323_585
*6717 FILLER_323_597
*6718 FILLER_323_609
*6719 FILLER_323_613
*6720 FILLER_323_615
*6721 FILLER_323_617
*6722 FILLER_323_629
*6723 FILLER_323_641
*6724 FILLER_323_653
*6725 FILLER_323_665
*6726 FILLER_323_669
*6727 FILLER_323_671
*6728 FILLER_323_673
*6729 FILLER_323_685
*6730 FILLER_323_69
*6731 FILLER_323_697
*6732 FILLER_323_709
*6733 FILLER_323_721
*6734 FILLER_323_725
*6735 FILLER_323_727
*6736 FILLER_323_729
*6737 FILLER_323_741
*6738 FILLER_323_753
*6739 FILLER_323_765
*6740 FILLER_323_777
*6741 FILLER_323_781
*6742 FILLER_323_783
*6743 FILLER_323_785
*6744 FILLER_323_797
*6745 FILLER_323_809
*6746 FILLER_323_81
*6747 FILLER_323_821
*6748 FILLER_323_833
*6749 FILLER_323_837
*6750 FILLER_323_839
*6751 FILLER_323_841
*6752 FILLER_323_853
*6753 FILLER_323_865
*6754 FILLER_323_877
*6755 FILLER_323_889
*6756 FILLER_323_893
*6757 FILLER_323_895
*6758 FILLER_323_897
*6759 FILLER_323_909
*6760 FILLER_323_921
*6761 FILLER_323_93
*6762 FILLER_323_933
*6763 FILLER_323_945
*6764 FILLER_323_949
*6765 FILLER_323_951
*6766 FILLER_323_953
*6767 FILLER_323_965
*6768 FILLER_323_977
*6769 FILLER_323_989
*6770 FILLER_324_1005
*6771 FILLER_324_1017
*6772 FILLER_324_1029
*6773 FILLER_324_1033
*6774 FILLER_324_1035
*6775 FILLER_324_1037
*6776 FILLER_324_1049
*6777 FILLER_324_1061
*6778 FILLER_324_1073
*6779 FILLER_324_1085
*6780 FILLER_324_1089
*6781 FILLER_324_109
*6782 FILLER_324_1091
*6783 FILLER_324_1093
*6784 FILLER_324_1105
*6785 FILLER_324_1117
*6786 FILLER_324_1129
*6787 FILLER_324_1141
*6788 FILLER_324_1145
*6789 FILLER_324_1147
*6790 FILLER_324_1149
*6791 FILLER_324_1161
*6792 FILLER_324_1173
*6793 FILLER_324_1185
*6794 FILLER_324_1197
*6795 FILLER_324_1201
*6796 FILLER_324_1203
*6797 FILLER_324_1205
*6798 FILLER_324_121
*6799 FILLER_324_1217
*6800 FILLER_324_1229
*6801 FILLER_324_1241
*6802 FILLER_324_1253
*6803 FILLER_324_1257
*6804 FILLER_324_1259
*6805 FILLER_324_1261
*6806 FILLER_324_1273
*6807 FILLER_324_1285
*6808 FILLER_324_1297
*6809 FILLER_324_1309
*6810 FILLER_324_1313
*6811 FILLER_324_1315
*6812 FILLER_324_1317
*6813 FILLER_324_1329
*6814 FILLER_324_133
*6815 FILLER_324_1341
*6816 FILLER_324_1353
*6817 FILLER_324_1365
*6818 FILLER_324_1369
*6819 FILLER_324_137
*6820 FILLER_324_1371
*6821 FILLER_324_1373
*6822 FILLER_324_1385
*6823 FILLER_324_139
*6824 FILLER_324_1397
*6825 FILLER_324_1409
*6826 FILLER_324_141
*6827 FILLER_324_1421
*6828 FILLER_324_1425
*6829 FILLER_324_1427
*6830 FILLER_324_1429
*6831 FILLER_324_1441
*6832 FILLER_324_1453
*6833 FILLER_324_1465
*6834 FILLER_324_1477
*6835 FILLER_324_1481
*6836 FILLER_324_1483
*6837 FILLER_324_1485
*6838 FILLER_324_1497
*6839 FILLER_324_15
*6840 FILLER_324_1505
*6841 FILLER_324_153
*6842 FILLER_324_165
*6843 FILLER_324_177
*6844 FILLER_324_189
*6845 FILLER_324_193
*6846 FILLER_324_195
*6847 FILLER_324_197
*6848 FILLER_324_209
*6849 FILLER_324_221
*6850 FILLER_324_233
*6851 FILLER_324_245
*6852 FILLER_324_249
*6853 FILLER_324_251
*6854 FILLER_324_253
*6855 FILLER_324_265
*6856 FILLER_324_27
*6857 FILLER_324_277
*6858 FILLER_324_289
*6859 FILLER_324_29
*6860 FILLER_324_3
*6861 FILLER_324_301
*6862 FILLER_324_305
*6863 FILLER_324_307
*6864 FILLER_324_309
*6865 FILLER_324_321
*6866 FILLER_324_333
*6867 FILLER_324_345
*6868 FILLER_324_357
*6869 FILLER_324_361
*6870 FILLER_324_363
*6871 FILLER_324_365
*6872 FILLER_324_377
*6873 FILLER_324_389
*6874 FILLER_324_401
*6875 FILLER_324_41
*6876 FILLER_324_413
*6877 FILLER_324_417
*6878 FILLER_324_419
*6879 FILLER_324_421
*6880 FILLER_324_433
*6881 FILLER_324_445
*6882 FILLER_324_457
*6883 FILLER_324_469
*6884 FILLER_324_473
*6885 FILLER_324_475
*6886 FILLER_324_477
*6887 FILLER_324_489
*6888 FILLER_324_501
*6889 FILLER_324_513
*6890 FILLER_324_525
*6891 FILLER_324_529
*6892 FILLER_324_53
*6893 FILLER_324_531
*6894 FILLER_324_533
*6895 FILLER_324_545
*6896 FILLER_324_557
*6897 FILLER_324_569
*6898 FILLER_324_581
*6899 FILLER_324_585
*6900 FILLER_324_587
*6901 FILLER_324_589
*6902 FILLER_324_601
*6903 FILLER_324_613
*6904 FILLER_324_625
*6905 FILLER_324_637
*6906 FILLER_324_641
*6907 FILLER_324_643
*6908 FILLER_324_645
*6909 FILLER_324_65
*6910 FILLER_324_657
*6911 FILLER_324_669
*6912 FILLER_324_681
*6913 FILLER_324_693
*6914 FILLER_324_697
*6915 FILLER_324_699
*6916 FILLER_324_701
*6917 FILLER_324_713
*6918 FILLER_324_725
*6919 FILLER_324_737
*6920 FILLER_324_749
*6921 FILLER_324_753
*6922 FILLER_324_755
*6923 FILLER_324_757
*6924 FILLER_324_769
*6925 FILLER_324_77
*6926 FILLER_324_781
*6927 FILLER_324_793
*6928 FILLER_324_805
*6929 FILLER_324_809
*6930 FILLER_324_81
*6931 FILLER_324_811
*6932 FILLER_324_813
*6933 FILLER_324_825
*6934 FILLER_324_83
*6935 FILLER_324_837
*6936 FILLER_324_849
*6937 FILLER_324_85
*6938 FILLER_324_861
*6939 FILLER_324_865
*6940 FILLER_324_867
*6941 FILLER_324_869
*6942 FILLER_324_881
*6943 FILLER_324_893
*6944 FILLER_324_905
*6945 FILLER_324_917
*6946 FILLER_324_921
*6947 FILLER_324_923
*6948 FILLER_324_925
*6949 FILLER_324_937
*6950 FILLER_324_949
*6951 FILLER_324_961
*6952 FILLER_324_97
*6953 FILLER_324_973
*6954 FILLER_324_977
*6955 FILLER_324_979
*6956 FILLER_324_981
*6957 FILLER_324_993
*6958 FILLER_325_1001
*6959 FILLER_325_1005
*6960 FILLER_325_1007
*6961 FILLER_325_1009
*6962 FILLER_325_1021
*6963 FILLER_325_1033
*6964 FILLER_325_1045
*6965 FILLER_325_105
*6966 FILLER_325_1057
*6967 FILLER_325_1061
*6968 FILLER_325_1063
*6969 FILLER_325_1065
*6970 FILLER_325_1077
*6971 FILLER_325_1089
*6972 FILLER_325_109
*6973 FILLER_325_1101
*6974 FILLER_325_111
*6975 FILLER_325_1113
*6976 FILLER_325_1117
*6977 FILLER_325_1119
*6978 FILLER_325_1121
*6979 FILLER_325_113
*6980 FILLER_325_1133
*6981 FILLER_325_1145
*6982 FILLER_325_1157
*6983 FILLER_325_1169
*6984 FILLER_325_1173
*6985 FILLER_325_1175
*6986 FILLER_325_1177
*6987 FILLER_325_1189
*6988 FILLER_325_1201
*6989 FILLER_325_1213
*6990 FILLER_325_1225
*6991 FILLER_325_1229
*6992 FILLER_325_1231
*6993 FILLER_325_1233
*6994 FILLER_325_1245
*6995 FILLER_325_125
*6996 FILLER_325_1257
*6997 FILLER_325_1269
*6998 FILLER_325_1281
*6999 FILLER_325_1285
*7000 FILLER_325_1287
*7001 FILLER_325_1289
*7002 FILLER_325_1301
*7003 FILLER_325_1313
*7004 FILLER_325_1325
*7005 FILLER_325_1337
*7006 FILLER_325_1341
*7007 FILLER_325_1343
*7008 FILLER_325_1345
*7009 FILLER_325_1357
*7010 FILLER_325_1369
*7011 FILLER_325_137
*7012 FILLER_325_1381
*7013 FILLER_325_1393
*7014 FILLER_325_1397
*7015 FILLER_325_1399
*7016 FILLER_325_1401
*7017 FILLER_325_1413
*7018 FILLER_325_1425
*7019 FILLER_325_1437
*7020 FILLER_325_1449
*7021 FILLER_325_1453
*7022 FILLER_325_1455
*7023 FILLER_325_1457
*7024 FILLER_325_1469
*7025 FILLER_325_1481
*7026 FILLER_325_149
*7027 FILLER_325_1493
*7028 FILLER_325_15
*7029 FILLER_325_1505
*7030 FILLER_325_161
*7031 FILLER_325_165
*7032 FILLER_325_167
*7033 FILLER_325_169
*7034 FILLER_325_181
*7035 FILLER_325_193
*7036 FILLER_325_205
*7037 FILLER_325_217
*7038 FILLER_325_221
*7039 FILLER_325_223
*7040 FILLER_325_225
*7041 FILLER_325_237
*7042 FILLER_325_249
*7043 FILLER_325_261
*7044 FILLER_325_27
*7045 FILLER_325_273
*7046 FILLER_325_277
*7047 FILLER_325_279
*7048 FILLER_325_281
*7049 FILLER_325_293
*7050 FILLER_325_3
*7051 FILLER_325_305
*7052 FILLER_325_317
*7053 FILLER_325_329
*7054 FILLER_325_333
*7055 FILLER_325_335
*7056 FILLER_325_337
*7057 FILLER_325_349
*7058 FILLER_325_361
*7059 FILLER_325_373
*7060 FILLER_325_385
*7061 FILLER_325_389
*7062 FILLER_325_39
*7063 FILLER_325_391
*7064 FILLER_325_393
*7065 FILLER_325_405
*7066 FILLER_325_417
*7067 FILLER_325_429
*7068 FILLER_325_441
*7069 FILLER_325_445
*7070 FILLER_325_447
*7071 FILLER_325_449
*7072 FILLER_325_461
*7073 FILLER_325_473
*7074 FILLER_325_485
*7075 FILLER_325_497
*7076 FILLER_325_501
*7077 FILLER_325_503
*7078 FILLER_325_505
*7079 FILLER_325_51
*7080 FILLER_325_517
*7081 FILLER_325_529
*7082 FILLER_325_541
*7083 FILLER_325_55
*7084 FILLER_325_553
*7085 FILLER_325_557
*7086 FILLER_325_559
*7087 FILLER_325_561
*7088 FILLER_325_57
*7089 FILLER_325_573
*7090 FILLER_325_585
*7091 FILLER_325_597
*7092 FILLER_325_609
*7093 FILLER_325_613
*7094 FILLER_325_615
*7095 FILLER_325_617
*7096 FILLER_325_629
*7097 FILLER_325_641
*7098 FILLER_325_653
*7099 FILLER_325_665
*7100 FILLER_325_669
*7101 FILLER_325_671
*7102 FILLER_325_673
*7103 FILLER_325_685
*7104 FILLER_325_69
*7105 FILLER_325_697
*7106 FILLER_325_709
*7107 FILLER_325_721
*7108 FILLER_325_725
*7109 FILLER_325_727
*7110 FILLER_325_729
*7111 FILLER_325_741
*7112 FILLER_325_753
*7113 FILLER_325_765
*7114 FILLER_325_777
*7115 FILLER_325_781
*7116 FILLER_325_783
*7117 FILLER_325_785
*7118 FILLER_325_797
*7119 FILLER_325_809
*7120 FILLER_325_81
*7121 FILLER_325_821
*7122 FILLER_325_833
*7123 FILLER_325_837
*7124 FILLER_325_839
*7125 FILLER_325_841
*7126 FILLER_325_853
*7127 FILLER_325_865
*7128 FILLER_325_877
*7129 FILLER_325_889
*7130 FILLER_325_893
*7131 FILLER_325_895
*7132 FILLER_325_897
*7133 FILLER_325_909
*7134 FILLER_325_921
*7135 FILLER_325_93
*7136 FILLER_325_933
*7137 FILLER_325_945
*7138 FILLER_325_949
*7139 FILLER_325_951
*7140 FILLER_325_953
*7141 FILLER_325_965
*7142 FILLER_325_977
*7143 FILLER_325_989
*7144 FILLER_326_1005
*7145 FILLER_326_1017
*7146 FILLER_326_1029
*7147 FILLER_326_1033
*7148 FILLER_326_1035
*7149 FILLER_326_1037
*7150 FILLER_326_1049
*7151 FILLER_326_1061
*7152 FILLER_326_1073
*7153 FILLER_326_1085
*7154 FILLER_326_1089
*7155 FILLER_326_109
*7156 FILLER_326_1091
*7157 FILLER_326_1093
*7158 FILLER_326_1105
*7159 FILLER_326_1117
*7160 FILLER_326_1129
*7161 FILLER_326_1141
*7162 FILLER_326_1145
*7163 FILLER_326_1147
*7164 FILLER_326_1149
*7165 FILLER_326_1161
*7166 FILLER_326_1173
*7167 FILLER_326_1185
*7168 FILLER_326_1197
*7169 FILLER_326_1201
*7170 FILLER_326_1203
*7171 FILLER_326_1205
*7172 FILLER_326_121
*7173 FILLER_326_1217
*7174 FILLER_326_1229
*7175 FILLER_326_1241
*7176 FILLER_326_1253
*7177 FILLER_326_1257
*7178 FILLER_326_1259
*7179 FILLER_326_1261
*7180 FILLER_326_1273
*7181 FILLER_326_1285
*7182 FILLER_326_1297
*7183 FILLER_326_1309
*7184 FILLER_326_1313
*7185 FILLER_326_1315
*7186 FILLER_326_1317
*7187 FILLER_326_1329
*7188 FILLER_326_133
*7189 FILLER_326_1341
*7190 FILLER_326_1353
*7191 FILLER_326_1365
*7192 FILLER_326_1369
*7193 FILLER_326_137
*7194 FILLER_326_1371
*7195 FILLER_326_1373
*7196 FILLER_326_1385
*7197 FILLER_326_139
*7198 FILLER_326_1397
*7199 FILLER_326_1409
*7200 FILLER_326_141
*7201 FILLER_326_1421
*7202 FILLER_326_1425
*7203 FILLER_326_1427
*7204 FILLER_326_1429
*7205 FILLER_326_1441
*7206 FILLER_326_1453
*7207 FILLER_326_1465
*7208 FILLER_326_1477
*7209 FILLER_326_1481
*7210 FILLER_326_1483
*7211 FILLER_326_1485
*7212 FILLER_326_1497
*7213 FILLER_326_15
*7214 FILLER_326_1505
*7215 FILLER_326_153
*7216 FILLER_326_165
*7217 FILLER_326_177
*7218 FILLER_326_189
*7219 FILLER_326_193
*7220 FILLER_326_195
*7221 FILLER_326_197
*7222 FILLER_326_209
*7223 FILLER_326_221
*7224 FILLER_326_233
*7225 FILLER_326_245
*7226 FILLER_326_249
*7227 FILLER_326_251
*7228 FILLER_326_253
*7229 FILLER_326_265
*7230 FILLER_326_27
*7231 FILLER_326_277
*7232 FILLER_326_289
*7233 FILLER_326_29
*7234 FILLER_326_3
*7235 FILLER_326_301
*7236 FILLER_326_305
*7237 FILLER_326_307
*7238 FILLER_326_309
*7239 FILLER_326_321
*7240 FILLER_326_333
*7241 FILLER_326_345
*7242 FILLER_326_357
*7243 FILLER_326_361
*7244 FILLER_326_363
*7245 FILLER_326_365
*7246 FILLER_326_377
*7247 FILLER_326_389
*7248 FILLER_326_401
*7249 FILLER_326_41
*7250 FILLER_326_413
*7251 FILLER_326_417
*7252 FILLER_326_419
*7253 FILLER_326_421
*7254 FILLER_326_433
*7255 FILLER_326_445
*7256 FILLER_326_457
*7257 FILLER_326_469
*7258 FILLER_326_473
*7259 FILLER_326_475
*7260 FILLER_326_477
*7261 FILLER_326_489
*7262 FILLER_326_501
*7263 FILLER_326_513
*7264 FILLER_326_525
*7265 FILLER_326_529
*7266 FILLER_326_53
*7267 FILLER_326_531
*7268 FILLER_326_533
*7269 FILLER_326_545
*7270 FILLER_326_557
*7271 FILLER_326_569
*7272 FILLER_326_581
*7273 FILLER_326_585
*7274 FILLER_326_587
*7275 FILLER_326_589
*7276 FILLER_326_601
*7277 FILLER_326_613
*7278 FILLER_326_625
*7279 FILLER_326_637
*7280 FILLER_326_641
*7281 FILLER_326_643
*7282 FILLER_326_645
*7283 FILLER_326_65
*7284 FILLER_326_657
*7285 FILLER_326_669
*7286 FILLER_326_681
*7287 FILLER_326_693
*7288 FILLER_326_697
*7289 FILLER_326_699
*7290 FILLER_326_701
*7291 FILLER_326_713
*7292 FILLER_326_725
*7293 FILLER_326_737
*7294 FILLER_326_749
*7295 FILLER_326_753
*7296 FILLER_326_755
*7297 FILLER_326_757
*7298 FILLER_326_769
*7299 FILLER_326_77
*7300 FILLER_326_781
*7301 FILLER_326_793
*7302 FILLER_326_805
*7303 FILLER_326_809
*7304 FILLER_326_81
*7305 FILLER_326_811
*7306 FILLER_326_813
*7307 FILLER_326_825
*7308 FILLER_326_83
*7309 FILLER_326_837
*7310 FILLER_326_849
*7311 FILLER_326_85
*7312 FILLER_326_861
*7313 FILLER_326_865
*7314 FILLER_326_867
*7315 FILLER_326_869
*7316 FILLER_326_881
*7317 FILLER_326_893
*7318 FILLER_326_905
*7319 FILLER_326_917
*7320 FILLER_326_921
*7321 FILLER_326_923
*7322 FILLER_326_925
*7323 FILLER_326_937
*7324 FILLER_326_949
*7325 FILLER_326_961
*7326 FILLER_326_97
*7327 FILLER_326_973
*7328 FILLER_326_977
*7329 FILLER_326_979
*7330 FILLER_326_981
*7331 FILLER_326_993
*7332 FILLER_327_1005
*7333 FILLER_327_1007
*7334 FILLER_327_1009
*7335 FILLER_327_1021
*7336 FILLER_327_1033
*7337 FILLER_327_1035
*7338 FILLER_327_1037
*7339 FILLER_327_1049
*7340 FILLER_327_1061
*7341 FILLER_327_1063
*7342 FILLER_327_1065
*7343 FILLER_327_1077
*7344 FILLER_327_1089
*7345 FILLER_327_109
*7346 FILLER_327_1091
*7347 FILLER_327_1093
*7348 FILLER_327_1105
*7349 FILLER_327_111
*7350 FILLER_327_1117
*7351 FILLER_327_1119
*7352 FILLER_327_1121
*7353 FILLER_327_113
*7354 FILLER_327_1133
*7355 FILLER_327_1145
*7356 FILLER_327_1147
*7357 FILLER_327_1149
*7358 FILLER_327_1161
*7359 FILLER_327_1173
*7360 FILLER_327_1175
*7361 FILLER_327_1177
*7362 FILLER_327_1189
*7363 FILLER_327_1201
*7364 FILLER_327_1203
*7365 FILLER_327_1205
*7366 FILLER_327_1217
*7367 FILLER_327_1229
*7368 FILLER_327_1231
*7369 FILLER_327_1233
*7370 FILLER_327_1245
*7371 FILLER_327_125
*7372 FILLER_327_1257
*7373 FILLER_327_1259
*7374 FILLER_327_1261
*7375 FILLER_327_1273
*7376 FILLER_327_1285
*7377 FILLER_327_1287
*7378 FILLER_327_1289
*7379 FILLER_327_1301
*7380 FILLER_327_1313
*7381 FILLER_327_1315
*7382 FILLER_327_1317
*7383 FILLER_327_1329
*7384 FILLER_327_1341
*7385 FILLER_327_1343
*7386 FILLER_327_1345
*7387 FILLER_327_1357
*7388 FILLER_327_1369
*7389 FILLER_327_137
*7390 FILLER_327_1371
*7391 FILLER_327_1373
*7392 FILLER_327_1385
*7393 FILLER_327_139
*7394 FILLER_327_1397
*7395 FILLER_327_1399
*7396 FILLER_327_1401
*7397 FILLER_327_141
*7398 FILLER_327_1413
*7399 FILLER_327_1425
*7400 FILLER_327_1427
*7401 FILLER_327_1429
*7402 FILLER_327_1441
*7403 FILLER_327_1453
*7404 FILLER_327_1455
*7405 FILLER_327_1457
*7406 FILLER_327_1469
*7407 FILLER_327_1481
*7408 FILLER_327_1483
*7409 FILLER_327_1485
*7410 FILLER_327_1497
*7411 FILLER_327_15
*7412 FILLER_327_1505
*7413 FILLER_327_153
*7414 FILLER_327_165
*7415 FILLER_327_167
*7416 FILLER_327_169
*7417 FILLER_327_181
*7418 FILLER_327_193
*7419 FILLER_327_195
*7420 FILLER_327_197
*7421 FILLER_327_209
*7422 FILLER_327_221
*7423 FILLER_327_223
*7424 FILLER_327_225
*7425 FILLER_327_237
*7426 FILLER_327_249
*7427 FILLER_327_251
*7428 FILLER_327_253
*7429 FILLER_327_265
*7430 FILLER_327_27
*7431 FILLER_327_277
*7432 FILLER_327_279
*7433 FILLER_327_281
*7434 FILLER_327_29
*7435 FILLER_327_293
*7436 FILLER_327_3
*7437 FILLER_327_305
*7438 FILLER_327_307
*7439 FILLER_327_309
*7440 FILLER_327_321
*7441 FILLER_327_333
*7442 FILLER_327_335
*7443 FILLER_327_337
*7444 FILLER_327_349
*7445 FILLER_327_361
*7446 FILLER_327_363
*7447 FILLER_327_365
*7448 FILLER_327_377
*7449 FILLER_327_389
*7450 FILLER_327_391
*7451 FILLER_327_393
*7452 FILLER_327_405
*7453 FILLER_327_41
*7454 FILLER_327_417
*7455 FILLER_327_419
*7456 FILLER_327_421
*7457 FILLER_327_433
*7458 FILLER_327_445
*7459 FILLER_327_447
*7460 FILLER_327_449
*7461 FILLER_327_461
*7462 FILLER_327_473
*7463 FILLER_327_475
*7464 FILLER_327_477
*7465 FILLER_327_489
*7466 FILLER_327_501
*7467 FILLER_327_503
*7468 FILLER_327_505
*7469 FILLER_327_517
*7470 FILLER_327_529
*7471 FILLER_327_53
*7472 FILLER_327_531
*7473 FILLER_327_533
*7474 FILLER_327_545
*7475 FILLER_327_55
*7476 FILLER_327_557
*7477 FILLER_327_559
*7478 FILLER_327_561
*7479 FILLER_327_57
*7480 FILLER_327_573
*7481 FILLER_327_585
*7482 FILLER_327_587
*7483 FILLER_327_589
*7484 FILLER_327_601
*7485 FILLER_327_613
*7486 FILLER_327_615
*7487 FILLER_327_617
*7488 FILLER_327_629
*7489 FILLER_327_641
*7490 FILLER_327_643
*7491 FILLER_327_645
*7492 FILLER_327_657
*7493 FILLER_327_669
*7494 FILLER_327_671
*7495 FILLER_327_673
*7496 FILLER_327_685
*7497 FILLER_327_69
*7498 FILLER_327_697
*7499 FILLER_327_699
*7500 FILLER_327_701
*7501 FILLER_327_713
*7502 FILLER_327_725
*7503 FILLER_327_727
*7504 FILLER_327_729
*7505 FILLER_327_741
*7506 FILLER_327_753
*7507 FILLER_327_755
*7508 FILLER_327_757
*7509 FILLER_327_769
*7510 FILLER_327_781
*7511 FILLER_327_783
*7512 FILLER_327_785
*7513 FILLER_327_797
*7514 FILLER_327_809
*7515 FILLER_327_81
*7516 FILLER_327_811
*7517 FILLER_327_813
*7518 FILLER_327_825
*7519 FILLER_327_83
*7520 FILLER_327_837
*7521 FILLER_327_839
*7522 FILLER_327_841
*7523 FILLER_327_85
*7524 FILLER_327_853
*7525 FILLER_327_865
*7526 FILLER_327_867
*7527 FILLER_327_869
*7528 FILLER_327_881
*7529 FILLER_327_893
*7530 FILLER_327_895
*7531 FILLER_327_897
*7532 FILLER_327_909
*7533 FILLER_327_921
*7534 FILLER_327_923
*7535 FILLER_327_925
*7536 FILLER_327_937
*7537 FILLER_327_949
*7538 FILLER_327_951
*7539 FILLER_327_953
*7540 FILLER_327_965
*7541 FILLER_327_97
*7542 FILLER_327_977
*7543 FILLER_327_979
*7544 FILLER_327_981
*7545 FILLER_327_993
*7546 FILLER_32_1464
*7547 FILLER_32_1476
*7548 FILLER_32_1488
*7549 FILLER_32_1490
*7550 FILLER_32_1502
*7551 FILLER_32_1506
*7552 FILLER_32_703
*7553 FILLER_32_715
*7554 FILLER_32_727
*7555 FILLER_32_729
*7556 FILLER_32_741
*7557 FILLER_32_745
*7558 FILLER_33_1464
*7559 FILLER_33_1476
*7560 FILLER_33_1488
*7561 FILLER_33_1500
*7562 FILLER_33_1504
*7563 FILLER_33_1506
*7564 FILLER_33_703
*7565 FILLER_33_715
*7566 FILLER_33_727
*7567 FILLER_33_742
*7568 FILLER_33_746
*7569 FILLER_34_1464
*7570 FILLER_34_1476
*7571 FILLER_34_1488
*7572 FILLER_34_1490
*7573 FILLER_34_1502
*7574 FILLER_34_1506
*7575 FILLER_34_703
*7576 FILLER_34_715
*7577 FILLER_34_727
*7578 FILLER_34_729
*7579 FILLER_34_741
*7580 FILLER_34_745
*7581 FILLER_35_1464
*7582 FILLER_35_1476
*7583 FILLER_35_1488
*7584 FILLER_35_1500
*7585 FILLER_35_1504
*7586 FILLER_35_1506
*7587 FILLER_35_703
*7588 FILLER_35_715
*7589 FILLER_35_727
*7590 FILLER_35_739
*7591 FILLER_36_1464
*7592 FILLER_36_1476
*7593 FILLER_36_1488
*7594 FILLER_36_1490
*7595 FILLER_36_1502
*7596 FILLER_36_1506
*7597 FILLER_36_703
*7598 FILLER_36_715
*7599 FILLER_36_727
*7600 FILLER_36_729
*7601 FILLER_36_741
*7602 FILLER_36_745
*7603 FILLER_37_1464
*7604 FILLER_37_1476
*7605 FILLER_37_1488
*7606 FILLER_37_1500
*7607 FILLER_37_1504
*7608 FILLER_37_1506
*7609 FILLER_37_719
*7610 FILLER_37_731
*7611 FILLER_38_1464
*7612 FILLER_38_1476
*7613 FILLER_38_1488
*7614 FILLER_38_1490
*7615 FILLER_38_1502
*7616 FILLER_38_1506
*7617 FILLER_38_703
*7618 FILLER_38_715
*7619 FILLER_38_727
*7620 FILLER_38_729
*7621 FILLER_38_733
*7622 FILLER_38_735
*7623 FILLER_39_1464
*7624 FILLER_39_1476
*7625 FILLER_39_1488
*7626 FILLER_39_1500
*7627 FILLER_39_1504
*7628 FILLER_39_1506
*7629 FILLER_39_703
*7630 FILLER_39_715
*7631 FILLER_39_719
*7632 FILLER_39_741
*7633 FILLER_39_745
*7634 FILLER_3_1005
*7635 FILLER_3_1007
*7636 FILLER_3_1009
*7637 FILLER_3_1013
*7638 FILLER_3_1023
*7639 FILLER_3_1035
*7640 FILLER_3_1047
*7641 FILLER_3_105
*7642 FILLER_3_1051
*7643 FILLER_3_1065
*7644 FILLER_3_1077
*7645 FILLER_3_109
*7646 FILLER_3_1096
*7647 FILLER_3_1107
*7648 FILLER_3_111
*7649 FILLER_3_1119
*7650 FILLER_3_1121
*7651 FILLER_3_1129
*7652 FILLER_3_113
*7653 FILLER_3_1142
*7654 FILLER_3_1154
*7655 FILLER_3_1156
*7656 FILLER_3_1168
*7657 FILLER_3_1177
*7658 FILLER_3_1191
*7659 FILLER_3_1203
*7660 FILLER_3_1211
*7661 FILLER_3_1223
*7662 FILLER_3_1231
*7663 FILLER_3_1235
*7664 FILLER_3_1247
*7665 FILLER_3_125
*7666 FILLER_3_1259
*7667 FILLER_3_1271
*7668 FILLER_3_1283
*7669 FILLER_3_1287
*7670 FILLER_3_1289
*7671 FILLER_3_1301
*7672 FILLER_3_1313
*7673 FILLER_3_1325
*7674 FILLER_3_1337
*7675 FILLER_3_1341
*7676 FILLER_3_1343
*7677 FILLER_3_1345
*7678 FILLER_3_1349
*7679 FILLER_3_1361
*7680 FILLER_3_137
*7681 FILLER_3_1373
*7682 FILLER_3_1385
*7683 FILLER_3_1397
*7684 FILLER_3_1399
*7685 FILLER_3_1401
*7686 FILLER_3_1413
*7687 FILLER_3_1425
*7688 FILLER_3_1437
*7689 FILLER_3_1449
*7690 FILLER_3_1453
*7691 FILLER_3_1455
*7692 FILLER_3_1457
*7693 FILLER_3_1469
*7694 FILLER_3_1481
*7695 FILLER_3_149
*7696 FILLER_3_1493
*7697 FILLER_3_15
*7698 FILLER_3_1505
*7699 FILLER_3_161
*7700 FILLER_3_165
*7701 FILLER_3_167
*7702 FILLER_3_169
*7703 FILLER_3_181
*7704 FILLER_3_193
*7705 FILLER_3_205
*7706 FILLER_3_217
*7707 FILLER_3_221
*7708 FILLER_3_223
*7709 FILLER_3_225
*7710 FILLER_3_237
*7711 FILLER_3_249
*7712 FILLER_3_261
*7713 FILLER_3_27
*7714 FILLER_3_273
*7715 FILLER_3_277
*7716 FILLER_3_279
*7717 FILLER_3_281
*7718 FILLER_3_293
*7719 FILLER_3_3
*7720 FILLER_3_305
*7721 FILLER_3_317
*7722 FILLER_3_329
*7723 FILLER_3_333
*7724 FILLER_3_335
*7725 FILLER_3_337
*7726 FILLER_3_349
*7727 FILLER_3_361
*7728 FILLER_3_373
*7729 FILLER_3_385
*7730 FILLER_3_389
*7731 FILLER_3_39
*7732 FILLER_3_391
*7733 FILLER_3_393
*7734 FILLER_3_405
*7735 FILLER_3_417
*7736 FILLER_3_429
*7737 FILLER_3_441
*7738 FILLER_3_445
*7739 FILLER_3_447
*7740 FILLER_3_449
*7741 FILLER_3_461
*7742 FILLER_3_473
*7743 FILLER_3_485
*7744 FILLER_3_497
*7745 FILLER_3_501
*7746 FILLER_3_503
*7747 FILLER_3_505
*7748 FILLER_3_51
*7749 FILLER_3_517
*7750 FILLER_3_529
*7751 FILLER_3_541
*7752 FILLER_3_55
*7753 FILLER_3_553
*7754 FILLER_3_557
*7755 FILLER_3_559
*7756 FILLER_3_569
*7757 FILLER_3_57
*7758 FILLER_3_580
*7759 FILLER_3_582
*7760 FILLER_3_604
*7761 FILLER_3_606
*7762 FILLER_3_617
*7763 FILLER_3_621
*7764 FILLER_3_632
*7765 FILLER_3_636
*7766 FILLER_3_638
*7767 FILLER_3_648
*7768 FILLER_3_673
*7769 FILLER_3_685
*7770 FILLER_3_69
*7771 FILLER_3_697
*7772 FILLER_3_706
*7773 FILLER_3_716
*7774 FILLER_3_729
*7775 FILLER_3_731
*7776 FILLER_3_740
*7777 FILLER_3_750
*7778 FILLER_3_766
*7779 FILLER_3_778
*7780 FILLER_3_782
*7781 FILLER_3_785
*7782 FILLER_3_797
*7783 FILLER_3_809
*7784 FILLER_3_81
*7785 FILLER_3_817
*7786 FILLER_3_827
*7787 FILLER_3_839
*7788 FILLER_3_873
*7789 FILLER_3_877
*7790 FILLER_3_897
*7791 FILLER_3_909
*7792 FILLER_3_913
*7793 FILLER_3_923
*7794 FILLER_3_93
*7795 FILLER_3_935
*7796 FILLER_3_945
*7797 FILLER_3_949
*7798 FILLER_3_951
*7799 FILLER_3_953
*7800 FILLER_3_956
*7801 FILLER_3_968
*7802 FILLER_3_980
*7803 FILLER_3_982
*7804 FILLER_3_985
*7805 FILLER_3_997
*7806 FILLER_40_1466
*7807 FILLER_40_1478
*7808 FILLER_40_1486
*7809 FILLER_40_1488
*7810 FILLER_40_1490
*7811 FILLER_40_1502
*7812 FILLER_40_1506
*7813 FILLER_40_703
*7814 FILLER_40_707
*7815 FILLER_40_737
*7816 FILLER_41_1473
*7817 FILLER_41_1485
*7818 FILLER_41_1497
*7819 FILLER_41_1505
*7820 FILLER_41_703
*7821 FILLER_41_715
*7822 FILLER_42_1464
*7823 FILLER_42_1476
*7824 FILLER_42_1488
*7825 FILLER_42_1490
*7826 FILLER_42_1502
*7827 FILLER_42_1506
*7828 FILLER_42_703
*7829 FILLER_42_711
*7830 FILLER_42_713
*7831 FILLER_43_1464
*7832 FILLER_43_1476
*7833 FILLER_43_1488
*7834 FILLER_43_1500
*7835 FILLER_43_1504
*7836 FILLER_43_1506
*7837 FILLER_43_703
*7838 FILLER_43_715
*7839 FILLER_43_727
*7840 FILLER_43_731
*7841 FILLER_44_1464
*7842 FILLER_44_1476
*7843 FILLER_44_1488
*7844 FILLER_44_1490
*7845 FILLER_44_1502
*7846 FILLER_44_1506
*7847 FILLER_44_703
*7848 FILLER_44_715
*7849 FILLER_44_727
*7850 FILLER_44_729
*7851 FILLER_44_731
*7852 FILLER_44_734
*7853 FILLER_44_742
*7854 FILLER_44_744
*7855 FILLER_45_1464
*7856 FILLER_45_1476
*7857 FILLER_45_1488
*7858 FILLER_45_1500
*7859 FILLER_45_1504
*7860 FILLER_45_1506
*7861 FILLER_45_703
*7862 FILLER_45_715
*7863 FILLER_45_727
*7864 FILLER_45_739
*7865 FILLER_46_1464
*7866 FILLER_46_1476
*7867 FILLER_46_1488
*7868 FILLER_46_1490
*7869 FILLER_46_1502
*7870 FILLER_46_1506
*7871 FILLER_46_703
*7872 FILLER_46_715
*7873 FILLER_46_727
*7874 FILLER_46_729
*7875 FILLER_46_741
*7876 FILLER_46_745
*7877 FILLER_47_1464
*7878 FILLER_47_1476
*7879 FILLER_47_1488
*7880 FILLER_47_1500
*7881 FILLER_47_1504
*7882 FILLER_47_1506
*7883 FILLER_47_703
*7884 FILLER_47_715
*7885 FILLER_47_727
*7886 FILLER_47_739
*7887 FILLER_48_1464
*7888 FILLER_48_1476
*7889 FILLER_48_1488
*7890 FILLER_48_1490
*7891 FILLER_48_1502
*7892 FILLER_48_1506
*7893 FILLER_48_705
*7894 FILLER_48_717
*7895 FILLER_48_725
*7896 FILLER_48_727
*7897 FILLER_48_729
*7898 FILLER_49_1464
*7899 FILLER_49_1466
*7900 FILLER_49_1469
*7901 FILLER_49_1481
*7902 FILLER_49_1493
*7903 FILLER_49_1505
*7904 FILLER_49_705
*7905 FILLER_49_737
*7906 FILLER_49_740
*7907 FILLER_4_1004
*7908 FILLER_4_1016
*7909 FILLER_4_1020
*7910 FILLER_4_1032
*7911 FILLER_4_1037
*7912 FILLER_4_1049
*7913 FILLER_4_1055
*7914 FILLER_4_1067
*7915 FILLER_4_1075
*7916 FILLER_4_1077
*7917 FILLER_4_1080
*7918 FILLER_4_109
*7919 FILLER_4_1093
*7920 FILLER_4_1101
*7921 FILLER_4_1105
*7922 FILLER_4_1135
*7923 FILLER_4_1147
*7924 FILLER_4_1149
*7925 FILLER_4_1161
*7926 FILLER_4_1164
*7927 FILLER_4_1176
*7928 FILLER_4_1188
*7929 FILLER_4_1198
*7930 FILLER_4_1202
*7931 FILLER_4_1205
*7932 FILLER_4_1207
*7933 FILLER_4_121
*7934 FILLER_4_1210
*7935 FILLER_4_1222
*7936 FILLER_4_1230
*7937 FILLER_4_1232
*7938 FILLER_4_1235
*7939 FILLER_4_1247
*7940 FILLER_4_1259
*7941 FILLER_4_1261
*7942 FILLER_4_1273
*7943 FILLER_4_1285
*7944 FILLER_4_1297
*7945 FILLER_4_1309
*7946 FILLER_4_1313
*7947 FILLER_4_1315
*7948 FILLER_4_1317
*7949 FILLER_4_1329
*7950 FILLER_4_133
*7951 FILLER_4_1341
*7952 FILLER_4_1345
*7953 FILLER_4_1349
*7954 FILLER_4_1361
*7955 FILLER_4_1369
*7956 FILLER_4_137
*7957 FILLER_4_1371
*7958 FILLER_4_1373
*7959 FILLER_4_1385
*7960 FILLER_4_139
*7961 FILLER_4_1397
*7962 FILLER_4_1409
*7963 FILLER_4_141
*7964 FILLER_4_1421
*7965 FILLER_4_1425
*7966 FILLER_4_1427
*7967 FILLER_4_1429
*7968 FILLER_4_1441
*7969 FILLER_4_1453
*7970 FILLER_4_1465
*7971 FILLER_4_1477
*7972 FILLER_4_1481
*7973 FILLER_4_1483
*7974 FILLER_4_1485
*7975 FILLER_4_1497
*7976 FILLER_4_15
*7977 FILLER_4_1505
*7978 FILLER_4_153
*7979 FILLER_4_165
*7980 FILLER_4_177
*7981 FILLER_4_189
*7982 FILLER_4_193
*7983 FILLER_4_195
*7984 FILLER_4_197
*7985 FILLER_4_209
*7986 FILLER_4_221
*7987 FILLER_4_233
*7988 FILLER_4_245
*7989 FILLER_4_249
*7990 FILLER_4_251
*7991 FILLER_4_253
*7992 FILLER_4_265
*7993 FILLER_4_27
*7994 FILLER_4_277
*7995 FILLER_4_289
*7996 FILLER_4_29
*7997 FILLER_4_3
*7998 FILLER_4_301
*7999 FILLER_4_305
*8000 FILLER_4_307
*8001 FILLER_4_309
*8002 FILLER_4_321
*8003 FILLER_4_333
*8004 FILLER_4_345
*8005 FILLER_4_357
*8006 FILLER_4_361
*8007 FILLER_4_363
*8008 FILLER_4_365
*8009 FILLER_4_377
*8010 FILLER_4_389
*8011 FILLER_4_401
*8012 FILLER_4_41
*8013 FILLER_4_413
*8014 FILLER_4_417
*8015 FILLER_4_419
*8016 FILLER_4_421
*8017 FILLER_4_433
*8018 FILLER_4_445
*8019 FILLER_4_457
*8020 FILLER_4_469
*8021 FILLER_4_473
*8022 FILLER_4_475
*8023 FILLER_4_477
*8024 FILLER_4_489
*8025 FILLER_4_501
*8026 FILLER_4_513
*8027 FILLER_4_525
*8028 FILLER_4_529
*8029 FILLER_4_53
*8030 FILLER_4_531
*8031 FILLER_4_533
*8032 FILLER_4_545
*8033 FILLER_4_557
*8034 FILLER_4_563
*8035 FILLER_4_571
*8036 FILLER_4_598
*8037 FILLER_4_604
*8038 FILLER_4_608
*8039 FILLER_4_626
*8040 FILLER_4_630
*8041 FILLER_4_640
*8042 FILLER_4_645
*8043 FILLER_4_648
*8044 FILLER_4_65
*8045 FILLER_4_655
*8046 FILLER_4_665
*8047 FILLER_4_677
*8048 FILLER_4_689
*8049 FILLER_4_697
*8050 FILLER_4_699
*8051 FILLER_4_701
*8052 FILLER_4_713
*8053 FILLER_4_725
*8054 FILLER_4_737
*8055 FILLER_4_749
*8056 FILLER_4_753
*8057 FILLER_4_755
*8058 FILLER_4_757
*8059 FILLER_4_769
*8060 FILLER_4_77
*8061 FILLER_4_781
*8062 FILLER_4_793
*8063 FILLER_4_805
*8064 FILLER_4_809
*8065 FILLER_4_81
*8066 FILLER_4_811
*8067 FILLER_4_813
*8068 FILLER_4_825
*8069 FILLER_4_829
*8070 FILLER_4_83
*8071 FILLER_4_833
*8072 FILLER_4_845
*8073 FILLER_4_847
*8074 FILLER_4_85
*8075 FILLER_4_856
*8076 FILLER_4_869
*8077 FILLER_4_881
*8078 FILLER_4_883
*8079 FILLER_4_895
*8080 FILLER_4_907
*8081 FILLER_4_915
*8082 FILLER_4_918
*8083 FILLER_4_922
*8084 FILLER_4_925
*8085 FILLER_4_937
*8086 FILLER_4_948
*8087 FILLER_4_952
*8088 FILLER_4_963
*8089 FILLER_4_97
*8090 FILLER_4_975
*8091 FILLER_4_979
*8092 FILLER_4_981
*8093 FILLER_4_992
*8094 FILLER_50_1464
*8095 FILLER_50_1466
*8096 FILLER_50_1476
*8097 FILLER_50_1488
*8098 FILLER_50_1490
*8099 FILLER_50_1502
*8100 FILLER_50_1506
*8101 FILLER_50_727
*8102 FILLER_51_1464
*8103 FILLER_51_1476
*8104 FILLER_51_1488
*8105 FILLER_51_1500
*8106 FILLER_51_1504
*8107 FILLER_51_1506
*8108 FILLER_51_713
*8109 FILLER_51_721
*8110 FILLER_52_1464
*8111 FILLER_52_1476
*8112 FILLER_52_1488
*8113 FILLER_52_1490
*8114 FILLER_52_1502
*8115 FILLER_52_1506
*8116 FILLER_52_705
*8117 FILLER_52_709
*8118 FILLER_52_721
*8119 FILLER_52_725
*8120 FILLER_52_727
*8121 FILLER_52_729
*8122 FILLER_52_741
*8123 FILLER_53_1464
*8124 FILLER_53_1476
*8125 FILLER_53_1488
*8126 FILLER_53_1500
*8127 FILLER_53_1504
*8128 FILLER_53_1506
*8129 FILLER_53_724
*8130 FILLER_53_736
*8131 FILLER_53_744
*8132 FILLER_53_746
*8133 FILLER_54_1464
*8134 FILLER_54_1476
*8135 FILLER_54_1488
*8136 FILLER_54_1490
*8137 FILLER_54_1502
*8138 FILLER_54_1506
*8139 FILLER_54_703
*8140 FILLER_54_715
*8141 FILLER_54_727
*8142 FILLER_54_729
*8143 FILLER_54_741
*8144 FILLER_54_745
*8145 FILLER_55_1464
*8146 FILLER_55_1476
*8147 FILLER_55_1488
*8148 FILLER_55_1500
*8149 FILLER_55_1504
*8150 FILLER_55_1506
*8151 FILLER_55_703
*8152 FILLER_55_715
*8153 FILLER_55_727
*8154 FILLER_55_739
*8155 FILLER_56_1464
*8156 FILLER_56_1478
*8157 FILLER_56_1486
*8158 FILLER_56_1488
*8159 FILLER_56_1490
*8160 FILLER_56_1502
*8161 FILLER_56_1506
*8162 FILLER_56_703
*8163 FILLER_56_715
*8164 FILLER_56_727
*8165 FILLER_56_729
*8166 FILLER_56_741
*8167 FILLER_56_745
*8168 FILLER_57_1464
*8169 FILLER_57_1485
*8170 FILLER_57_1497
*8171 FILLER_57_1505
*8172 FILLER_57_703
*8173 FILLER_57_715
*8174 FILLER_57_727
*8175 FILLER_57_739
*8176 FILLER_58_1464
*8177 FILLER_58_1470
*8178 FILLER_58_1482
*8179 FILLER_58_1486
*8180 FILLER_58_1488
*8181 FILLER_58_1490
*8182 FILLER_58_1502
*8183 FILLER_58_1506
*8184 FILLER_58_703
*8185 FILLER_58_711
*8186 FILLER_58_714
*8187 FILLER_58_726
*8188 FILLER_58_729
*8189 FILLER_58_733
*8190 FILLER_58_744
*8191 FILLER_58_746
*8192 FILLER_59_1464
*8193 FILLER_59_1477
*8194 FILLER_59_1489
*8195 FILLER_59_1501
*8196 FILLER_59_1505
*8197 FILLER_59_703
*8198 FILLER_59_705
*8199 FILLER_59_727
*8200 FILLER_59_739
*8201 FILLER_5_1001
*8202 FILLER_5_1005
*8203 FILLER_5_1007
*8204 FILLER_5_1009
*8205 FILLER_5_1017
*8206 FILLER_5_1020
*8207 FILLER_5_1032
*8208 FILLER_5_1044
*8209 FILLER_5_105
*8210 FILLER_5_1052
*8211 FILLER_5_1055
*8212 FILLER_5_1063
*8213 FILLER_5_1065
*8214 FILLER_5_1077
*8215 FILLER_5_1080
*8216 FILLER_5_109
*8217 FILLER_5_1092
*8218 FILLER_5_1100
*8219 FILLER_5_1102
*8220 FILLER_5_1105
*8221 FILLER_5_111
*8222 FILLER_5_1117
*8223 FILLER_5_1119
*8224 FILLER_5_1121
*8225 FILLER_5_113
*8226 FILLER_5_1135
*8227 FILLER_5_1147
*8228 FILLER_5_1159
*8229 FILLER_5_1161
*8230 FILLER_5_1164
*8231 FILLER_5_1177
*8232 FILLER_5_1189
*8233 FILLER_5_1201
*8234 FILLER_5_1205
*8235 FILLER_5_1207
*8236 FILLER_5_1217
*8237 FILLER_5_1229
*8238 FILLER_5_1231
*8239 FILLER_5_1235
*8240 FILLER_5_1247
*8241 FILLER_5_125
*8242 FILLER_5_1259
*8243 FILLER_5_1271
*8244 FILLER_5_1283
*8245 FILLER_5_1287
*8246 FILLER_5_1289
*8247 FILLER_5_1301
*8248 FILLER_5_1313
*8249 FILLER_5_1325
*8250 FILLER_5_1337
*8251 FILLER_5_1341
*8252 FILLER_5_1343
*8253 FILLER_5_1345
*8254 FILLER_5_1349
*8255 FILLER_5_1361
*8256 FILLER_5_137
*8257 FILLER_5_1373
*8258 FILLER_5_1385
*8259 FILLER_5_1397
*8260 FILLER_5_1399
*8261 FILLER_5_1401
*8262 FILLER_5_1413
*8263 FILLER_5_1425
*8264 FILLER_5_1437
*8265 FILLER_5_1449
*8266 FILLER_5_1453
*8267 FILLER_5_1455
*8268 FILLER_5_1457
*8269 FILLER_5_1469
*8270 FILLER_5_1481
*8271 FILLER_5_149
*8272 FILLER_5_1493
*8273 FILLER_5_15
*8274 FILLER_5_1505
*8275 FILLER_5_161
*8276 FILLER_5_165
*8277 FILLER_5_167
*8278 FILLER_5_169
*8279 FILLER_5_181
*8280 FILLER_5_193
*8281 FILLER_5_205
*8282 FILLER_5_217
*8283 FILLER_5_221
*8284 FILLER_5_223
*8285 FILLER_5_225
*8286 FILLER_5_237
*8287 FILLER_5_249
*8288 FILLER_5_261
*8289 FILLER_5_27
*8290 FILLER_5_273
*8291 FILLER_5_277
*8292 FILLER_5_279
*8293 FILLER_5_281
*8294 FILLER_5_293
*8295 FILLER_5_3
*8296 FILLER_5_305
*8297 FILLER_5_317
*8298 FILLER_5_329
*8299 FILLER_5_333
*8300 FILLER_5_335
*8301 FILLER_5_337
*8302 FILLER_5_349
*8303 FILLER_5_361
*8304 FILLER_5_373
*8305 FILLER_5_385
*8306 FILLER_5_389
*8307 FILLER_5_39
*8308 FILLER_5_391
*8309 FILLER_5_393
*8310 FILLER_5_405
*8311 FILLER_5_417
*8312 FILLER_5_429
*8313 FILLER_5_441
*8314 FILLER_5_445
*8315 FILLER_5_447
*8316 FILLER_5_449
*8317 FILLER_5_461
*8318 FILLER_5_473
*8319 FILLER_5_485
*8320 FILLER_5_497
*8321 FILLER_5_501
*8322 FILLER_5_503
*8323 FILLER_5_505
*8324 FILLER_5_51
*8325 FILLER_5_517
*8326 FILLER_5_529
*8327 FILLER_5_541
*8328 FILLER_5_55
*8329 FILLER_5_553
*8330 FILLER_5_557
*8331 FILLER_5_559
*8332 FILLER_5_57
*8333 FILLER_5_570
*8334 FILLER_5_582
*8335 FILLER_5_586
*8336 FILLER_5_588
*8337 FILLER_5_599
*8338 FILLER_5_601
*8339 FILLER_5_611
*8340 FILLER_5_615
*8341 FILLER_5_617
*8342 FILLER_5_625
*8343 FILLER_5_627
*8344 FILLER_5_655
*8345 FILLER_5_665
*8346 FILLER_5_669
*8347 FILLER_5_671
*8348 FILLER_5_673
*8349 FILLER_5_685
*8350 FILLER_5_69
*8351 FILLER_5_697
*8352 FILLER_5_709
*8353 FILLER_5_721
*8354 FILLER_5_725
*8355 FILLER_5_727
*8356 FILLER_5_729
*8357 FILLER_5_741
*8358 FILLER_5_753
*8359 FILLER_5_765
*8360 FILLER_5_777
*8361 FILLER_5_781
*8362 FILLER_5_783
*8363 FILLER_5_785
*8364 FILLER_5_797
*8365 FILLER_5_809
*8366 FILLER_5_81
*8367 FILLER_5_821
*8368 FILLER_5_829
*8369 FILLER_5_841
*8370 FILLER_5_853
*8371 FILLER_5_865
*8372 FILLER_5_877
*8373 FILLER_5_889
*8374 FILLER_5_893
*8375 FILLER_5_895
*8376 FILLER_5_897
*8377 FILLER_5_909
*8378 FILLER_5_913
*8379 FILLER_5_915
*8380 FILLER_5_918
*8381 FILLER_5_93
*8382 FILLER_5_930
*8383 FILLER_5_942
*8384 FILLER_5_950
*8385 FILLER_5_953
*8386 FILLER_5_965
*8387 FILLER_5_977
*8388 FILLER_5_989
*8389 FILLER_60_1480
*8390 FILLER_60_1488
*8391 FILLER_60_1490
*8392 FILLER_60_1502
*8393 FILLER_60_1506
*8394 FILLER_60_703
*8395 FILLER_60_715
*8396 FILLER_60_723
*8397 FILLER_60_729
*8398 FILLER_61_1464
*8399 FILLER_61_1476
*8400 FILLER_61_1488
*8401 FILLER_61_1500
*8402 FILLER_61_1504
*8403 FILLER_61_1506
*8404 FILLER_61_703
*8405 FILLER_61_709
*8406 FILLER_61_721
*8407 FILLER_61_733
*8408 FILLER_61_741
*8409 FILLER_62_1482
*8410 FILLER_62_1486
*8411 FILLER_62_1488
*8412 FILLER_62_1490
*8413 FILLER_62_1502
*8414 FILLER_62_1506
*8415 FILLER_62_703
*8416 FILLER_62_716
*8417 FILLER_62_729
*8418 FILLER_62_741
*8419 FILLER_62_745
*8420 FILLER_63_1473
*8421 FILLER_63_1485
*8422 FILLER_63_1497
*8423 FILLER_63_1505
*8424 FILLER_63_703
*8425 FILLER_63_715
*8426 FILLER_63_727
*8427 FILLER_64_1480
*8428 FILLER_64_1488
*8429 FILLER_64_1490
*8430 FILLER_64_1502
*8431 FILLER_64_1506
*8432 FILLER_64_703
*8433 FILLER_64_711
*8434 FILLER_64_713
*8435 FILLER_64_716
*8436 FILLER_64_729
*8437 FILLER_64_741
*8438 FILLER_64_745
*8439 FILLER_65_1464
*8440 FILLER_65_1476
*8441 FILLER_65_1488
*8442 FILLER_65_1500
*8443 FILLER_65_1504
*8444 FILLER_65_1506
*8445 FILLER_65_703
*8446 FILLER_65_735
*8447 FILLER_66_1480
*8448 FILLER_66_1488
*8449 FILLER_66_1490
*8450 FILLER_66_1502
*8451 FILLER_66_1506
*8452 FILLER_66_703
*8453 FILLER_66_715
*8454 FILLER_66_727
*8455 FILLER_66_729
*8456 FILLER_66_741
*8457 FILLER_66_745
*8458 FILLER_67_1464
*8459 FILLER_67_1476
*8460 FILLER_67_1488
*8461 FILLER_67_1500
*8462 FILLER_67_1504
*8463 FILLER_67_1506
*8464 FILLER_67_703
*8465 FILLER_67_715
*8466 FILLER_67_727
*8467 FILLER_67_739
*8468 FILLER_68_1480
*8469 FILLER_68_1488
*8470 FILLER_68_1490
*8471 FILLER_68_1502
*8472 FILLER_68_1506
*8473 FILLER_68_703
*8474 FILLER_68_715
*8475 FILLER_68_727
*8476 FILLER_68_729
*8477 FILLER_68_741
*8478 FILLER_68_745
*8479 FILLER_69_1464
*8480 FILLER_69_1476
*8481 FILLER_69_1488
*8482 FILLER_69_1500
*8483 FILLER_69_1504
*8484 FILLER_69_1506
*8485 FILLER_69_703
*8486 FILLER_69_715
*8487 FILLER_69_727
*8488 FILLER_69_739
*8489 FILLER_6_1005
*8490 FILLER_6_1017
*8491 FILLER_6_1020
*8492 FILLER_6_1032
*8493 FILLER_6_1037
*8494 FILLER_6_1049
*8495 FILLER_6_1062
*8496 FILLER_6_1074
*8497 FILLER_6_1089
*8498 FILLER_6_109
*8499 FILLER_6_1091
*8500 FILLER_6_1093
*8501 FILLER_6_1112
*8502 FILLER_6_1124
*8503 FILLER_6_1128
*8504 FILLER_6_1130
*8505 FILLER_6_1142
*8506 FILLER_6_1146
*8507 FILLER_6_1149
*8508 FILLER_6_1157
*8509 FILLER_6_1159
*8510 FILLER_6_1171
*8511 FILLER_6_1183
*8512 FILLER_6_1195
*8513 FILLER_6_1203
*8514 FILLER_6_1205
*8515 FILLER_6_121
*8516 FILLER_6_1217
*8517 FILLER_6_1229
*8518 FILLER_6_1235
*8519 FILLER_6_1247
*8520 FILLER_6_1259
*8521 FILLER_6_1261
*8522 FILLER_6_1273
*8523 FILLER_6_1285
*8524 FILLER_6_1297
*8525 FILLER_6_1309
*8526 FILLER_6_1313
*8527 FILLER_6_1315
*8528 FILLER_6_1317
*8529 FILLER_6_1329
*8530 FILLER_6_133
*8531 FILLER_6_1341
*8532 FILLER_6_1345
*8533 FILLER_6_1349
*8534 FILLER_6_1361
*8535 FILLER_6_1369
*8536 FILLER_6_137
*8537 FILLER_6_1371
*8538 FILLER_6_1373
*8539 FILLER_6_1385
*8540 FILLER_6_139
*8541 FILLER_6_1397
*8542 FILLER_6_1409
*8543 FILLER_6_141
*8544 FILLER_6_1421
*8545 FILLER_6_1425
*8546 FILLER_6_1427
*8547 FILLER_6_1429
*8548 FILLER_6_1441
*8549 FILLER_6_1453
*8550 FILLER_6_1465
*8551 FILLER_6_1477
*8552 FILLER_6_1481
*8553 FILLER_6_1483
*8554 FILLER_6_1485
*8555 FILLER_6_1497
*8556 FILLER_6_15
*8557 FILLER_6_1505
*8558 FILLER_6_153
*8559 FILLER_6_165
*8560 FILLER_6_177
*8561 FILLER_6_189
*8562 FILLER_6_193
*8563 FILLER_6_195
*8564 FILLER_6_197
*8565 FILLER_6_209
*8566 FILLER_6_221
*8567 FILLER_6_233
*8568 FILLER_6_245
*8569 FILLER_6_249
*8570 FILLER_6_251
*8571 FILLER_6_253
*8572 FILLER_6_265
*8573 FILLER_6_27
*8574 FILLER_6_277
*8575 FILLER_6_289
*8576 FILLER_6_29
*8577 FILLER_6_3
*8578 FILLER_6_301
*8579 FILLER_6_305
*8580 FILLER_6_307
*8581 FILLER_6_309
*8582 FILLER_6_321
*8583 FILLER_6_333
*8584 FILLER_6_345
*8585 FILLER_6_357
*8586 FILLER_6_361
*8587 FILLER_6_363
*8588 FILLER_6_365
*8589 FILLER_6_377
*8590 FILLER_6_389
*8591 FILLER_6_401
*8592 FILLER_6_41
*8593 FILLER_6_413
*8594 FILLER_6_417
*8595 FILLER_6_419
*8596 FILLER_6_421
*8597 FILLER_6_433
*8598 FILLER_6_445
*8599 FILLER_6_457
*8600 FILLER_6_469
*8601 FILLER_6_473
*8602 FILLER_6_475
*8603 FILLER_6_477
*8604 FILLER_6_489
*8605 FILLER_6_501
*8606 FILLER_6_513
*8607 FILLER_6_525
*8608 FILLER_6_529
*8609 FILLER_6_53
*8610 FILLER_6_531
*8611 FILLER_6_533
*8612 FILLER_6_537
*8613 FILLER_6_541
*8614 FILLER_6_553
*8615 FILLER_6_565
*8616 FILLER_6_569
*8617 FILLER_6_571
*8618 FILLER_6_574
*8619 FILLER_6_586
*8620 FILLER_6_589
*8621 FILLER_6_597
*8622 FILLER_6_599
*8623 FILLER_6_610
*8624 FILLER_6_622
*8625 FILLER_6_634
*8626 FILLER_6_642
*8627 FILLER_6_645
*8628 FILLER_6_647
*8629 FILLER_6_65
*8630 FILLER_6_660
*8631 FILLER_6_672
*8632 FILLER_6_684
*8633 FILLER_6_696
*8634 FILLER_6_701
*8635 FILLER_6_713
*8636 FILLER_6_725
*8637 FILLER_6_737
*8638 FILLER_6_749
*8639 FILLER_6_753
*8640 FILLER_6_755
*8641 FILLER_6_757
*8642 FILLER_6_769
*8643 FILLER_6_77
*8644 FILLER_6_781
*8645 FILLER_6_793
*8646 FILLER_6_796
*8647 FILLER_6_808
*8648 FILLER_6_81
*8649 FILLER_6_813
*8650 FILLER_6_825
*8651 FILLER_6_83
*8652 FILLER_6_837
*8653 FILLER_6_849
*8654 FILLER_6_85
*8655 FILLER_6_861
*8656 FILLER_6_865
*8657 FILLER_6_867
*8658 FILLER_6_869
*8659 FILLER_6_881
*8660 FILLER_6_893
*8661 FILLER_6_905
*8662 FILLER_6_913
*8663 FILLER_6_915
*8664 FILLER_6_918
*8665 FILLER_6_922
*8666 FILLER_6_925
*8667 FILLER_6_937
*8668 FILLER_6_949
*8669 FILLER_6_961
*8670 FILLER_6_97
*8671 FILLER_6_973
*8672 FILLER_6_977
*8673 FILLER_6_979
*8674 FILLER_6_981
*8675 FILLER_6_993
*8676 FILLER_70_1480
*8677 FILLER_70_1488
*8678 FILLER_70_1490
*8679 FILLER_70_1502
*8680 FILLER_70_1506
*8681 FILLER_70_703
*8682 FILLER_70_715
*8683 FILLER_70_727
*8684 FILLER_70_729
*8685 FILLER_70_741
*8686 FILLER_70_745
*8687 FILLER_71_1464
*8688 FILLER_71_1476
*8689 FILLER_71_1488
*8690 FILLER_71_1500
*8691 FILLER_71_1504
*8692 FILLER_71_1506
*8693 FILLER_71_703
*8694 FILLER_71_715
*8695 FILLER_71_727
*8696 FILLER_71_739
*8697 FILLER_72_1480
*8698 FILLER_72_1488
*8699 FILLER_72_1490
*8700 FILLER_72_1502
*8701 FILLER_72_1506
*8702 FILLER_72_703
*8703 FILLER_72_715
*8704 FILLER_72_727
*8705 FILLER_72_729
*8706 FILLER_72_737
*8707 FILLER_73_1464
*8708 FILLER_73_1476
*8709 FILLER_73_1488
*8710 FILLER_73_1500
*8711 FILLER_73_1504
*8712 FILLER_73_1506
*8713 FILLER_73_703
*8714 FILLER_73_715
*8715 FILLER_73_727
*8716 FILLER_73_739
*8717 FILLER_74_1480
*8718 FILLER_74_1488
*8719 FILLER_74_1490
*8720 FILLER_74_1502
*8721 FILLER_74_1506
*8722 FILLER_74_703
*8723 FILLER_74_715
*8724 FILLER_74_727
*8725 FILLER_74_729
*8726 FILLER_74_741
*8727 FILLER_74_745
*8728 FILLER_75_1467
*8729 FILLER_75_1479
*8730 FILLER_75_1491
*8731 FILLER_75_1503
*8732 FILLER_75_703
*8733 FILLER_75_715
*8734 FILLER_75_727
*8735 FILLER_75_739
*8736 FILLER_76_1464
*8737 FILLER_76_1482
*8738 FILLER_76_1486
*8739 FILLER_76_1488
*8740 FILLER_76_1490
*8741 FILLER_76_1502
*8742 FILLER_76_1506
*8743 FILLER_76_706
*8744 FILLER_76_718
*8745 FILLER_76_726
*8746 FILLER_76_729
*8747 FILLER_76_741
*8748 FILLER_76_745
*8749 FILLER_77_1464
*8750 FILLER_77_1476
*8751 FILLER_77_1488
*8752 FILLER_77_1500
*8753 FILLER_77_1504
*8754 FILLER_77_1506
*8755 FILLER_77_703
*8756 FILLER_77_715
*8757 FILLER_77_727
*8758 FILLER_77_739
*8759 FILLER_78_1467
*8760 FILLER_78_1479
*8761 FILLER_78_1487
*8762 FILLER_78_1490
*8763 FILLER_78_1502
*8764 FILLER_78_1506
*8765 FILLER_78_706
*8766 FILLER_78_718
*8767 FILLER_78_726
*8768 FILLER_78_729
*8769 FILLER_78_741
*8770 FILLER_78_745
*8771 FILLER_79_1464
*8772 FILLER_79_1476
*8773 FILLER_79_1488
*8774 FILLER_79_1500
*8775 FILLER_79_1504
*8776 FILLER_79_1506
*8777 FILLER_79_703
*8778 FILLER_79_715
*8779 FILLER_79_727
*8780 FILLER_79_739
*8781 FILLER_7_1001
*8782 FILLER_7_1005
*8783 FILLER_7_1007
*8784 FILLER_7_1009
*8785 FILLER_7_1013
*8786 FILLER_7_1015
*8787 FILLER_7_1029
*8788 FILLER_7_1041
*8789 FILLER_7_105
*8790 FILLER_7_1055
*8791 FILLER_7_1063
*8792 FILLER_7_1065
*8793 FILLER_7_1077
*8794 FILLER_7_1084
*8795 FILLER_7_109
*8796 FILLER_7_1096
*8797 FILLER_7_1100
*8798 FILLER_7_1102
*8799 FILLER_7_1109
*8800 FILLER_7_111
*8801 FILLER_7_1117
*8802 FILLER_7_1119
*8803 FILLER_7_1121
*8804 FILLER_7_113
*8805 FILLER_7_1139
*8806 FILLER_7_1143
*8807 FILLER_7_1145
*8808 FILLER_7_1172
*8809 FILLER_7_1177
*8810 FILLER_7_1189
*8811 FILLER_7_1201
*8812 FILLER_7_1213
*8813 FILLER_7_1225
*8814 FILLER_7_1229
*8815 FILLER_7_1231
*8816 FILLER_7_1237
*8817 FILLER_7_1249
*8818 FILLER_7_125
*8819 FILLER_7_1261
*8820 FILLER_7_1273
*8821 FILLER_7_1285
*8822 FILLER_7_1287
*8823 FILLER_7_1289
*8824 FILLER_7_1301
*8825 FILLER_7_1313
*8826 FILLER_7_1325
*8827 FILLER_7_1337
*8828 FILLER_7_1341
*8829 FILLER_7_1343
*8830 FILLER_7_1345
*8831 FILLER_7_1349
*8832 FILLER_7_1361
*8833 FILLER_7_137
*8834 FILLER_7_1373
*8835 FILLER_7_1385
*8836 FILLER_7_1397
*8837 FILLER_7_1399
*8838 FILLER_7_1401
*8839 FILLER_7_1413
*8840 FILLER_7_1425
*8841 FILLER_7_1437
*8842 FILLER_7_1449
*8843 FILLER_7_1453
*8844 FILLER_7_1455
*8845 FILLER_7_1457
*8846 FILLER_7_1469
*8847 FILLER_7_1481
*8848 FILLER_7_149
*8849 FILLER_7_1493
*8850 FILLER_7_15
*8851 FILLER_7_1505
*8852 FILLER_7_161
*8853 FILLER_7_165
*8854 FILLER_7_167
*8855 FILLER_7_169
*8856 FILLER_7_181
*8857 FILLER_7_193
*8858 FILLER_7_205
*8859 FILLER_7_217
*8860 FILLER_7_221
*8861 FILLER_7_223
*8862 FILLER_7_225
*8863 FILLER_7_237
*8864 FILLER_7_249
*8865 FILLER_7_261
*8866 FILLER_7_27
*8867 FILLER_7_273
*8868 FILLER_7_277
*8869 FILLER_7_279
*8870 FILLER_7_281
*8871 FILLER_7_293
*8872 FILLER_7_3
*8873 FILLER_7_305
*8874 FILLER_7_317
*8875 FILLER_7_329
*8876 FILLER_7_333
*8877 FILLER_7_335
*8878 FILLER_7_337
*8879 FILLER_7_349
*8880 FILLER_7_361
*8881 FILLER_7_373
*8882 FILLER_7_385
*8883 FILLER_7_389
*8884 FILLER_7_39
*8885 FILLER_7_391
*8886 FILLER_7_393
*8887 FILLER_7_405
*8888 FILLER_7_417
*8889 FILLER_7_429
*8890 FILLER_7_441
*8891 FILLER_7_445
*8892 FILLER_7_447
*8893 FILLER_7_449
*8894 FILLER_7_461
*8895 FILLER_7_473
*8896 FILLER_7_485
*8897 FILLER_7_497
*8898 FILLER_7_501
*8899 FILLER_7_503
*8900 FILLER_7_505
*8901 FILLER_7_51
*8902 FILLER_7_517
*8903 FILLER_7_529
*8904 FILLER_7_537
*8905 FILLER_7_548
*8906 FILLER_7_55
*8907 FILLER_7_561
*8908 FILLER_7_569
*8909 FILLER_7_57
*8910 FILLER_7_571
*8911 FILLER_7_581
*8912 FILLER_7_593
*8913 FILLER_7_597
*8914 FILLER_7_599
*8915 FILLER_7_609
*8916 FILLER_7_613
*8917 FILLER_7_615
*8918 FILLER_7_617
*8919 FILLER_7_629
*8920 FILLER_7_631
*8921 FILLER_7_652
*8922 FILLER_7_663
*8923 FILLER_7_671
*8924 FILLER_7_673
*8925 FILLER_7_685
*8926 FILLER_7_69
*8927 FILLER_7_697
*8928 FILLER_7_709
*8929 FILLER_7_721
*8930 FILLER_7_725
*8931 FILLER_7_727
*8932 FILLER_7_729
*8933 FILLER_7_741
*8934 FILLER_7_753
*8935 FILLER_7_765
*8936 FILLER_7_777
*8937 FILLER_7_781
*8938 FILLER_7_783
*8939 FILLER_7_785
*8940 FILLER_7_793
*8941 FILLER_7_803
*8942 FILLER_7_81
*8943 FILLER_7_815
*8944 FILLER_7_827
*8945 FILLER_7_839
*8946 FILLER_7_841
*8947 FILLER_7_853
*8948 FILLER_7_865
*8949 FILLER_7_877
*8950 FILLER_7_889
*8951 FILLER_7_893
*8952 FILLER_7_895
*8953 FILLER_7_897
*8954 FILLER_7_909
*8955 FILLER_7_929
*8956 FILLER_7_93
*8957 FILLER_7_941
*8958 FILLER_7_949
*8959 FILLER_7_951
*8960 FILLER_7_953
*8961 FILLER_7_965
*8962 FILLER_7_977
*8963 FILLER_7_989
*8964 FILLER_80_1464
*8965 FILLER_80_1476
*8966 FILLER_80_1488
*8967 FILLER_80_1490
*8968 FILLER_80_1502
*8969 FILLER_80_1506
*8970 FILLER_80_703
*8971 FILLER_80_715
*8972 FILLER_80_727
*8973 FILLER_80_729
*8974 FILLER_80_741
*8975 FILLER_80_745
*8976 FILLER_81_1464
*8977 FILLER_81_1476
*8978 FILLER_81_1488
*8979 FILLER_81_1500
*8980 FILLER_81_1504
*8981 FILLER_81_1506
*8982 FILLER_81_703
*8983 FILLER_81_715
*8984 FILLER_81_727
*8985 FILLER_81_739
*8986 FILLER_82_1464
*8987 FILLER_82_1476
*8988 FILLER_82_1488
*8989 FILLER_82_1490
*8990 FILLER_82_1502
*8991 FILLER_82_1506
*8992 FILLER_82_703
*8993 FILLER_82_715
*8994 FILLER_82_727
*8995 FILLER_82_729
*8996 FILLER_82_741
*8997 FILLER_82_745
*8998 FILLER_83_1464
*8999 FILLER_83_1476
*9000 FILLER_83_1488
*9001 FILLER_83_1500
*9002 FILLER_83_1504
*9003 FILLER_83_1506
*9004 FILLER_83_703
*9005 FILLER_83_715
*9006 FILLER_83_727
*9007 FILLER_83_739
*9008 FILLER_84_1470
*9009 FILLER_84_1482
*9010 FILLER_84_1486
*9011 FILLER_84_1488
*9012 FILLER_84_1490
*9013 FILLER_84_1502
*9014 FILLER_84_1506
*9015 FILLER_84_709
*9016 FILLER_84_721
*9017 FILLER_84_725
*9018 FILLER_84_727
*9019 FILLER_84_729
*9020 FILLER_84_741
*9021 FILLER_84_745
*9022 FILLER_85_1464
*9023 FILLER_85_1476
*9024 FILLER_85_1488
*9025 FILLER_85_1500
*9026 FILLER_85_1504
*9027 FILLER_85_1506
*9028 FILLER_85_703
*9029 FILLER_85_715
*9030 FILLER_85_727
*9031 FILLER_85_739
*9032 FILLER_86_1464
*9033 FILLER_86_1476
*9034 FILLER_86_1488
*9035 FILLER_86_1490
*9036 FILLER_86_1502
*9037 FILLER_86_1506
*9038 FILLER_86_703
*9039 FILLER_86_715
*9040 FILLER_86_727
*9041 FILLER_86_729
*9042 FILLER_86_741
*9043 FILLER_86_745
*9044 FILLER_87_1464
*9045 FILLER_87_1476
*9046 FILLER_87_1488
*9047 FILLER_87_1500
*9048 FILLER_87_1504
*9049 FILLER_87_1506
*9050 FILLER_87_703
*9051 FILLER_87_715
*9052 FILLER_87_727
*9053 FILLER_87_739
*9054 FILLER_88_1467
*9055 FILLER_88_1479
*9056 FILLER_88_1487
*9057 FILLER_88_1490
*9058 FILLER_88_1502
*9059 FILLER_88_1506
*9060 FILLER_88_706
*9061 FILLER_88_718
*9062 FILLER_88_726
*9063 FILLER_88_729
*9064 FILLER_88_741
*9065 FILLER_88_745
*9066 FILLER_89_1467
*9067 FILLER_89_1479
*9068 FILLER_89_1491
*9069 FILLER_89_1503
*9070 FILLER_89_706
*9071 FILLER_89_718
*9072 FILLER_89_730
*9073 FILLER_89_742
*9074 FILLER_89_746
*9075 FILLER_8_1005
*9076 FILLER_8_1007
*9077 FILLER_8_1009
*9078 FILLER_8_1032
*9079 FILLER_8_1063
*9080 FILLER_8_1065
*9081 FILLER_8_1067
*9082 FILLER_8_1088
*9083 FILLER_8_109
*9084 FILLER_8_111
*9085 FILLER_8_1115
*9086 FILLER_8_1119
*9087 FILLER_8_1121
*9088 FILLER_8_113
*9089 FILLER_8_1143
*9090 FILLER_8_1147
*9091 FILLER_8_1149
*9092 FILLER_8_1151
*9093 FILLER_8_1177
*9094 FILLER_8_1189
*9095 FILLER_8_1201
*9096 FILLER_8_1203
*9097 FILLER_8_1205
*9098 FILLER_8_1217
*9099 FILLER_8_1225
*9100 FILLER_8_1244
*9101 FILLER_8_125
*9102 FILLER_8_1256
*9103 FILLER_8_1261
*9104 FILLER_8_1273
*9105 FILLER_8_1285
*9106 FILLER_8_1287
*9107 FILLER_8_1289
*9108 FILLER_8_1301
*9109 FILLER_8_1313
*9110 FILLER_8_1315
*9111 FILLER_8_1317
*9112 FILLER_8_1329
*9113 FILLER_8_1341
*9114 FILLER_8_1358
*9115 FILLER_8_137
*9116 FILLER_8_1370
*9117 FILLER_8_1373
*9118 FILLER_8_1385
*9119 FILLER_8_139
*9120 FILLER_8_1397
*9121 FILLER_8_1399
*9122 FILLER_8_1401
*9123 FILLER_8_141
*9124 FILLER_8_1413
*9125 FILLER_8_1425
*9126 FILLER_8_1427
*9127 FILLER_8_1429
*9128 FILLER_8_1441
*9129 FILLER_8_1453
*9130 FILLER_8_1455
*9131 FILLER_8_1457
*9132 FILLER_8_1469
*9133 FILLER_8_1481
*9134 FILLER_8_1483
*9135 FILLER_8_1485
*9136 FILLER_8_1497
*9137 FILLER_8_15
*9138 FILLER_8_1505
*9139 FILLER_8_153
*9140 FILLER_8_165
*9141 FILLER_8_167
*9142 FILLER_8_169
*9143 FILLER_8_181
*9144 FILLER_8_193
*9145 FILLER_8_195
*9146 FILLER_8_197
*9147 FILLER_8_209
*9148 FILLER_8_221
*9149 FILLER_8_223
*9150 FILLER_8_225
*9151 FILLER_8_237
*9152 FILLER_8_249
*9153 FILLER_8_251
*9154 FILLER_8_253
*9155 FILLER_8_265
*9156 FILLER_8_27
*9157 FILLER_8_277
*9158 FILLER_8_279
*9159 FILLER_8_281
*9160 FILLER_8_29
*9161 FILLER_8_293
*9162 FILLER_8_3
*9163 FILLER_8_305
*9164 FILLER_8_307
*9165 FILLER_8_309
*9166 FILLER_8_321
*9167 FILLER_8_333
*9168 FILLER_8_335
*9169 FILLER_8_337
*9170 FILLER_8_349
*9171 FILLER_8_361
*9172 FILLER_8_363
*9173 FILLER_8_365
*9174 FILLER_8_377
*9175 FILLER_8_389
*9176 FILLER_8_391
*9177 FILLER_8_393
*9178 FILLER_8_405
*9179 FILLER_8_41
*9180 FILLER_8_417
*9181 FILLER_8_419
*9182 FILLER_8_421
*9183 FILLER_8_433
*9184 FILLER_8_445
*9185 FILLER_8_447
*9186 FILLER_8_449
*9187 FILLER_8_461
*9188 FILLER_8_473
*9189 FILLER_8_475
*9190 FILLER_8_477
*9191 FILLER_8_489
*9192 FILLER_8_501
*9193 FILLER_8_503
*9194 FILLER_8_505
*9195 FILLER_8_517
*9196 FILLER_8_529
*9197 FILLER_8_53
*9198 FILLER_8_531
*9199 FILLER_8_533
*9200 FILLER_8_545
*9201 FILLER_8_55
*9202 FILLER_8_557
*9203 FILLER_8_559
*9204 FILLER_8_561
*9205 FILLER_8_57
*9206 FILLER_8_573
*9207 FILLER_8_585
*9208 FILLER_8_587
*9209 FILLER_8_589
*9210 FILLER_8_601
*9211 FILLER_8_613
*9212 FILLER_8_615
*9213 FILLER_8_617
*9214 FILLER_8_629
*9215 FILLER_8_641
*9216 FILLER_8_643
*9217 FILLER_8_645
*9218 FILLER_8_653
*9219 FILLER_8_655
*9220 FILLER_8_668
*9221 FILLER_8_673
*9222 FILLER_8_685
*9223 FILLER_8_69
*9224 FILLER_8_697
*9225 FILLER_8_699
*9226 FILLER_8_701
*9227 FILLER_8_713
*9228 FILLER_8_725
*9229 FILLER_8_727
*9230 FILLER_8_729
*9231 FILLER_8_741
*9232 FILLER_8_753
*9233 FILLER_8_755
*9234 FILLER_8_757
*9235 FILLER_8_769
*9236 FILLER_8_781
*9237 FILLER_8_783
*9238 FILLER_8_785
*9239 FILLER_8_797
*9240 FILLER_8_809
*9241 FILLER_8_81
*9242 FILLER_8_811
*9243 FILLER_8_813
*9244 FILLER_8_825
*9245 FILLER_8_83
*9246 FILLER_8_837
*9247 FILLER_8_839
*9248 FILLER_8_849
*9249 FILLER_8_85
*9250 FILLER_8_861
*9251 FILLER_8_865
*9252 FILLER_8_867
*9253 FILLER_8_869
*9254 FILLER_8_881
*9255 FILLER_8_893
*9256 FILLER_8_895
*9257 FILLER_8_897
*9258 FILLER_8_905
*9259 FILLER_8_927
*9260 FILLER_8_939
*9261 FILLER_8_951
*9262 FILLER_8_953
*9263 FILLER_8_965
*9264 FILLER_8_97
*9265 FILLER_8_977
*9266 FILLER_8_979
*9267 FILLER_8_981
*9268 FILLER_8_993
*9269 FILLER_90_1467
*9270 FILLER_90_1479
*9271 FILLER_90_1487
*9272 FILLER_90_1490
*9273 FILLER_90_1502
*9274 FILLER_90_1506
*9275 FILLER_90_706
*9276 FILLER_90_718
*9277 FILLER_90_726
*9278 FILLER_90_729
*9279 FILLER_91_1464
*9280 FILLER_91_1476
*9281 FILLER_91_1488
*9282 FILLER_91_1500
*9283 FILLER_91_1504
*9284 FILLER_91_1506
*9285 FILLER_91_703
*9286 FILLER_91_715
*9287 FILLER_91_727
*9288 FILLER_91_739
*9289 FILLER_92_1464
*9290 FILLER_92_1476
*9291 FILLER_92_1488
*9292 FILLER_92_1490
*9293 FILLER_92_1502
*9294 FILLER_92_1506
*9295 FILLER_92_703
*9296 FILLER_92_715
*9297 FILLER_92_727
*9298 FILLER_92_729
*9299 FILLER_93_1464
*9300 FILLER_93_1476
*9301 FILLER_93_1488
*9302 FILLER_93_1500
*9303 FILLER_93_1504
*9304 FILLER_93_1506
*9305 FILLER_93_725
*9306 FILLER_94_1470
*9307 FILLER_94_1482
*9308 FILLER_94_1486
*9309 FILLER_94_1488
*9310 FILLER_94_1490
*9311 FILLER_94_1502
*9312 FILLER_94_1506
*9313 FILLER_94_709
*9314 FILLER_94_721
*9315 FILLER_94_725
*9316 FILLER_94_727
*9317 FILLER_94_729
*9318 FILLER_95_1464
*9319 FILLER_95_1476
*9320 FILLER_95_1488
*9321 FILLER_95_1500
*9322 FILLER_95_1504
*9323 FILLER_95_1506
*9324 FILLER_95_703
*9325 FILLER_95_715
*9326 FILLER_95_727
*9327 FILLER_95_739
*9328 FILLER_96_1464
*9329 FILLER_96_1476
*9330 FILLER_96_1488
*9331 FILLER_96_1490
*9332 FILLER_96_1502
*9333 FILLER_96_1506
*9334 FILLER_96_703
*9335 FILLER_96_715
*9336 FILLER_96_727
*9337 FILLER_96_729
*9338 FILLER_97_1464
*9339 FILLER_97_1476
*9340 FILLER_97_1488
*9341 FILLER_97_1500
*9342 FILLER_97_1504
*9343 FILLER_97_1506
*9344 FILLER_97_703
*9345 FILLER_97_715
*9346 FILLER_97_727
*9347 FILLER_97_739
*9348 FILLER_98_1464
*9349 FILLER_98_1476
*9350 FILLER_98_1488
*9351 FILLER_98_1490
*9352 FILLER_98_1502
*9353 FILLER_98_1506
*9354 FILLER_98_703
*9355 FILLER_98_715
*9356 FILLER_98_727
*9357 FILLER_98_729
*9358 FILLER_99_1464
*9359 FILLER_99_1476
*9360 FILLER_99_1488
*9361 FILLER_99_1500
*9362 FILLER_99_1504
*9363 FILLER_99_1506
*9364 FILLER_99_703
*9365 FILLER_99_715
*9366 FILLER_99_727
*9367 FILLER_99_739
*9368 FILLER_9_1464
*9369 FILLER_9_1476
*9370 FILLER_9_1488
*9371 FILLER_9_1500
*9372 FILLER_9_1504
*9373 FILLER_9_1506
*9374 FILLER_9_712
*9375 FILLER_9_724
*9376 FILLER_9_736
*9377 FILLER_9_744
*9378 FILLER_9_746
*9379 PHY_EDGE_ROW_0_Left_312
*9380 PHY_EDGE_ROW_0_Right_321
*9381 PHY_EDGE_ROW_100_2_Left_252
*9382 PHY_EDGE_ROW_100_2_Right_896
*9383 PHY_EDGE_ROW_100_3_Left_747
*9384 PHY_EDGE_ROW_100_3_Right_439
*9385 PHY_EDGE_ROW_101_2_Left_253
*9386 PHY_EDGE_ROW_101_2_Right_897
*9387 PHY_EDGE_ROW_101_3_Left_748
*9388 PHY_EDGE_ROW_101_3_Right_440
*9389 PHY_EDGE_ROW_102_2_Left_254
*9390 PHY_EDGE_ROW_102_2_Right_898
*9391 PHY_EDGE_ROW_102_3_Left_749
*9392 PHY_EDGE_ROW_102_3_Right_441
*9393 PHY_EDGE_ROW_103_2_Left_255
*9394 PHY_EDGE_ROW_103_2_Right_899
*9395 PHY_EDGE_ROW_103_3_Left_750
*9396 PHY_EDGE_ROW_103_3_Right_442
*9397 PHY_EDGE_ROW_104_2_Left_256
*9398 PHY_EDGE_ROW_104_2_Right_900
*9399 PHY_EDGE_ROW_104_3_Left_751
*9400 PHY_EDGE_ROW_104_3_Right_443
*9401 PHY_EDGE_ROW_105_2_Left_257
*9402 PHY_EDGE_ROW_105_2_Right_901
*9403 PHY_EDGE_ROW_105_3_Left_752
*9404 PHY_EDGE_ROW_105_3_Right_444
*9405 PHY_EDGE_ROW_106_2_Left_258
*9406 PHY_EDGE_ROW_106_2_Right_902
*9407 PHY_EDGE_ROW_106_3_Left_753
*9408 PHY_EDGE_ROW_106_3_Right_445
*9409 PHY_EDGE_ROW_107_2_Left_259
*9410 PHY_EDGE_ROW_107_2_Right_903
*9411 PHY_EDGE_ROW_107_3_Left_754
*9412 PHY_EDGE_ROW_107_3_Right_446
*9413 PHY_EDGE_ROW_108_2_Left_260
*9414 PHY_EDGE_ROW_108_2_Right_904
*9415 PHY_EDGE_ROW_108_3_Left_755
*9416 PHY_EDGE_ROW_108_3_Right_447
*9417 PHY_EDGE_ROW_109_2_Left_261
*9418 PHY_EDGE_ROW_109_2_Right_905
*9419 PHY_EDGE_ROW_109_3_Left_756
*9420 PHY_EDGE_ROW_109_3_Right_448
*9421 PHY_EDGE_ROW_10_2_Left_162
*9422 PHY_EDGE_ROW_10_2_Right_806
*9423 PHY_EDGE_ROW_10_3_Left_657
*9424 PHY_EDGE_ROW_10_3_Right_349
*9425 PHY_EDGE_ROW_110_2_Left_262
*9426 PHY_EDGE_ROW_110_2_Right_906
*9427 PHY_EDGE_ROW_110_3_Left_757
*9428 PHY_EDGE_ROW_110_3_Right_449
*9429 PHY_EDGE_ROW_111_2_Left_263
*9430 PHY_EDGE_ROW_111_2_Right_907
*9431 PHY_EDGE_ROW_111_3_Left_758
*9432 PHY_EDGE_ROW_111_3_Right_450
*9433 PHY_EDGE_ROW_112_2_Left_264
*9434 PHY_EDGE_ROW_112_2_Right_908
*9435 PHY_EDGE_ROW_112_3_Left_759
*9436 PHY_EDGE_ROW_112_3_Right_451
*9437 PHY_EDGE_ROW_113_2_Left_265
*9438 PHY_EDGE_ROW_113_2_Right_909
*9439 PHY_EDGE_ROW_113_3_Left_760
*9440 PHY_EDGE_ROW_113_3_Right_452
*9441 PHY_EDGE_ROW_114_2_Left_266
*9442 PHY_EDGE_ROW_114_2_Right_910
*9443 PHY_EDGE_ROW_114_3_Left_761
*9444 PHY_EDGE_ROW_114_3_Right_453
*9445 PHY_EDGE_ROW_115_2_Left_267
*9446 PHY_EDGE_ROW_115_2_Right_911
*9447 PHY_EDGE_ROW_115_3_Left_762
*9448 PHY_EDGE_ROW_115_3_Right_454
*9449 PHY_EDGE_ROW_116_2_Left_268
*9450 PHY_EDGE_ROW_116_2_Right_912
*9451 PHY_EDGE_ROW_116_3_Left_763
*9452 PHY_EDGE_ROW_116_3_Right_455
*9453 PHY_EDGE_ROW_117_2_Left_269
*9454 PHY_EDGE_ROW_117_2_Right_913
*9455 PHY_EDGE_ROW_117_3_Left_764
*9456 PHY_EDGE_ROW_117_3_Right_456
*9457 PHY_EDGE_ROW_118_2_Left_270
*9458 PHY_EDGE_ROW_118_2_Right_914
*9459 PHY_EDGE_ROW_118_3_Left_765
*9460 PHY_EDGE_ROW_118_3_Right_457
*9461 PHY_EDGE_ROW_119_2_Left_271
*9462 PHY_EDGE_ROW_119_2_Right_915
*9463 PHY_EDGE_ROW_119_3_Left_766
*9464 PHY_EDGE_ROW_119_3_Right_458
*9465 PHY_EDGE_ROW_11_2_Left_163
*9466 PHY_EDGE_ROW_11_2_Right_807
*9467 PHY_EDGE_ROW_11_3_Left_658
*9468 PHY_EDGE_ROW_11_3_Right_350
*9469 PHY_EDGE_ROW_120_2_Left_272
*9470 PHY_EDGE_ROW_120_2_Right_916
*9471 PHY_EDGE_ROW_120_3_Left_767
*9472 PHY_EDGE_ROW_120_3_Right_459
*9473 PHY_EDGE_ROW_121_2_Left_273
*9474 PHY_EDGE_ROW_121_2_Right_917
*9475 PHY_EDGE_ROW_121_3_Left_768
*9476 PHY_EDGE_ROW_121_3_Right_460
*9477 PHY_EDGE_ROW_122_2_Left_274
*9478 PHY_EDGE_ROW_122_2_Right_918
*9479 PHY_EDGE_ROW_122_3_Left_769
*9480 PHY_EDGE_ROW_122_3_Right_461
*9481 PHY_EDGE_ROW_123_2_Left_275
*9482 PHY_EDGE_ROW_123_2_Right_919
*9483 PHY_EDGE_ROW_123_3_Left_770
*9484 PHY_EDGE_ROW_123_3_Right_462
*9485 PHY_EDGE_ROW_124_2_Left_276
*9486 PHY_EDGE_ROW_124_2_Right_920
*9487 PHY_EDGE_ROW_124_3_Left_771
*9488 PHY_EDGE_ROW_124_3_Right_463
*9489 PHY_EDGE_ROW_125_2_Left_277
*9490 PHY_EDGE_ROW_125_2_Right_921
*9491 PHY_EDGE_ROW_125_3_Left_772
*9492 PHY_EDGE_ROW_125_3_Right_464
*9493 PHY_EDGE_ROW_126_2_Left_278
*9494 PHY_EDGE_ROW_126_2_Right_922
*9495 PHY_EDGE_ROW_126_3_Left_773
*9496 PHY_EDGE_ROW_126_3_Right_465
*9497 PHY_EDGE_ROW_127_2_Left_279
*9498 PHY_EDGE_ROW_127_2_Right_923
*9499 PHY_EDGE_ROW_127_3_Left_774
*9500 PHY_EDGE_ROW_127_3_Right_466
*9501 PHY_EDGE_ROW_128_2_Left_280
*9502 PHY_EDGE_ROW_128_2_Right_924
*9503 PHY_EDGE_ROW_128_3_Left_775
*9504 PHY_EDGE_ROW_128_3_Right_467
*9505 PHY_EDGE_ROW_129_2_Left_281
*9506 PHY_EDGE_ROW_129_2_Right_925
*9507 PHY_EDGE_ROW_129_3_Left_776
*9508 PHY_EDGE_ROW_129_3_Right_468
*9509 PHY_EDGE_ROW_12_2_Left_164
*9510 PHY_EDGE_ROW_12_2_Right_808
*9511 PHY_EDGE_ROW_12_3_Left_659
*9512 PHY_EDGE_ROW_12_3_Right_351
*9513 PHY_EDGE_ROW_130_2_Left_282
*9514 PHY_EDGE_ROW_130_2_Right_926
*9515 PHY_EDGE_ROW_130_3_Left_777
*9516 PHY_EDGE_ROW_130_3_Right_469
*9517 PHY_EDGE_ROW_131_2_Left_283
*9518 PHY_EDGE_ROW_131_2_Right_927
*9519 PHY_EDGE_ROW_131_3_Left_778
*9520 PHY_EDGE_ROW_131_3_Right_470
*9521 PHY_EDGE_ROW_132_2_Left_284
*9522 PHY_EDGE_ROW_132_2_Right_928
*9523 PHY_EDGE_ROW_132_3_Left_779
*9524 PHY_EDGE_ROW_132_3_Right_471
*9525 PHY_EDGE_ROW_133_2_Left_285
*9526 PHY_EDGE_ROW_133_2_Right_929
*9527 PHY_EDGE_ROW_133_3_Left_780
*9528 PHY_EDGE_ROW_133_3_Right_472
*9529 PHY_EDGE_ROW_134_2_Left_286
*9530 PHY_EDGE_ROW_134_2_Right_930
*9531 PHY_EDGE_ROW_134_3_Left_781
*9532 PHY_EDGE_ROW_134_3_Right_473
*9533 PHY_EDGE_ROW_135_2_Left_287
*9534 PHY_EDGE_ROW_135_2_Right_931
*9535 PHY_EDGE_ROW_135_3_Left_782
*9536 PHY_EDGE_ROW_135_3_Right_474
*9537 PHY_EDGE_ROW_136_2_Left_288
*9538 PHY_EDGE_ROW_136_2_Right_932
*9539 PHY_EDGE_ROW_136_3_Left_783
*9540 PHY_EDGE_ROW_136_3_Right_475
*9541 PHY_EDGE_ROW_137_2_Left_289
*9542 PHY_EDGE_ROW_137_2_Right_933
*9543 PHY_EDGE_ROW_137_3_Left_784
*9544 PHY_EDGE_ROW_137_3_Right_476
*9545 PHY_EDGE_ROW_138_2_Left_290
*9546 PHY_EDGE_ROW_138_2_Right_934
*9547 PHY_EDGE_ROW_138_3_Left_785
*9548 PHY_EDGE_ROW_138_3_Right_477
*9549 PHY_EDGE_ROW_139_2_Left_291
*9550 PHY_EDGE_ROW_139_2_Right_935
*9551 PHY_EDGE_ROW_139_3_Left_786
*9552 PHY_EDGE_ROW_139_3_Right_478
*9553 PHY_EDGE_ROW_13_2_Left_165
*9554 PHY_EDGE_ROW_13_2_Right_809
*9555 PHY_EDGE_ROW_13_3_Left_660
*9556 PHY_EDGE_ROW_13_3_Right_352
*9557 PHY_EDGE_ROW_140_2_Left_292
*9558 PHY_EDGE_ROW_140_2_Right_936
*9559 PHY_EDGE_ROW_140_3_Left_787
*9560 PHY_EDGE_ROW_140_3_Right_479
*9561 PHY_EDGE_ROW_141_2_Left_293
*9562 PHY_EDGE_ROW_141_2_Right_937
*9563 PHY_EDGE_ROW_141_3_Left_788
*9564 PHY_EDGE_ROW_141_3_Right_480
*9565 PHY_EDGE_ROW_142_2_Left_294
*9566 PHY_EDGE_ROW_142_2_Right_938
*9567 PHY_EDGE_ROW_142_3_Left_789
*9568 PHY_EDGE_ROW_142_3_Right_481
*9569 PHY_EDGE_ROW_143_2_Left_295
*9570 PHY_EDGE_ROW_143_2_Right_939
*9571 PHY_EDGE_ROW_143_3_Left_790
*9572 PHY_EDGE_ROW_143_3_Right_482
*9573 PHY_EDGE_ROW_144_2_Left_296
*9574 PHY_EDGE_ROW_144_2_Right_940
*9575 PHY_EDGE_ROW_144_3_Left_791
*9576 PHY_EDGE_ROW_144_3_Right_483
*9577 PHY_EDGE_ROW_145_2_Left_297
*9578 PHY_EDGE_ROW_145_2_Right_941
*9579 PHY_EDGE_ROW_145_3_Left_792
*9580 PHY_EDGE_ROW_145_3_Right_484
*9581 PHY_EDGE_ROW_146_2_Left_298
*9582 PHY_EDGE_ROW_146_2_Right_942
*9583 PHY_EDGE_ROW_146_3_Left_793
*9584 PHY_EDGE_ROW_146_3_Right_485
*9585 PHY_EDGE_ROW_147_2_Left_299
*9586 PHY_EDGE_ROW_147_2_Right_943
*9587 PHY_EDGE_ROW_147_3_Left_794
*9588 PHY_EDGE_ROW_147_3_Right_486
*9589 PHY_EDGE_ROW_148_2_Left_300
*9590 PHY_EDGE_ROW_148_2_Right_944
*9591 PHY_EDGE_ROW_148_3_Left_795
*9592 PHY_EDGE_ROW_148_3_Right_487
*9593 PHY_EDGE_ROW_149_2_Left_301
*9594 PHY_EDGE_ROW_149_2_Right_945
*9595 PHY_EDGE_ROW_149_3_Left_796
*9596 PHY_EDGE_ROW_149_3_Right_488
*9597 PHY_EDGE_ROW_14_2_Left_166
*9598 PHY_EDGE_ROW_14_2_Right_810
*9599 PHY_EDGE_ROW_14_3_Left_661
*9600 PHY_EDGE_ROW_14_3_Right_353
*9601 PHY_EDGE_ROW_150_2_Left_302
*9602 PHY_EDGE_ROW_150_2_Right_946
*9603 PHY_EDGE_ROW_150_3_Left_797
*9604 PHY_EDGE_ROW_150_3_Right_489
*9605 PHY_EDGE_ROW_151_2_Left_303
*9606 PHY_EDGE_ROW_151_2_Right_947
*9607 PHY_EDGE_ROW_151_3_Left_798
*9608 PHY_EDGE_ROW_151_3_Right_490
*9609 PHY_EDGE_ROW_152_2_Left_304
*9610 PHY_EDGE_ROW_152_2_Right_948
*9611 PHY_EDGE_ROW_152_3_Left_799
*9612 PHY_EDGE_ROW_152_3_Right_491
*9613 PHY_EDGE_ROW_153_2_Left_305
*9614 PHY_EDGE_ROW_153_2_Right_949
*9615 PHY_EDGE_ROW_153_3_Left_800
*9616 PHY_EDGE_ROW_153_3_Right_492
*9617 PHY_EDGE_ROW_154_2_Left_306
*9618 PHY_EDGE_ROW_154_2_Right_950
*9619 PHY_EDGE_ROW_154_3_Left_801
*9620 PHY_EDGE_ROW_154_3_Right_493
*9621 PHY_EDGE_ROW_155_2_Left_307
*9622 PHY_EDGE_ROW_155_2_Right_951
*9623 PHY_EDGE_ROW_155_3_Left_802
*9624 PHY_EDGE_ROW_155_3_Right_494
*9625 PHY_EDGE_ROW_156_2_Left_308
*9626 PHY_EDGE_ROW_156_2_Right_952
*9627 PHY_EDGE_ROW_156_3_Left_803
*9628 PHY_EDGE_ROW_156_3_Right_495
*9629 PHY_EDGE_ROW_157_2_Left_309
*9630 PHY_EDGE_ROW_157_2_Right_953
*9631 PHY_EDGE_ROW_157_3_Left_804
*9632 PHY_EDGE_ROW_157_3_Right_496
*9633 PHY_EDGE_ROW_158_2_Left_310
*9634 PHY_EDGE_ROW_158_2_Right_954
*9635 PHY_EDGE_ROW_158_3_Left_805
*9636 PHY_EDGE_ROW_158_3_Right_497
*9637 PHY_EDGE_ROW_159_Left_151
*9638 PHY_EDGE_ROW_159_Right_330
*9639 PHY_EDGE_ROW_15_2_Left_167
*9640 PHY_EDGE_ROW_15_2_Right_811
*9641 PHY_EDGE_ROW_15_3_Left_662
*9642 PHY_EDGE_ROW_15_3_Right_354
*9643 PHY_EDGE_ROW_160_Left_152
*9644 PHY_EDGE_ROW_160_Right_331
*9645 PHY_EDGE_ROW_161_Left_153
*9646 PHY_EDGE_ROW_161_Right_332
*9647 PHY_EDGE_ROW_162_Left_154
*9648 PHY_EDGE_ROW_162_Right_333
*9649 PHY_EDGE_ROW_163_Left_155
*9650 PHY_EDGE_ROW_163_Right_334
*9651 PHY_EDGE_ROW_164_Left_156
*9652 PHY_EDGE_ROW_164_Right_335
*9653 PHY_EDGE_ROW_165_Left_157
*9654 PHY_EDGE_ROW_165_Right_336
*9655 PHY_EDGE_ROW_166_Left_158
*9656 PHY_EDGE_ROW_166_Right_337
*9657 PHY_EDGE_ROW_167_Left_159
*9658 PHY_EDGE_ROW_167_Right_338
*9659 PHY_EDGE_ROW_168_Left_160
*9660 PHY_EDGE_ROW_168_Right_339
*9661 PHY_EDGE_ROW_169_Left_161
*9662 PHY_EDGE_ROW_169_Right_340
*9663 PHY_EDGE_ROW_16_2_Left_168
*9664 PHY_EDGE_ROW_16_2_Right_812
*9665 PHY_EDGE_ROW_16_3_Left_663
*9666 PHY_EDGE_ROW_16_3_Right_355
*9667 PHY_EDGE_ROW_170_2_Left_0
*9668 PHY_EDGE_ROW_170_2_Right_1107
*9669 PHY_EDGE_ROW_170_3_Left_956
*9670 PHY_EDGE_ROW_170_3_Right_498
*9671 PHY_EDGE_ROW_171_2_Left_1
*9672 PHY_EDGE_ROW_171_2_Right_1108
*9673 PHY_EDGE_ROW_171_3_Left_957
*9674 PHY_EDGE_ROW_171_3_Right_499
*9675 PHY_EDGE_ROW_172_2_Left_2
*9676 PHY_EDGE_ROW_172_2_Right_1109
*9677 PHY_EDGE_ROW_172_3_Left_958
*9678 PHY_EDGE_ROW_172_3_Right_500
*9679 PHY_EDGE_ROW_173_2_Left_3
*9680 PHY_EDGE_ROW_173_2_Right_1110
*9681 PHY_EDGE_ROW_173_3_Left_959
*9682 PHY_EDGE_ROW_173_3_Right_501
*9683 PHY_EDGE_ROW_174_2_Left_4
*9684 PHY_EDGE_ROW_174_2_Right_1111
*9685 PHY_EDGE_ROW_174_3_Left_960
*9686 PHY_EDGE_ROW_174_3_Right_502
*9687 PHY_EDGE_ROW_175_2_Left_5
*9688 PHY_EDGE_ROW_175_2_Right_1112
*9689 PHY_EDGE_ROW_175_3_Left_961
*9690 PHY_EDGE_ROW_175_3_Right_503
*9691 PHY_EDGE_ROW_176_2_Left_6
*9692 PHY_EDGE_ROW_176_2_Right_1113
*9693 PHY_EDGE_ROW_176_3_Left_962
*9694 PHY_EDGE_ROW_176_3_Right_504
*9695 PHY_EDGE_ROW_177_2_Left_7
*9696 PHY_EDGE_ROW_177_2_Right_1114
*9697 PHY_EDGE_ROW_177_3_Left_963
*9698 PHY_EDGE_ROW_177_3_Right_505
*9699 PHY_EDGE_ROW_178_2_Left_8
*9700 PHY_EDGE_ROW_178_2_Right_1115
*9701 PHY_EDGE_ROW_178_3_Left_964
*9702 PHY_EDGE_ROW_178_3_Right_506
*9703 PHY_EDGE_ROW_179_2_Left_9
*9704 PHY_EDGE_ROW_179_2_Right_1116
*9705 PHY_EDGE_ROW_179_3_Left_965
*9706 PHY_EDGE_ROW_179_3_Right_507
*9707 PHY_EDGE_ROW_17_2_Left_169
*9708 PHY_EDGE_ROW_17_2_Right_813
*9709 PHY_EDGE_ROW_17_3_Left_664
*9710 PHY_EDGE_ROW_17_3_Right_356
*9711 PHY_EDGE_ROW_180_2_Left_10
*9712 PHY_EDGE_ROW_180_2_Right_1117
*9713 PHY_EDGE_ROW_180_3_Left_966
*9714 PHY_EDGE_ROW_180_3_Right_508
*9715 PHY_EDGE_ROW_181_2_Left_11
*9716 PHY_EDGE_ROW_181_2_Right_1118
*9717 PHY_EDGE_ROW_181_3_Left_967
*9718 PHY_EDGE_ROW_181_3_Right_509
*9719 PHY_EDGE_ROW_182_2_Left_12
*9720 PHY_EDGE_ROW_182_2_Right_1119
*9721 PHY_EDGE_ROW_182_3_Left_968
*9722 PHY_EDGE_ROW_182_3_Right_510
*9723 PHY_EDGE_ROW_183_2_Left_13
*9724 PHY_EDGE_ROW_183_2_Right_1120
*9725 PHY_EDGE_ROW_183_3_Left_969
*9726 PHY_EDGE_ROW_183_3_Right_511
*9727 PHY_EDGE_ROW_184_2_Left_14
*9728 PHY_EDGE_ROW_184_2_Right_1121
*9729 PHY_EDGE_ROW_184_3_Left_970
*9730 PHY_EDGE_ROW_184_3_Right_512
*9731 PHY_EDGE_ROW_185_2_Left_15
*9732 PHY_EDGE_ROW_185_2_Right_1122
*9733 PHY_EDGE_ROW_185_3_Left_971
*9734 PHY_EDGE_ROW_185_3_Right_513
*9735 PHY_EDGE_ROW_186_2_Left_16
*9736 PHY_EDGE_ROW_186_2_Right_1123
*9737 PHY_EDGE_ROW_186_3_Left_972
*9738 PHY_EDGE_ROW_186_3_Right_514
*9739 PHY_EDGE_ROW_187_2_Left_17
*9740 PHY_EDGE_ROW_187_2_Right_1124
*9741 PHY_EDGE_ROW_187_3_Left_973
*9742 PHY_EDGE_ROW_187_3_Right_515
*9743 PHY_EDGE_ROW_188_2_Left_18
*9744 PHY_EDGE_ROW_188_2_Right_1125
*9745 PHY_EDGE_ROW_188_3_Left_974
*9746 PHY_EDGE_ROW_188_3_Right_516
*9747 PHY_EDGE_ROW_189_2_Left_19
*9748 PHY_EDGE_ROW_189_2_Right_1126
*9749 PHY_EDGE_ROW_189_3_Left_975
*9750 PHY_EDGE_ROW_189_3_Right_517
*9751 PHY_EDGE_ROW_18_2_Left_170
*9752 PHY_EDGE_ROW_18_2_Right_814
*9753 PHY_EDGE_ROW_18_3_Left_665
*9754 PHY_EDGE_ROW_18_3_Right_357
*9755 PHY_EDGE_ROW_190_2_Left_20
*9756 PHY_EDGE_ROW_190_2_Right_1127
*9757 PHY_EDGE_ROW_190_3_Left_976
*9758 PHY_EDGE_ROW_190_3_Right_518
*9759 PHY_EDGE_ROW_191_2_Left_21
*9760 PHY_EDGE_ROW_191_2_Right_1128
*9761 PHY_EDGE_ROW_191_3_Left_977
*9762 PHY_EDGE_ROW_191_3_Right_519
*9763 PHY_EDGE_ROW_192_2_Left_22
*9764 PHY_EDGE_ROW_192_2_Right_1129
*9765 PHY_EDGE_ROW_192_3_Left_978
*9766 PHY_EDGE_ROW_192_3_Right_520
*9767 PHY_EDGE_ROW_193_2_Left_23
*9768 PHY_EDGE_ROW_193_2_Right_1130
*9769 PHY_EDGE_ROW_193_3_Left_979
*9770 PHY_EDGE_ROW_193_3_Right_521
*9771 PHY_EDGE_ROW_194_2_Left_24
*9772 PHY_EDGE_ROW_194_2_Right_1131
*9773 PHY_EDGE_ROW_194_3_Left_980
*9774 PHY_EDGE_ROW_194_3_Right_522
*9775 PHY_EDGE_ROW_195_2_Left_25
*9776 PHY_EDGE_ROW_195_2_Right_1132
*9777 PHY_EDGE_ROW_195_3_Left_981
*9778 PHY_EDGE_ROW_195_3_Right_523
*9779 PHY_EDGE_ROW_196_2_Left_26
*9780 PHY_EDGE_ROW_196_2_Right_1133
*9781 PHY_EDGE_ROW_196_3_Left_982
*9782 PHY_EDGE_ROW_196_3_Right_524
*9783 PHY_EDGE_ROW_197_2_Left_27
*9784 PHY_EDGE_ROW_197_2_Right_1134
*9785 PHY_EDGE_ROW_197_3_Left_983
*9786 PHY_EDGE_ROW_197_3_Right_525
*9787 PHY_EDGE_ROW_198_2_Left_28
*9788 PHY_EDGE_ROW_198_2_Right_1135
*9789 PHY_EDGE_ROW_198_3_Left_984
*9790 PHY_EDGE_ROW_198_3_Right_526
*9791 PHY_EDGE_ROW_199_2_Left_29
*9792 PHY_EDGE_ROW_199_2_Right_1136
*9793 PHY_EDGE_ROW_199_3_Left_985
*9794 PHY_EDGE_ROW_199_3_Right_527
*9795 PHY_EDGE_ROW_19_2_Left_171
*9796 PHY_EDGE_ROW_19_2_Right_815
*9797 PHY_EDGE_ROW_19_3_Left_666
*9798 PHY_EDGE_ROW_19_3_Right_358
*9799 PHY_EDGE_ROW_1_Left_313
*9800 PHY_EDGE_ROW_1_Right_322
*9801 PHY_EDGE_ROW_200_2_Left_30
*9802 PHY_EDGE_ROW_200_2_Right_1137
*9803 PHY_EDGE_ROW_200_3_Left_986
*9804 PHY_EDGE_ROW_200_3_Right_528
*9805 PHY_EDGE_ROW_201_2_Left_31
*9806 PHY_EDGE_ROW_201_2_Right_1138
*9807 PHY_EDGE_ROW_201_3_Left_987
*9808 PHY_EDGE_ROW_201_3_Right_529
*9809 PHY_EDGE_ROW_202_2_Left_32
*9810 PHY_EDGE_ROW_202_2_Right_1139
*9811 PHY_EDGE_ROW_202_3_Left_988
*9812 PHY_EDGE_ROW_202_3_Right_530
*9813 PHY_EDGE_ROW_203_2_Left_33
*9814 PHY_EDGE_ROW_203_2_Right_1140
*9815 PHY_EDGE_ROW_203_3_Left_989
*9816 PHY_EDGE_ROW_203_3_Right_531
*9817 PHY_EDGE_ROW_204_2_Left_34
*9818 PHY_EDGE_ROW_204_2_Right_1141
*9819 PHY_EDGE_ROW_204_3_Left_990
*9820 PHY_EDGE_ROW_204_3_Right_532
*9821 PHY_EDGE_ROW_205_2_Left_35
*9822 PHY_EDGE_ROW_205_2_Right_1142
*9823 PHY_EDGE_ROW_205_3_Left_991
*9824 PHY_EDGE_ROW_205_3_Right_533
*9825 PHY_EDGE_ROW_206_2_Left_36
*9826 PHY_EDGE_ROW_206_2_Right_1143
*9827 PHY_EDGE_ROW_206_3_Left_992
*9828 PHY_EDGE_ROW_206_3_Right_534
*9829 PHY_EDGE_ROW_207_2_Left_37
*9830 PHY_EDGE_ROW_207_2_Right_1144
*9831 PHY_EDGE_ROW_207_3_Left_993
*9832 PHY_EDGE_ROW_207_3_Right_535
*9833 PHY_EDGE_ROW_208_2_Left_38
*9834 PHY_EDGE_ROW_208_2_Right_1145
*9835 PHY_EDGE_ROW_208_3_Left_994
*9836 PHY_EDGE_ROW_208_3_Right_536
*9837 PHY_EDGE_ROW_209_2_Left_39
*9838 PHY_EDGE_ROW_209_2_Right_1146
*9839 PHY_EDGE_ROW_209_3_Left_995
*9840 PHY_EDGE_ROW_209_3_Right_537
*9841 PHY_EDGE_ROW_20_2_Left_172
*9842 PHY_EDGE_ROW_20_2_Right_816
*9843 PHY_EDGE_ROW_20_3_Left_667
*9844 PHY_EDGE_ROW_20_3_Right_359
*9845 PHY_EDGE_ROW_210_2_Left_40
*9846 PHY_EDGE_ROW_210_2_Right_1147
*9847 PHY_EDGE_ROW_210_3_Left_996
*9848 PHY_EDGE_ROW_210_3_Right_538
*9849 PHY_EDGE_ROW_211_2_Left_41
*9850 PHY_EDGE_ROW_211_2_Right_1148
*9851 PHY_EDGE_ROW_211_3_Left_997
*9852 PHY_EDGE_ROW_211_3_Right_539
*9853 PHY_EDGE_ROW_212_2_Left_42
*9854 PHY_EDGE_ROW_212_2_Right_1149
*9855 PHY_EDGE_ROW_212_3_Left_998
*9856 PHY_EDGE_ROW_212_3_Right_540
*9857 PHY_EDGE_ROW_213_2_Left_43
*9858 PHY_EDGE_ROW_213_2_Right_1150
*9859 PHY_EDGE_ROW_213_3_Left_999
*9860 PHY_EDGE_ROW_213_3_Right_541
*9861 PHY_EDGE_ROW_214_2_Left_44
*9862 PHY_EDGE_ROW_214_2_Right_1151
*9863 PHY_EDGE_ROW_214_3_Left_1000
*9864 PHY_EDGE_ROW_214_3_Right_542
*9865 PHY_EDGE_ROW_215_2_Left_45
*9866 PHY_EDGE_ROW_215_2_Right_1152
*9867 PHY_EDGE_ROW_215_3_Left_1001
*9868 PHY_EDGE_ROW_215_3_Right_543
*9869 PHY_EDGE_ROW_216_2_Left_46
*9870 PHY_EDGE_ROW_216_2_Right_1153
*9871 PHY_EDGE_ROW_216_3_Left_1002
*9872 PHY_EDGE_ROW_216_3_Right_544
*9873 PHY_EDGE_ROW_217_2_Left_47
*9874 PHY_EDGE_ROW_217_2_Right_1154
*9875 PHY_EDGE_ROW_217_3_Left_1003
*9876 PHY_EDGE_ROW_217_3_Right_545
*9877 PHY_EDGE_ROW_218_2_Left_48
*9878 PHY_EDGE_ROW_218_2_Right_1155
*9879 PHY_EDGE_ROW_218_3_Left_1004
*9880 PHY_EDGE_ROW_218_3_Right_546
*9881 PHY_EDGE_ROW_219_2_Left_49
*9882 PHY_EDGE_ROW_219_2_Right_1156
*9883 PHY_EDGE_ROW_219_3_Left_1005
*9884 PHY_EDGE_ROW_219_3_Right_547
*9885 PHY_EDGE_ROW_21_2_Left_173
*9886 PHY_EDGE_ROW_21_2_Right_817
*9887 PHY_EDGE_ROW_21_3_Left_668
*9888 PHY_EDGE_ROW_21_3_Right_360
*9889 PHY_EDGE_ROW_220_2_Left_50
*9890 PHY_EDGE_ROW_220_2_Right_1157
*9891 PHY_EDGE_ROW_220_3_Left_1006
*9892 PHY_EDGE_ROW_220_3_Right_548
*9893 PHY_EDGE_ROW_221_2_Left_51
*9894 PHY_EDGE_ROW_221_2_Right_1158
*9895 PHY_EDGE_ROW_221_3_Left_1007
*9896 PHY_EDGE_ROW_221_3_Right_549
*9897 PHY_EDGE_ROW_222_2_Left_52
*9898 PHY_EDGE_ROW_222_2_Right_1159
*9899 PHY_EDGE_ROW_222_3_Left_1008
*9900 PHY_EDGE_ROW_222_3_Right_550
*9901 PHY_EDGE_ROW_223_2_Left_53
*9902 PHY_EDGE_ROW_223_2_Right_1160
*9903 PHY_EDGE_ROW_223_3_Left_1009
*9904 PHY_EDGE_ROW_223_3_Right_551
*9905 PHY_EDGE_ROW_224_2_Left_54
*9906 PHY_EDGE_ROW_224_2_Right_1161
*9907 PHY_EDGE_ROW_224_3_Left_1010
*9908 PHY_EDGE_ROW_224_3_Right_552
*9909 PHY_EDGE_ROW_225_2_Left_55
*9910 PHY_EDGE_ROW_225_2_Right_1162
*9911 PHY_EDGE_ROW_225_3_Left_1011
*9912 PHY_EDGE_ROW_225_3_Right_553
*9913 PHY_EDGE_ROW_226_2_Left_56
*9914 PHY_EDGE_ROW_226_2_Right_1163
*9915 PHY_EDGE_ROW_226_3_Left_1012
*9916 PHY_EDGE_ROW_226_3_Right_554
*9917 PHY_EDGE_ROW_227_2_Left_57
*9918 PHY_EDGE_ROW_227_2_Right_1164
*9919 PHY_EDGE_ROW_227_3_Left_1013
*9920 PHY_EDGE_ROW_227_3_Right_555
*9921 PHY_EDGE_ROW_228_2_Left_58
*9922 PHY_EDGE_ROW_228_2_Right_1165
*9923 PHY_EDGE_ROW_228_3_Left_1014
*9924 PHY_EDGE_ROW_228_3_Right_556
*9925 PHY_EDGE_ROW_229_2_Left_59
*9926 PHY_EDGE_ROW_229_2_Right_1166
*9927 PHY_EDGE_ROW_229_3_Left_1015
*9928 PHY_EDGE_ROW_229_3_Right_557
*9929 PHY_EDGE_ROW_22_2_Left_174
*9930 PHY_EDGE_ROW_22_2_Right_818
*9931 PHY_EDGE_ROW_22_3_Left_669
*9932 PHY_EDGE_ROW_22_3_Right_361
*9933 PHY_EDGE_ROW_230_2_Left_60
*9934 PHY_EDGE_ROW_230_2_Right_1167
*9935 PHY_EDGE_ROW_230_3_Left_1016
*9936 PHY_EDGE_ROW_230_3_Right_558
*9937 PHY_EDGE_ROW_231_2_Left_61
*9938 PHY_EDGE_ROW_231_2_Right_1168
*9939 PHY_EDGE_ROW_231_3_Left_1017
*9940 PHY_EDGE_ROW_231_3_Right_559
*9941 PHY_EDGE_ROW_232_2_Left_62
*9942 PHY_EDGE_ROW_232_2_Right_1169
*9943 PHY_EDGE_ROW_232_3_Left_1018
*9944 PHY_EDGE_ROW_232_3_Right_560
*9945 PHY_EDGE_ROW_233_2_Left_63
*9946 PHY_EDGE_ROW_233_2_Right_1170
*9947 PHY_EDGE_ROW_233_3_Left_1019
*9948 PHY_EDGE_ROW_233_3_Right_561
*9949 PHY_EDGE_ROW_234_2_Left_64
*9950 PHY_EDGE_ROW_234_2_Right_1171
*9951 PHY_EDGE_ROW_234_3_Left_1020
*9952 PHY_EDGE_ROW_234_3_Right_562
*9953 PHY_EDGE_ROW_235_2_Left_65
*9954 PHY_EDGE_ROW_235_2_Right_1172
*9955 PHY_EDGE_ROW_235_3_Left_1021
*9956 PHY_EDGE_ROW_235_3_Right_563
*9957 PHY_EDGE_ROW_236_2_Left_66
*9958 PHY_EDGE_ROW_236_2_Right_1173
*9959 PHY_EDGE_ROW_236_3_Left_1022
*9960 PHY_EDGE_ROW_236_3_Right_564
*9961 PHY_EDGE_ROW_237_2_Left_67
*9962 PHY_EDGE_ROW_237_2_Right_1174
*9963 PHY_EDGE_ROW_237_3_Left_1023
*9964 PHY_EDGE_ROW_237_3_Right_565
*9965 PHY_EDGE_ROW_238_2_Left_68
*9966 PHY_EDGE_ROW_238_2_Right_1175
*9967 PHY_EDGE_ROW_238_3_Left_1024
*9968 PHY_EDGE_ROW_238_3_Right_566
*9969 PHY_EDGE_ROW_239_2_Left_69
*9970 PHY_EDGE_ROW_239_2_Right_1176
*9971 PHY_EDGE_ROW_239_3_Left_1025
*9972 PHY_EDGE_ROW_239_3_Right_567
*9973 PHY_EDGE_ROW_23_2_Left_175
*9974 PHY_EDGE_ROW_23_2_Right_819
*9975 PHY_EDGE_ROW_23_3_Left_670
*9976 PHY_EDGE_ROW_23_3_Right_362
*9977 PHY_EDGE_ROW_240_2_Left_70
*9978 PHY_EDGE_ROW_240_2_Right_1177
*9979 PHY_EDGE_ROW_240_3_Left_1026
*9980 PHY_EDGE_ROW_240_3_Right_568
*9981 PHY_EDGE_ROW_241_2_Left_71
*9982 PHY_EDGE_ROW_241_2_Right_1178
*9983 PHY_EDGE_ROW_241_3_Left_1027
*9984 PHY_EDGE_ROW_241_3_Right_569
*9985 PHY_EDGE_ROW_242_2_Left_72
*9986 PHY_EDGE_ROW_242_2_Right_1179
*9987 PHY_EDGE_ROW_242_3_Left_1028
*9988 PHY_EDGE_ROW_242_3_Right_570
*9989 PHY_EDGE_ROW_243_2_Left_73
*9990 PHY_EDGE_ROW_243_2_Right_1180
*9991 PHY_EDGE_ROW_243_3_Left_1029
*9992 PHY_EDGE_ROW_243_3_Right_571
*9993 PHY_EDGE_ROW_244_2_Left_74
*9994 PHY_EDGE_ROW_244_2_Right_1181
*9995 PHY_EDGE_ROW_244_3_Left_1030
*9996 PHY_EDGE_ROW_244_3_Right_572
*9997 PHY_EDGE_ROW_245_2_Left_75
*9998 PHY_EDGE_ROW_245_2_Right_1182
*9999 PHY_EDGE_ROW_245_3_Left_1031
*10000 PHY_EDGE_ROW_245_3_Right_573
*10001 PHY_EDGE_ROW_246_2_Left_76
*10002 PHY_EDGE_ROW_246_2_Right_1183
*10003 PHY_EDGE_ROW_246_3_Left_1032
*10004 PHY_EDGE_ROW_246_3_Right_574
*10005 PHY_EDGE_ROW_247_2_Left_77
*10006 PHY_EDGE_ROW_247_2_Right_1184
*10007 PHY_EDGE_ROW_247_3_Left_1033
*10008 PHY_EDGE_ROW_247_3_Right_575
*10009 PHY_EDGE_ROW_248_2_Left_78
*10010 PHY_EDGE_ROW_248_2_Right_1185
*10011 PHY_EDGE_ROW_248_3_Left_1034
*10012 PHY_EDGE_ROW_248_3_Right_576
*10013 PHY_EDGE_ROW_249_2_Left_79
*10014 PHY_EDGE_ROW_249_2_Right_1186
*10015 PHY_EDGE_ROW_249_3_Left_1035
*10016 PHY_EDGE_ROW_249_3_Right_577
*10017 PHY_EDGE_ROW_24_2_Left_176
*10018 PHY_EDGE_ROW_24_2_Right_820
*10019 PHY_EDGE_ROW_24_3_Left_671
*10020 PHY_EDGE_ROW_24_3_Right_363
*10021 PHY_EDGE_ROW_250_2_Left_80
*10022 PHY_EDGE_ROW_250_2_Right_1187
*10023 PHY_EDGE_ROW_250_3_Left_1036
*10024 PHY_EDGE_ROW_250_3_Right_578
*10025 PHY_EDGE_ROW_251_2_Left_81
*10026 PHY_EDGE_ROW_251_2_Right_1188
*10027 PHY_EDGE_ROW_251_3_Left_1037
*10028 PHY_EDGE_ROW_251_3_Right_579
*10029 PHY_EDGE_ROW_252_2_Left_82
*10030 PHY_EDGE_ROW_252_2_Right_1189
*10031 PHY_EDGE_ROW_252_3_Left_1038
*10032 PHY_EDGE_ROW_252_3_Right_580
*10033 PHY_EDGE_ROW_253_2_Left_83
*10034 PHY_EDGE_ROW_253_2_Right_1190
*10035 PHY_EDGE_ROW_253_3_Left_1039
*10036 PHY_EDGE_ROW_253_3_Right_581
*10037 PHY_EDGE_ROW_254_2_Left_84
*10038 PHY_EDGE_ROW_254_2_Right_1191
*10039 PHY_EDGE_ROW_254_3_Left_1040
*10040 PHY_EDGE_ROW_254_3_Right_582
*10041 PHY_EDGE_ROW_255_2_Left_85
*10042 PHY_EDGE_ROW_255_2_Right_1192
*10043 PHY_EDGE_ROW_255_3_Left_1041
*10044 PHY_EDGE_ROW_255_3_Right_583
*10045 PHY_EDGE_ROW_256_2_Left_86
*10046 PHY_EDGE_ROW_256_2_Right_1193
*10047 PHY_EDGE_ROW_256_3_Left_1042
*10048 PHY_EDGE_ROW_256_3_Right_584
*10049 PHY_EDGE_ROW_257_2_Left_87
*10050 PHY_EDGE_ROW_257_2_Right_1194
*10051 PHY_EDGE_ROW_257_3_Left_1043
*10052 PHY_EDGE_ROW_257_3_Right_585
*10053 PHY_EDGE_ROW_258_2_Left_88
*10054 PHY_EDGE_ROW_258_2_Right_1195
*10055 PHY_EDGE_ROW_258_3_Left_1044
*10056 PHY_EDGE_ROW_258_3_Right_586
*10057 PHY_EDGE_ROW_259_2_Left_89
*10058 PHY_EDGE_ROW_259_2_Right_1196
*10059 PHY_EDGE_ROW_259_3_Left_1045
*10060 PHY_EDGE_ROW_259_3_Right_587
*10061 PHY_EDGE_ROW_25_2_Left_177
*10062 PHY_EDGE_ROW_25_2_Right_821
*10063 PHY_EDGE_ROW_25_3_Left_672
*10064 PHY_EDGE_ROW_25_3_Right_364
*10065 PHY_EDGE_ROW_260_2_Left_90
*10066 PHY_EDGE_ROW_260_2_Right_1197
*10067 PHY_EDGE_ROW_260_3_Left_1046
*10068 PHY_EDGE_ROW_260_3_Right_588
*10069 PHY_EDGE_ROW_261_2_Left_91
*10070 PHY_EDGE_ROW_261_2_Right_1198
*10071 PHY_EDGE_ROW_261_3_Left_1047
*10072 PHY_EDGE_ROW_261_3_Right_589
*10073 PHY_EDGE_ROW_262_2_Left_92
*10074 PHY_EDGE_ROW_262_2_Right_1199
*10075 PHY_EDGE_ROW_262_3_Left_1048
*10076 PHY_EDGE_ROW_262_3_Right_590
*10077 PHY_EDGE_ROW_263_2_Left_93
*10078 PHY_EDGE_ROW_263_2_Right_1200
*10079 PHY_EDGE_ROW_263_3_Left_1049
*10080 PHY_EDGE_ROW_263_3_Right_591
*10081 PHY_EDGE_ROW_264_2_Left_94
*10082 PHY_EDGE_ROW_264_2_Right_1201
*10083 PHY_EDGE_ROW_264_3_Left_1050
*10084 PHY_EDGE_ROW_264_3_Right_592
*10085 PHY_EDGE_ROW_265_2_Left_95
*10086 PHY_EDGE_ROW_265_2_Right_1202
*10087 PHY_EDGE_ROW_265_3_Left_1051
*10088 PHY_EDGE_ROW_265_3_Right_593
*10089 PHY_EDGE_ROW_266_2_Left_96
*10090 PHY_EDGE_ROW_266_2_Right_1203
*10091 PHY_EDGE_ROW_266_3_Left_1052
*10092 PHY_EDGE_ROW_266_3_Right_594
*10093 PHY_EDGE_ROW_267_2_Left_97
*10094 PHY_EDGE_ROW_267_2_Right_1204
*10095 PHY_EDGE_ROW_267_3_Left_1053
*10096 PHY_EDGE_ROW_267_3_Right_595
*10097 PHY_EDGE_ROW_268_2_Left_98
*10098 PHY_EDGE_ROW_268_2_Right_1205
*10099 PHY_EDGE_ROW_268_3_Left_1054
*10100 PHY_EDGE_ROW_268_3_Right_596
*10101 PHY_EDGE_ROW_269_2_Left_99
*10102 PHY_EDGE_ROW_269_2_Right_1206
*10103 PHY_EDGE_ROW_269_3_Left_1055
*10104 PHY_EDGE_ROW_269_3_Right_597
*10105 PHY_EDGE_ROW_26_2_Left_178
*10106 PHY_EDGE_ROW_26_2_Right_822
*10107 PHY_EDGE_ROW_26_3_Left_673
*10108 PHY_EDGE_ROW_26_3_Right_365
*10109 PHY_EDGE_ROW_270_2_Left_100
*10110 PHY_EDGE_ROW_270_2_Right_1207
*10111 PHY_EDGE_ROW_270_3_Left_1056
*10112 PHY_EDGE_ROW_270_3_Right_598
*10113 PHY_EDGE_ROW_271_2_Left_101
*10114 PHY_EDGE_ROW_271_2_Right_1208
*10115 PHY_EDGE_ROW_271_3_Left_1057
*10116 PHY_EDGE_ROW_271_3_Right_599
*10117 PHY_EDGE_ROW_272_2_Left_102
*10118 PHY_EDGE_ROW_272_2_Right_1209
*10119 PHY_EDGE_ROW_272_3_Left_1058
*10120 PHY_EDGE_ROW_272_3_Right_600
*10121 PHY_EDGE_ROW_273_2_Left_103
*10122 PHY_EDGE_ROW_273_2_Right_1210
*10123 PHY_EDGE_ROW_273_3_Left_1059
*10124 PHY_EDGE_ROW_273_3_Right_601
*10125 PHY_EDGE_ROW_274_2_Left_104
*10126 PHY_EDGE_ROW_274_2_Right_1211
*10127 PHY_EDGE_ROW_274_3_Left_1060
*10128 PHY_EDGE_ROW_274_3_Right_602
*10129 PHY_EDGE_ROW_275_2_Left_105
*10130 PHY_EDGE_ROW_275_2_Right_1212
*10131 PHY_EDGE_ROW_275_3_Left_1061
*10132 PHY_EDGE_ROW_275_3_Right_603
*10133 PHY_EDGE_ROW_276_2_Left_106
*10134 PHY_EDGE_ROW_276_2_Right_1213
*10135 PHY_EDGE_ROW_276_3_Left_1062
*10136 PHY_EDGE_ROW_276_3_Right_604
*10137 PHY_EDGE_ROW_277_2_Left_107
*10138 PHY_EDGE_ROW_277_2_Right_1214
*10139 PHY_EDGE_ROW_277_3_Left_1063
*10140 PHY_EDGE_ROW_277_3_Right_605
*10141 PHY_EDGE_ROW_278_2_Left_108
*10142 PHY_EDGE_ROW_278_2_Right_1215
*10143 PHY_EDGE_ROW_278_3_Left_1064
*10144 PHY_EDGE_ROW_278_3_Right_606
*10145 PHY_EDGE_ROW_279_2_Left_109
*10146 PHY_EDGE_ROW_279_2_Right_1216
*10147 PHY_EDGE_ROW_279_3_Left_1065
*10148 PHY_EDGE_ROW_279_3_Right_607
*10149 PHY_EDGE_ROW_27_2_Left_179
*10150 PHY_EDGE_ROW_27_2_Right_823
*10151 PHY_EDGE_ROW_27_3_Left_674
*10152 PHY_EDGE_ROW_27_3_Right_366
*10153 PHY_EDGE_ROW_280_2_Left_110
*10154 PHY_EDGE_ROW_280_2_Right_1217
*10155 PHY_EDGE_ROW_280_3_Left_1066
*10156 PHY_EDGE_ROW_280_3_Right_608
*10157 PHY_EDGE_ROW_281_2_Left_111
*10158 PHY_EDGE_ROW_281_2_Right_1218
*10159 PHY_EDGE_ROW_281_3_Left_1067
*10160 PHY_EDGE_ROW_281_3_Right_609
*10161 PHY_EDGE_ROW_282_2_Left_112
*10162 PHY_EDGE_ROW_282_2_Right_1219
*10163 PHY_EDGE_ROW_282_3_Left_1068
*10164 PHY_EDGE_ROW_282_3_Right_610
*10165 PHY_EDGE_ROW_283_2_Left_113
*10166 PHY_EDGE_ROW_283_2_Right_1220
*10167 PHY_EDGE_ROW_283_3_Left_1069
*10168 PHY_EDGE_ROW_283_3_Right_611
*10169 PHY_EDGE_ROW_284_2_Left_114
*10170 PHY_EDGE_ROW_284_2_Right_1221
*10171 PHY_EDGE_ROW_284_3_Left_1070
*10172 PHY_EDGE_ROW_284_3_Right_612
*10173 PHY_EDGE_ROW_285_2_Left_115
*10174 PHY_EDGE_ROW_285_2_Right_1222
*10175 PHY_EDGE_ROW_285_3_Left_1071
*10176 PHY_EDGE_ROW_285_3_Right_613
*10177 PHY_EDGE_ROW_286_2_Left_116
*10178 PHY_EDGE_ROW_286_2_Right_1223
*10179 PHY_EDGE_ROW_286_3_Left_1072
*10180 PHY_EDGE_ROW_286_3_Right_614
*10181 PHY_EDGE_ROW_287_2_Left_117
*10182 PHY_EDGE_ROW_287_2_Right_1224
*10183 PHY_EDGE_ROW_287_3_Left_1073
*10184 PHY_EDGE_ROW_287_3_Right_615
*10185 PHY_EDGE_ROW_288_2_Left_118
*10186 PHY_EDGE_ROW_288_2_Right_1225
*10187 PHY_EDGE_ROW_288_3_Left_1074
*10188 PHY_EDGE_ROW_288_3_Right_616
*10189 PHY_EDGE_ROW_289_2_Left_119
*10190 PHY_EDGE_ROW_289_2_Right_1226
*10191 PHY_EDGE_ROW_289_3_Left_1075
*10192 PHY_EDGE_ROW_289_3_Right_617
*10193 PHY_EDGE_ROW_28_2_Left_180
*10194 PHY_EDGE_ROW_28_2_Right_824
*10195 PHY_EDGE_ROW_28_3_Left_675
*10196 PHY_EDGE_ROW_28_3_Right_367
*10197 PHY_EDGE_ROW_290_2_Left_120
*10198 PHY_EDGE_ROW_290_2_Right_1227
*10199 PHY_EDGE_ROW_290_3_Left_1076
*10200 PHY_EDGE_ROW_290_3_Right_618
*10201 PHY_EDGE_ROW_291_2_Left_121
*10202 PHY_EDGE_ROW_291_2_Right_1228
*10203 PHY_EDGE_ROW_291_3_Left_1077
*10204 PHY_EDGE_ROW_291_3_Right_619
*10205 PHY_EDGE_ROW_292_2_Left_122
*10206 PHY_EDGE_ROW_292_2_Right_1229
*10207 PHY_EDGE_ROW_292_3_Left_1078
*10208 PHY_EDGE_ROW_292_3_Right_620
*10209 PHY_EDGE_ROW_293_2_Left_123
*10210 PHY_EDGE_ROW_293_2_Right_1230
*10211 PHY_EDGE_ROW_293_3_Left_1079
*10212 PHY_EDGE_ROW_293_3_Right_621
*10213 PHY_EDGE_ROW_294_2_Left_124
*10214 PHY_EDGE_ROW_294_2_Right_1231
*10215 PHY_EDGE_ROW_294_3_Left_1080
*10216 PHY_EDGE_ROW_294_3_Right_622
*10217 PHY_EDGE_ROW_295_2_Left_125
*10218 PHY_EDGE_ROW_295_2_Right_1232
*10219 PHY_EDGE_ROW_295_3_Left_1081
*10220 PHY_EDGE_ROW_295_3_Right_623
*10221 PHY_EDGE_ROW_296_2_Left_126
*10222 PHY_EDGE_ROW_296_2_Right_1233
*10223 PHY_EDGE_ROW_296_3_Left_1082
*10224 PHY_EDGE_ROW_296_3_Right_624
*10225 PHY_EDGE_ROW_297_2_Left_127
*10226 PHY_EDGE_ROW_297_2_Right_1234
*10227 PHY_EDGE_ROW_297_3_Left_1083
*10228 PHY_EDGE_ROW_297_3_Right_625
*10229 PHY_EDGE_ROW_298_2_Left_128
*10230 PHY_EDGE_ROW_298_2_Right_1235
*10231 PHY_EDGE_ROW_298_3_Left_1084
*10232 PHY_EDGE_ROW_298_3_Right_626
*10233 PHY_EDGE_ROW_299_2_Left_129
*10234 PHY_EDGE_ROW_299_2_Right_1236
*10235 PHY_EDGE_ROW_299_3_Left_1085
*10236 PHY_EDGE_ROW_299_3_Right_627
*10237 PHY_EDGE_ROW_29_2_Left_181
*10238 PHY_EDGE_ROW_29_2_Right_825
*10239 PHY_EDGE_ROW_29_3_Left_676
*10240 PHY_EDGE_ROW_29_3_Right_368
*10241 PHY_EDGE_ROW_2_Left_314
*10242 PHY_EDGE_ROW_2_Right_323
*10243 PHY_EDGE_ROW_300_2_Left_130
*10244 PHY_EDGE_ROW_300_2_Right_1237
*10245 PHY_EDGE_ROW_300_3_Left_1086
*10246 PHY_EDGE_ROW_300_3_Right_628
*10247 PHY_EDGE_ROW_301_2_Left_131
*10248 PHY_EDGE_ROW_301_2_Right_1238
*10249 PHY_EDGE_ROW_301_3_Left_1087
*10250 PHY_EDGE_ROW_301_3_Right_629
*10251 PHY_EDGE_ROW_302_2_Left_132
*10252 PHY_EDGE_ROW_302_2_Right_1239
*10253 PHY_EDGE_ROW_302_3_Left_1088
*10254 PHY_EDGE_ROW_302_3_Right_630
*10255 PHY_EDGE_ROW_303_2_Left_133
*10256 PHY_EDGE_ROW_303_2_Right_1240
*10257 PHY_EDGE_ROW_303_3_Left_1089
*10258 PHY_EDGE_ROW_303_3_Right_631
*10259 PHY_EDGE_ROW_304_2_Left_134
*10260 PHY_EDGE_ROW_304_2_Right_1241
*10261 PHY_EDGE_ROW_304_3_Left_1090
*10262 PHY_EDGE_ROW_304_3_Right_632
*10263 PHY_EDGE_ROW_305_2_Left_135
*10264 PHY_EDGE_ROW_305_2_Right_1242
*10265 PHY_EDGE_ROW_305_3_Left_1091
*10266 PHY_EDGE_ROW_305_3_Right_633
*10267 PHY_EDGE_ROW_306_2_Left_136
*10268 PHY_EDGE_ROW_306_2_Right_1243
*10269 PHY_EDGE_ROW_306_3_Left_1092
*10270 PHY_EDGE_ROW_306_3_Right_634
*10271 PHY_EDGE_ROW_307_2_Left_137
*10272 PHY_EDGE_ROW_307_2_Right_1244
*10273 PHY_EDGE_ROW_307_3_Left_1093
*10274 PHY_EDGE_ROW_307_3_Right_635
*10275 PHY_EDGE_ROW_308_2_Left_138
*10276 PHY_EDGE_ROW_308_2_Right_1245
*10277 PHY_EDGE_ROW_308_3_Left_1094
*10278 PHY_EDGE_ROW_308_3_Right_636
*10279 PHY_EDGE_ROW_309_2_Left_139
*10280 PHY_EDGE_ROW_309_2_Right_1246
*10281 PHY_EDGE_ROW_309_3_Left_1095
*10282 PHY_EDGE_ROW_309_3_Right_637
*10283 PHY_EDGE_ROW_30_2_Left_182
*10284 PHY_EDGE_ROW_30_2_Right_826
*10285 PHY_EDGE_ROW_30_3_Left_677
*10286 PHY_EDGE_ROW_30_3_Right_369
*10287 PHY_EDGE_ROW_310_2_Left_140
*10288 PHY_EDGE_ROW_310_2_Right_1247
*10289 PHY_EDGE_ROW_310_3_Left_1096
*10290 PHY_EDGE_ROW_310_3_Right_638
*10291 PHY_EDGE_ROW_311_2_Left_141
*10292 PHY_EDGE_ROW_311_2_Right_1248
*10293 PHY_EDGE_ROW_311_3_Left_1097
*10294 PHY_EDGE_ROW_311_3_Right_639
*10295 PHY_EDGE_ROW_312_2_Left_142
*10296 PHY_EDGE_ROW_312_2_Right_1249
*10297 PHY_EDGE_ROW_312_3_Left_1098
*10298 PHY_EDGE_ROW_312_3_Right_640
*10299 PHY_EDGE_ROW_313_2_Left_143
*10300 PHY_EDGE_ROW_313_2_Right_1250
*10301 PHY_EDGE_ROW_313_3_Left_1099
*10302 PHY_EDGE_ROW_313_3_Right_641
*10303 PHY_EDGE_ROW_314_2_Left_144
*10304 PHY_EDGE_ROW_314_2_Right_1251
*10305 PHY_EDGE_ROW_314_3_Left_1100
*10306 PHY_EDGE_ROW_314_3_Right_642
*10307 PHY_EDGE_ROW_315_2_Left_145
*10308 PHY_EDGE_ROW_315_2_Right_1252
*10309 PHY_EDGE_ROW_315_3_Left_1101
*10310 PHY_EDGE_ROW_315_3_Right_643
*10311 PHY_EDGE_ROW_316_2_Left_146
*10312 PHY_EDGE_ROW_316_2_Right_1253
*10313 PHY_EDGE_ROW_316_3_Left_1102
*10314 PHY_EDGE_ROW_316_3_Right_644
*10315 PHY_EDGE_ROW_317_2_Left_147
*10316 PHY_EDGE_ROW_317_2_Right_1254
*10317 PHY_EDGE_ROW_317_3_Left_1103
*10318 PHY_EDGE_ROW_317_3_Right_645
*10319 PHY_EDGE_ROW_318_2_Left_148
*10320 PHY_EDGE_ROW_318_2_Right_1255
*10321 PHY_EDGE_ROW_318_3_Left_1104
*10322 PHY_EDGE_ROW_318_3_Right_646
*10323 PHY_EDGE_ROW_319_2_Left_149
*10324 PHY_EDGE_ROW_319_2_Right_1256
*10325 PHY_EDGE_ROW_319_3_Left_1105
*10326 PHY_EDGE_ROW_319_3_Right_647
*10327 PHY_EDGE_ROW_31_2_Left_183
*10328 PHY_EDGE_ROW_31_2_Right_827
*10329 PHY_EDGE_ROW_31_3_Left_678
*10330 PHY_EDGE_ROW_31_3_Right_370
*10331 PHY_EDGE_ROW_320_2_Left_150
*10332 PHY_EDGE_ROW_320_2_Right_1257
*10333 PHY_EDGE_ROW_320_3_Left_1106
*10334 PHY_EDGE_ROW_320_3_Right_648
*10335 PHY_EDGE_ROW_321_Left_649
*10336 PHY_EDGE_ROW_321_Right_341
*10337 PHY_EDGE_ROW_322_Left_650
*10338 PHY_EDGE_ROW_322_Right_342
*10339 PHY_EDGE_ROW_323_Left_651
*10340 PHY_EDGE_ROW_323_Right_343
*10341 PHY_EDGE_ROW_324_Left_652
*10342 PHY_EDGE_ROW_324_Right_344
*10343 PHY_EDGE_ROW_325_Left_653
*10344 PHY_EDGE_ROW_325_Right_345
*10345 PHY_EDGE_ROW_326_Left_654
*10346 PHY_EDGE_ROW_326_Right_346
*10347 PHY_EDGE_ROW_327_Left_655
*10348 PHY_EDGE_ROW_327_Right_347
*10349 PHY_EDGE_ROW_32_2_Left_184
*10350 PHY_EDGE_ROW_32_2_Right_828
*10351 PHY_EDGE_ROW_32_3_Left_679
*10352 PHY_EDGE_ROW_32_3_Right_371
*10353 PHY_EDGE_ROW_33_2_Left_185
*10354 PHY_EDGE_ROW_33_2_Right_829
*10355 PHY_EDGE_ROW_33_3_Left_680
*10356 PHY_EDGE_ROW_33_3_Right_372
*10357 PHY_EDGE_ROW_34_2_Left_186
*10358 PHY_EDGE_ROW_34_2_Right_830
*10359 PHY_EDGE_ROW_34_3_Left_681
*10360 PHY_EDGE_ROW_34_3_Right_373
*10361 PHY_EDGE_ROW_35_2_Left_187
*10362 PHY_EDGE_ROW_35_2_Right_831
*10363 PHY_EDGE_ROW_35_3_Left_682
*10364 PHY_EDGE_ROW_35_3_Right_374
*10365 PHY_EDGE_ROW_36_2_Left_188
*10366 PHY_EDGE_ROW_36_2_Right_832
*10367 PHY_EDGE_ROW_36_3_Left_683
*10368 PHY_EDGE_ROW_36_3_Right_375
*10369 PHY_EDGE_ROW_37_2_Left_189
*10370 PHY_EDGE_ROW_37_2_Right_833
*10371 PHY_EDGE_ROW_37_3_Left_684
*10372 PHY_EDGE_ROW_37_3_Right_376
*10373 PHY_EDGE_ROW_38_2_Left_190
*10374 PHY_EDGE_ROW_38_2_Right_834
*10375 PHY_EDGE_ROW_38_3_Left_685
*10376 PHY_EDGE_ROW_38_3_Right_377
*10377 PHY_EDGE_ROW_39_2_Left_191
*10378 PHY_EDGE_ROW_39_2_Right_835
*10379 PHY_EDGE_ROW_39_3_Left_686
*10380 PHY_EDGE_ROW_39_3_Right_378
*10381 PHY_EDGE_ROW_3_Left_315
*10382 PHY_EDGE_ROW_3_Right_324
*10383 PHY_EDGE_ROW_40_2_Left_192
*10384 PHY_EDGE_ROW_40_2_Right_836
*10385 PHY_EDGE_ROW_40_3_Left_687
*10386 PHY_EDGE_ROW_40_3_Right_379
*10387 PHY_EDGE_ROW_41_2_Left_193
*10388 PHY_EDGE_ROW_41_2_Right_837
*10389 PHY_EDGE_ROW_41_3_Left_688
*10390 PHY_EDGE_ROW_41_3_Right_380
*10391 PHY_EDGE_ROW_42_2_Left_194
*10392 PHY_EDGE_ROW_42_2_Right_838
*10393 PHY_EDGE_ROW_42_3_Left_689
*10394 PHY_EDGE_ROW_42_3_Right_381
*10395 PHY_EDGE_ROW_43_2_Left_195
*10396 PHY_EDGE_ROW_43_2_Right_839
*10397 PHY_EDGE_ROW_43_3_Left_690
*10398 PHY_EDGE_ROW_43_3_Right_382
*10399 PHY_EDGE_ROW_44_2_Left_196
*10400 PHY_EDGE_ROW_44_2_Right_840
*10401 PHY_EDGE_ROW_44_3_Left_691
*10402 PHY_EDGE_ROW_44_3_Right_383
*10403 PHY_EDGE_ROW_45_2_Left_197
*10404 PHY_EDGE_ROW_45_2_Right_841
*10405 PHY_EDGE_ROW_45_3_Left_692
*10406 PHY_EDGE_ROW_45_3_Right_384
*10407 PHY_EDGE_ROW_46_2_Left_198
*10408 PHY_EDGE_ROW_46_2_Right_842
*10409 PHY_EDGE_ROW_46_3_Left_693
*10410 PHY_EDGE_ROW_46_3_Right_385
*10411 PHY_EDGE_ROW_47_2_Left_199
*10412 PHY_EDGE_ROW_47_2_Right_843
*10413 PHY_EDGE_ROW_47_3_Left_694
*10414 PHY_EDGE_ROW_47_3_Right_386
*10415 PHY_EDGE_ROW_48_2_Left_200
*10416 PHY_EDGE_ROW_48_2_Right_844
*10417 PHY_EDGE_ROW_48_3_Left_695
*10418 PHY_EDGE_ROW_48_3_Right_387
*10419 PHY_EDGE_ROW_49_2_Left_201
*10420 PHY_EDGE_ROW_49_2_Right_845
*10421 PHY_EDGE_ROW_49_3_Left_696
*10422 PHY_EDGE_ROW_49_3_Right_388
*10423 PHY_EDGE_ROW_4_Left_316
*10424 PHY_EDGE_ROW_4_Right_325
*10425 PHY_EDGE_ROW_50_2_Left_202
*10426 PHY_EDGE_ROW_50_2_Right_846
*10427 PHY_EDGE_ROW_50_3_Left_697
*10428 PHY_EDGE_ROW_50_3_Right_389
*10429 PHY_EDGE_ROW_51_2_Left_203
*10430 PHY_EDGE_ROW_51_2_Right_847
*10431 PHY_EDGE_ROW_51_3_Left_698
*10432 PHY_EDGE_ROW_51_3_Right_390
*10433 PHY_EDGE_ROW_52_2_Left_204
*10434 PHY_EDGE_ROW_52_2_Right_848
*10435 PHY_EDGE_ROW_52_3_Left_699
*10436 PHY_EDGE_ROW_52_3_Right_391
*10437 PHY_EDGE_ROW_53_2_Left_205
*10438 PHY_EDGE_ROW_53_2_Right_849
*10439 PHY_EDGE_ROW_53_3_Left_700
*10440 PHY_EDGE_ROW_53_3_Right_392
*10441 PHY_EDGE_ROW_54_2_Left_206
*10442 PHY_EDGE_ROW_54_2_Right_850
*10443 PHY_EDGE_ROW_54_3_Left_701
*10444 PHY_EDGE_ROW_54_3_Right_393
*10445 PHY_EDGE_ROW_55_2_Left_207
*10446 PHY_EDGE_ROW_55_2_Right_851
*10447 PHY_EDGE_ROW_55_3_Left_702
*10448 PHY_EDGE_ROW_55_3_Right_394
*10449 PHY_EDGE_ROW_56_2_Left_208
*10450 PHY_EDGE_ROW_56_2_Right_852
*10451 PHY_EDGE_ROW_56_3_Left_703
*10452 PHY_EDGE_ROW_56_3_Right_395
*10453 PHY_EDGE_ROW_57_2_Left_209
*10454 PHY_EDGE_ROW_57_2_Right_853
*10455 PHY_EDGE_ROW_57_3_Left_704
*10456 PHY_EDGE_ROW_57_3_Right_396
*10457 PHY_EDGE_ROW_58_2_Left_210
*10458 PHY_EDGE_ROW_58_2_Right_854
*10459 PHY_EDGE_ROW_58_3_Left_705
*10460 PHY_EDGE_ROW_58_3_Right_397
*10461 PHY_EDGE_ROW_59_2_Left_211
*10462 PHY_EDGE_ROW_59_2_Right_855
*10463 PHY_EDGE_ROW_59_3_Left_706
*10464 PHY_EDGE_ROW_59_3_Right_398
*10465 PHY_EDGE_ROW_5_Left_317
*10466 PHY_EDGE_ROW_5_Right_326
*10467 PHY_EDGE_ROW_60_2_Left_212
*10468 PHY_EDGE_ROW_60_2_Right_856
*10469 PHY_EDGE_ROW_60_3_Left_707
*10470 PHY_EDGE_ROW_60_3_Right_399
*10471 PHY_EDGE_ROW_61_2_Left_213
*10472 PHY_EDGE_ROW_61_2_Right_857
*10473 PHY_EDGE_ROW_61_3_Left_708
*10474 PHY_EDGE_ROW_61_3_Right_400
*10475 PHY_EDGE_ROW_62_2_Left_214
*10476 PHY_EDGE_ROW_62_2_Right_858
*10477 PHY_EDGE_ROW_62_3_Left_709
*10478 PHY_EDGE_ROW_62_3_Right_401
*10479 PHY_EDGE_ROW_63_2_Left_215
*10480 PHY_EDGE_ROW_63_2_Right_859
*10481 PHY_EDGE_ROW_63_3_Left_710
*10482 PHY_EDGE_ROW_63_3_Right_402
*10483 PHY_EDGE_ROW_64_2_Left_216
*10484 PHY_EDGE_ROW_64_2_Right_860
*10485 PHY_EDGE_ROW_64_3_Left_711
*10486 PHY_EDGE_ROW_64_3_Right_403
*10487 PHY_EDGE_ROW_65_2_Left_217
*10488 PHY_EDGE_ROW_65_2_Right_861
*10489 PHY_EDGE_ROW_65_3_Left_712
*10490 PHY_EDGE_ROW_65_3_Right_404
*10491 PHY_EDGE_ROW_66_2_Left_218
*10492 PHY_EDGE_ROW_66_2_Right_862
*10493 PHY_EDGE_ROW_66_3_Left_713
*10494 PHY_EDGE_ROW_66_3_Right_405
*10495 PHY_EDGE_ROW_67_2_Left_219
*10496 PHY_EDGE_ROW_67_2_Right_863
*10497 PHY_EDGE_ROW_67_3_Left_714
*10498 PHY_EDGE_ROW_67_3_Right_406
*10499 PHY_EDGE_ROW_68_2_Left_220
*10500 PHY_EDGE_ROW_68_2_Right_864
*10501 PHY_EDGE_ROW_68_3_Left_715
*10502 PHY_EDGE_ROW_68_3_Right_407
*10503 PHY_EDGE_ROW_69_2_Left_221
*10504 PHY_EDGE_ROW_69_2_Right_865
*10505 PHY_EDGE_ROW_69_3_Left_716
*10506 PHY_EDGE_ROW_69_3_Right_408
*10507 PHY_EDGE_ROW_6_Left_318
*10508 PHY_EDGE_ROW_6_Right_327
*10509 PHY_EDGE_ROW_70_2_Left_222
*10510 PHY_EDGE_ROW_70_2_Right_866
*10511 PHY_EDGE_ROW_70_3_Left_717
*10512 PHY_EDGE_ROW_70_3_Right_409
*10513 PHY_EDGE_ROW_71_2_Left_223
*10514 PHY_EDGE_ROW_71_2_Right_867
*10515 PHY_EDGE_ROW_71_3_Left_718
*10516 PHY_EDGE_ROW_71_3_Right_410
*10517 PHY_EDGE_ROW_72_2_Left_224
*10518 PHY_EDGE_ROW_72_2_Right_868
*10519 PHY_EDGE_ROW_72_3_Left_719
*10520 PHY_EDGE_ROW_72_3_Right_411
*10521 PHY_EDGE_ROW_73_2_Left_225
*10522 PHY_EDGE_ROW_73_2_Right_869
*10523 PHY_EDGE_ROW_73_3_Left_720
*10524 PHY_EDGE_ROW_73_3_Right_412
*10525 PHY_EDGE_ROW_74_2_Left_226
*10526 PHY_EDGE_ROW_74_2_Right_870
*10527 PHY_EDGE_ROW_74_3_Left_721
*10528 PHY_EDGE_ROW_74_3_Right_413
*10529 PHY_EDGE_ROW_75_2_Left_227
*10530 PHY_EDGE_ROW_75_2_Right_871
*10531 PHY_EDGE_ROW_75_3_Left_722
*10532 PHY_EDGE_ROW_75_3_Right_414
*10533 PHY_EDGE_ROW_76_2_Left_228
*10534 PHY_EDGE_ROW_76_2_Right_872
*10535 PHY_EDGE_ROW_76_3_Left_723
*10536 PHY_EDGE_ROW_76_3_Right_415
*10537 PHY_EDGE_ROW_77_2_Left_229
*10538 PHY_EDGE_ROW_77_2_Right_873
*10539 PHY_EDGE_ROW_77_3_Left_724
*10540 PHY_EDGE_ROW_77_3_Right_416
*10541 PHY_EDGE_ROW_78_2_Left_230
*10542 PHY_EDGE_ROW_78_2_Right_874
*10543 PHY_EDGE_ROW_78_3_Left_725
*10544 PHY_EDGE_ROW_78_3_Right_417
*10545 PHY_EDGE_ROW_79_2_Left_231
*10546 PHY_EDGE_ROW_79_2_Right_875
*10547 PHY_EDGE_ROW_79_3_Left_726
*10548 PHY_EDGE_ROW_79_3_Right_418
*10549 PHY_EDGE_ROW_7_Left_319
*10550 PHY_EDGE_ROW_7_Right_328
*10551 PHY_EDGE_ROW_80_2_Left_232
*10552 PHY_EDGE_ROW_80_2_Right_876
*10553 PHY_EDGE_ROW_80_3_Left_727
*10554 PHY_EDGE_ROW_80_3_Right_419
*10555 PHY_EDGE_ROW_81_2_Left_233
*10556 PHY_EDGE_ROW_81_2_Right_877
*10557 PHY_EDGE_ROW_81_3_Left_728
*10558 PHY_EDGE_ROW_81_3_Right_420
*10559 PHY_EDGE_ROW_82_2_Left_234
*10560 PHY_EDGE_ROW_82_2_Right_878
*10561 PHY_EDGE_ROW_82_3_Left_729
*10562 PHY_EDGE_ROW_82_3_Right_421
*10563 PHY_EDGE_ROW_83_2_Left_235
*10564 PHY_EDGE_ROW_83_2_Right_879
*10565 PHY_EDGE_ROW_83_3_Left_730
*10566 PHY_EDGE_ROW_83_3_Right_422
*10567 PHY_EDGE_ROW_84_2_Left_236
*10568 PHY_EDGE_ROW_84_2_Right_880
*10569 PHY_EDGE_ROW_84_3_Left_731
*10570 PHY_EDGE_ROW_84_3_Right_423
*10571 PHY_EDGE_ROW_85_2_Left_237
*10572 PHY_EDGE_ROW_85_2_Right_881
*10573 PHY_EDGE_ROW_85_3_Left_732
*10574 PHY_EDGE_ROW_85_3_Right_424
*10575 PHY_EDGE_ROW_86_2_Left_238
*10576 PHY_EDGE_ROW_86_2_Right_882
*10577 PHY_EDGE_ROW_86_3_Left_733
*10578 PHY_EDGE_ROW_86_3_Right_425
*10579 PHY_EDGE_ROW_87_2_Left_239
*10580 PHY_EDGE_ROW_87_2_Right_883
*10581 PHY_EDGE_ROW_87_3_Left_734
*10582 PHY_EDGE_ROW_87_3_Right_426
*10583 PHY_EDGE_ROW_88_2_Left_240
*10584 PHY_EDGE_ROW_88_2_Right_884
*10585 PHY_EDGE_ROW_88_3_Left_735
*10586 PHY_EDGE_ROW_88_3_Right_427
*10587 PHY_EDGE_ROW_89_2_Left_241
*10588 PHY_EDGE_ROW_89_2_Right_885
*10589 PHY_EDGE_ROW_89_3_Left_736
*10590 PHY_EDGE_ROW_89_3_Right_428
*10591 PHY_EDGE_ROW_8_Left_320
*10592 PHY_EDGE_ROW_8_Right_329
*10593 PHY_EDGE_ROW_90_2_Left_242
*10594 PHY_EDGE_ROW_90_2_Right_886
*10595 PHY_EDGE_ROW_90_3_Left_737
*10596 PHY_EDGE_ROW_90_3_Right_429
*10597 PHY_EDGE_ROW_91_2_Left_243
*10598 PHY_EDGE_ROW_91_2_Right_887
*10599 PHY_EDGE_ROW_91_3_Left_738
*10600 PHY_EDGE_ROW_91_3_Right_430
*10601 PHY_EDGE_ROW_92_2_Left_244
*10602 PHY_EDGE_ROW_92_2_Right_888
*10603 PHY_EDGE_ROW_92_3_Left_739
*10604 PHY_EDGE_ROW_92_3_Right_431
*10605 PHY_EDGE_ROW_93_2_Left_245
*10606 PHY_EDGE_ROW_93_2_Right_889
*10607 PHY_EDGE_ROW_93_3_Left_740
*10608 PHY_EDGE_ROW_93_3_Right_432
*10609 PHY_EDGE_ROW_94_2_Left_246
*10610 PHY_EDGE_ROW_94_2_Right_890
*10611 PHY_EDGE_ROW_94_3_Left_741
*10612 PHY_EDGE_ROW_94_3_Right_433
*10613 PHY_EDGE_ROW_95_2_Left_247
*10614 PHY_EDGE_ROW_95_2_Right_891
*10615 PHY_EDGE_ROW_95_3_Left_742
*10616 PHY_EDGE_ROW_95_3_Right_434
*10617 PHY_EDGE_ROW_96_2_Left_248
*10618 PHY_EDGE_ROW_96_2_Right_892
*10619 PHY_EDGE_ROW_96_3_Left_743
*10620 PHY_EDGE_ROW_96_3_Right_435
*10621 PHY_EDGE_ROW_97_2_Left_249
*10622 PHY_EDGE_ROW_97_2_Right_893
*10623 PHY_EDGE_ROW_97_3_Left_744
*10624 PHY_EDGE_ROW_97_3_Right_436
*10625 PHY_EDGE_ROW_98_2_Left_250
*10626 PHY_EDGE_ROW_98_2_Right_894
*10627 PHY_EDGE_ROW_98_3_Left_745
*10628 PHY_EDGE_ROW_98_3_Right_437
*10629 PHY_EDGE_ROW_99_2_Left_251
*10630 PHY_EDGE_ROW_99_2_Right_895
*10631 PHY_EDGE_ROW_99_3_Left_746
*10632 PHY_EDGE_ROW_99_3_Right_438
*10633 PHY_EDGE_ROW_9_2_Left_311
*10634 PHY_EDGE_ROW_9_2_Right_955
*10635 PHY_EDGE_ROW_9_3_Left_656
*10636 PHY_EDGE_ROW_9_3_Right_348
*10637 TAP_TAPCELL_ROW_0_1258
*10638 TAP_TAPCELL_ROW_0_1259
*10639 TAP_TAPCELL_ROW_0_1260
*10640 TAP_TAPCELL_ROW_0_1261
*10641 TAP_TAPCELL_ROW_0_1262
*10642 TAP_TAPCELL_ROW_0_1263
*10643 TAP_TAPCELL_ROW_0_1264
*10644 TAP_TAPCELL_ROW_0_1265
*10645 TAP_TAPCELL_ROW_0_1266
*10646 TAP_TAPCELL_ROW_0_1267
*10647 TAP_TAPCELL_ROW_0_1268
*10648 TAP_TAPCELL_ROW_0_1269
*10649 TAP_TAPCELL_ROW_0_1270
*10650 TAP_TAPCELL_ROW_0_1271
*10651 TAP_TAPCELL_ROW_0_1272
*10652 TAP_TAPCELL_ROW_0_1273
*10653 TAP_TAPCELL_ROW_0_1274
*10654 TAP_TAPCELL_ROW_0_1275
*10655 TAP_TAPCELL_ROW_0_1276
*10656 TAP_TAPCELL_ROW_0_1277
*10657 TAP_TAPCELL_ROW_0_1278
*10658 TAP_TAPCELL_ROW_0_1279
*10659 TAP_TAPCELL_ROW_0_1280
*10660 TAP_TAPCELL_ROW_0_1281
*10661 TAP_TAPCELL_ROW_0_1282
*10662 TAP_TAPCELL_ROW_0_1283
*10663 TAP_TAPCELL_ROW_0_1284
*10664 TAP_TAPCELL_ROW_0_1285
*10665 TAP_TAPCELL_ROW_0_1286
*10666 TAP_TAPCELL_ROW_0_1287
*10667 TAP_TAPCELL_ROW_0_1288
*10668 TAP_TAPCELL_ROW_0_1289
*10669 TAP_TAPCELL_ROW_0_1290
*10670 TAP_TAPCELL_ROW_0_1291
*10671 TAP_TAPCELL_ROW_0_1292
*10672 TAP_TAPCELL_ROW_0_1293
*10673 TAP_TAPCELL_ROW_0_1294
*10674 TAP_TAPCELL_ROW_0_1295
*10675 TAP_TAPCELL_ROW_0_1296
*10676 TAP_TAPCELL_ROW_0_1297
*10677 TAP_TAPCELL_ROW_0_1298
*10678 TAP_TAPCELL_ROW_0_1299
*10679 TAP_TAPCELL_ROW_0_1300
*10680 TAP_TAPCELL_ROW_0_1301
*10681 TAP_TAPCELL_ROW_0_1302
*10682 TAP_TAPCELL_ROW_0_1303
*10683 TAP_TAPCELL_ROW_0_1304
*10684 TAP_TAPCELL_ROW_0_1305
*10685 TAP_TAPCELL_ROW_0_1306
*10686 TAP_TAPCELL_ROW_0_1307
*10687 TAP_TAPCELL_ROW_0_1308
*10688 TAP_TAPCELL_ROW_0_1309
*10689 TAP_TAPCELL_ROW_0_1310
*10690 TAP_TAPCELL_ROW_100_2_1594
*10691 TAP_TAPCELL_ROW_100_3_2329
*10692 TAP_TAPCELL_ROW_102_2_1595
*10693 TAP_TAPCELL_ROW_102_3_2330
*10694 TAP_TAPCELL_ROW_104_2_1596
*10695 TAP_TAPCELL_ROW_104_3_2331
*10696 TAP_TAPCELL_ROW_106_2_1597
*10697 TAP_TAPCELL_ROW_106_3_2332
*10698 TAP_TAPCELL_ROW_108_2_1598
*10699 TAP_TAPCELL_ROW_108_3_2333
*10700 TAP_TAPCELL_ROW_10_2_1549
*10701 TAP_TAPCELL_ROW_10_3_2284
*10702 TAP_TAPCELL_ROW_110_2_1599
*10703 TAP_TAPCELL_ROW_110_3_2334
*10704 TAP_TAPCELL_ROW_112_2_1600
*10705 TAP_TAPCELL_ROW_112_3_2335
*10706 TAP_TAPCELL_ROW_114_2_1601
*10707 TAP_TAPCELL_ROW_114_3_2336
*10708 TAP_TAPCELL_ROW_116_2_1602
*10709 TAP_TAPCELL_ROW_116_3_2337
*10710 TAP_TAPCELL_ROW_118_2_1603
*10711 TAP_TAPCELL_ROW_118_3_2338
*10712 TAP_TAPCELL_ROW_120_2_1604
*10713 TAP_TAPCELL_ROW_120_3_2339
*10714 TAP_TAPCELL_ROW_122_2_1605
*10715 TAP_TAPCELL_ROW_122_3_2340
*10716 TAP_TAPCELL_ROW_124_2_1606
*10717 TAP_TAPCELL_ROW_124_3_2341
*10718 TAP_TAPCELL_ROW_126_2_1607
*10719 TAP_TAPCELL_ROW_126_3_2342
*10720 TAP_TAPCELL_ROW_128_2_1608
*10721 TAP_TAPCELL_ROW_128_3_2343
*10722 TAP_TAPCELL_ROW_12_2_1550
*10723 TAP_TAPCELL_ROW_12_3_2285
*10724 TAP_TAPCELL_ROW_130_2_1609
*10725 TAP_TAPCELL_ROW_130_3_2344
*10726 TAP_TAPCELL_ROW_132_2_1610
*10727 TAP_TAPCELL_ROW_132_3_2345
*10728 TAP_TAPCELL_ROW_134_2_1611
*10729 TAP_TAPCELL_ROW_134_3_2346
*10730 TAP_TAPCELL_ROW_136_2_1612
*10731 TAP_TAPCELL_ROW_136_3_2347
*10732 TAP_TAPCELL_ROW_138_2_1613
*10733 TAP_TAPCELL_ROW_138_3_2348
*10734 TAP_TAPCELL_ROW_140_2_1614
*10735 TAP_TAPCELL_ROW_140_3_2349
*10736 TAP_TAPCELL_ROW_142_2_1615
*10737 TAP_TAPCELL_ROW_142_3_2350
*10738 TAP_TAPCELL_ROW_144_2_1616
*10739 TAP_TAPCELL_ROW_144_3_2351
*10740 TAP_TAPCELL_ROW_146_2_1617
*10741 TAP_TAPCELL_ROW_146_3_2352
*10742 TAP_TAPCELL_ROW_148_2_1618
*10743 TAP_TAPCELL_ROW_148_3_2353
*10744 TAP_TAPCELL_ROW_14_2_1551
*10745 TAP_TAPCELL_ROW_14_3_2286
*10746 TAP_TAPCELL_ROW_150_2_1619
*10747 TAP_TAPCELL_ROW_150_3_2354
*10748 TAP_TAPCELL_ROW_152_2_1620
*10749 TAP_TAPCELL_ROW_152_3_2355
*10750 TAP_TAPCELL_ROW_154_2_1621
*10751 TAP_TAPCELL_ROW_154_3_2356
*10752 TAP_TAPCELL_ROW_156_2_1622
*10753 TAP_TAPCELL_ROW_156_3_2357
*10754 TAP_TAPCELL_ROW_158_2_1623
*10755 TAP_TAPCELL_ROW_158_3_2358
*10756 TAP_TAPCELL_ROW_159_1625
*10757 TAP_TAPCELL_ROW_159_1626
*10758 TAP_TAPCELL_ROW_159_1627
*10759 TAP_TAPCELL_ROW_159_1628
*10760 TAP_TAPCELL_ROW_159_1629
*10761 TAP_TAPCELL_ROW_159_1630
*10762 TAP_TAPCELL_ROW_159_1631
*10763 TAP_TAPCELL_ROW_159_1632
*10764 TAP_TAPCELL_ROW_159_1633
*10765 TAP_TAPCELL_ROW_159_1634
*10766 TAP_TAPCELL_ROW_159_1635
*10767 TAP_TAPCELL_ROW_159_1636
*10768 TAP_TAPCELL_ROW_159_1637
*10769 TAP_TAPCELL_ROW_159_1638
*10770 TAP_TAPCELL_ROW_159_1639
*10771 TAP_TAPCELL_ROW_159_1640
*10772 TAP_TAPCELL_ROW_159_1641
*10773 TAP_TAPCELL_ROW_159_1642
*10774 TAP_TAPCELL_ROW_159_1643
*10775 TAP_TAPCELL_ROW_159_1644
*10776 TAP_TAPCELL_ROW_159_1645
*10777 TAP_TAPCELL_ROW_159_1646
*10778 TAP_TAPCELL_ROW_159_1647
*10779 TAP_TAPCELL_ROW_159_1648
*10780 TAP_TAPCELL_ROW_159_1649
*10781 TAP_TAPCELL_ROW_159_1650
*10782 TAP_TAPCELL_ROW_159_1651
*10783 TAP_TAPCELL_ROW_159_1652
*10784 TAP_TAPCELL_ROW_159_1653
*10785 TAP_TAPCELL_ROW_159_1654
*10786 TAP_TAPCELL_ROW_159_1655
*10787 TAP_TAPCELL_ROW_159_1656
*10788 TAP_TAPCELL_ROW_159_1657
*10789 TAP_TAPCELL_ROW_159_1658
*10790 TAP_TAPCELL_ROW_159_1659
*10791 TAP_TAPCELL_ROW_159_1660
*10792 TAP_TAPCELL_ROW_159_1661
*10793 TAP_TAPCELL_ROW_159_1662
*10794 TAP_TAPCELL_ROW_159_1663
*10795 TAP_TAPCELL_ROW_159_1664
*10796 TAP_TAPCELL_ROW_159_1665
*10797 TAP_TAPCELL_ROW_159_1666
*10798 TAP_TAPCELL_ROW_159_1667
*10799 TAP_TAPCELL_ROW_159_1668
*10800 TAP_TAPCELL_ROW_159_1669
*10801 TAP_TAPCELL_ROW_159_1670
*10802 TAP_TAPCELL_ROW_159_1671
*10803 TAP_TAPCELL_ROW_159_1672
*10804 TAP_TAPCELL_ROW_159_1673
*10805 TAP_TAPCELL_ROW_159_1674
*10806 TAP_TAPCELL_ROW_159_1675
*10807 TAP_TAPCELL_ROW_159_1676
*10808 TAP_TAPCELL_ROW_159_1677
*10809 TAP_TAPCELL_ROW_160_1678
*10810 TAP_TAPCELL_ROW_160_1679
*10811 TAP_TAPCELL_ROW_160_1680
*10812 TAP_TAPCELL_ROW_160_1681
*10813 TAP_TAPCELL_ROW_160_1682
*10814 TAP_TAPCELL_ROW_160_1683
*10815 TAP_TAPCELL_ROW_160_1684
*10816 TAP_TAPCELL_ROW_160_1685
*10817 TAP_TAPCELL_ROW_160_1686
*10818 TAP_TAPCELL_ROW_160_1687
*10819 TAP_TAPCELL_ROW_160_1688
*10820 TAP_TAPCELL_ROW_160_1689
*10821 TAP_TAPCELL_ROW_160_1690
*10822 TAP_TAPCELL_ROW_160_1691
*10823 TAP_TAPCELL_ROW_160_1692
*10824 TAP_TAPCELL_ROW_160_1693
*10825 TAP_TAPCELL_ROW_160_1694
*10826 TAP_TAPCELL_ROW_160_1695
*10827 TAP_TAPCELL_ROW_160_1696
*10828 TAP_TAPCELL_ROW_160_1697
*10829 TAP_TAPCELL_ROW_160_1698
*10830 TAP_TAPCELL_ROW_160_1699
*10831 TAP_TAPCELL_ROW_160_1700
*10832 TAP_TAPCELL_ROW_160_1701
*10833 TAP_TAPCELL_ROW_160_1702
*10834 TAP_TAPCELL_ROW_160_1703
*10835 TAP_TAPCELL_ROW_160_1704
*10836 TAP_TAPCELL_ROW_161_1705
*10837 TAP_TAPCELL_ROW_161_1706
*10838 TAP_TAPCELL_ROW_161_1707
*10839 TAP_TAPCELL_ROW_161_1708
*10840 TAP_TAPCELL_ROW_161_1709
*10841 TAP_TAPCELL_ROW_161_1710
*10842 TAP_TAPCELL_ROW_161_1711
*10843 TAP_TAPCELL_ROW_161_1712
*10844 TAP_TAPCELL_ROW_161_1713
*10845 TAP_TAPCELL_ROW_161_1714
*10846 TAP_TAPCELL_ROW_161_1715
*10847 TAP_TAPCELL_ROW_161_1716
*10848 TAP_TAPCELL_ROW_161_1717
*10849 TAP_TAPCELL_ROW_161_1718
*10850 TAP_TAPCELL_ROW_161_1719
*10851 TAP_TAPCELL_ROW_161_1720
*10852 TAP_TAPCELL_ROW_161_1721
*10853 TAP_TAPCELL_ROW_161_1722
*10854 TAP_TAPCELL_ROW_161_1723
*10855 TAP_TAPCELL_ROW_161_1724
*10856 TAP_TAPCELL_ROW_161_1725
*10857 TAP_TAPCELL_ROW_161_1726
*10858 TAP_TAPCELL_ROW_161_1727
*10859 TAP_TAPCELL_ROW_161_1728
*10860 TAP_TAPCELL_ROW_161_1729
*10861 TAP_TAPCELL_ROW_161_1730
*10862 TAP_TAPCELL_ROW_162_1731
*10863 TAP_TAPCELL_ROW_162_1732
*10864 TAP_TAPCELL_ROW_162_1733
*10865 TAP_TAPCELL_ROW_162_1734
*10866 TAP_TAPCELL_ROW_162_1735
*10867 TAP_TAPCELL_ROW_162_1736
*10868 TAP_TAPCELL_ROW_162_1737
*10869 TAP_TAPCELL_ROW_162_1738
*10870 TAP_TAPCELL_ROW_162_1739
*10871 TAP_TAPCELL_ROW_162_1740
*10872 TAP_TAPCELL_ROW_162_1741
*10873 TAP_TAPCELL_ROW_162_1742
*10874 TAP_TAPCELL_ROW_162_1743
*10875 TAP_TAPCELL_ROW_162_1744
*10876 TAP_TAPCELL_ROW_162_1745
*10877 TAP_TAPCELL_ROW_162_1746
*10878 TAP_TAPCELL_ROW_162_1747
*10879 TAP_TAPCELL_ROW_162_1748
*10880 TAP_TAPCELL_ROW_162_1749
*10881 TAP_TAPCELL_ROW_162_1750
*10882 TAP_TAPCELL_ROW_162_1751
*10883 TAP_TAPCELL_ROW_162_1752
*10884 TAP_TAPCELL_ROW_162_1753
*10885 TAP_TAPCELL_ROW_162_1754
*10886 TAP_TAPCELL_ROW_162_1755
*10887 TAP_TAPCELL_ROW_162_1756
*10888 TAP_TAPCELL_ROW_162_1757
*10889 TAP_TAPCELL_ROW_163_1758
*10890 TAP_TAPCELL_ROW_163_1759
*10891 TAP_TAPCELL_ROW_163_1760
*10892 TAP_TAPCELL_ROW_163_1761
*10893 TAP_TAPCELL_ROW_163_1762
*10894 TAP_TAPCELL_ROW_163_1763
*10895 TAP_TAPCELL_ROW_163_1764
*10896 TAP_TAPCELL_ROW_163_1765
*10897 TAP_TAPCELL_ROW_163_1766
*10898 TAP_TAPCELL_ROW_163_1767
*10899 TAP_TAPCELL_ROW_163_1768
*10900 TAP_TAPCELL_ROW_163_1769
*10901 TAP_TAPCELL_ROW_163_1770
*10902 TAP_TAPCELL_ROW_163_1771
*10903 TAP_TAPCELL_ROW_163_1772
*10904 TAP_TAPCELL_ROW_163_1773
*10905 TAP_TAPCELL_ROW_163_1774
*10906 TAP_TAPCELL_ROW_163_1775
*10907 TAP_TAPCELL_ROW_163_1776
*10908 TAP_TAPCELL_ROW_163_1777
*10909 TAP_TAPCELL_ROW_163_1778
*10910 TAP_TAPCELL_ROW_163_1779
*10911 TAP_TAPCELL_ROW_163_1780
*10912 TAP_TAPCELL_ROW_163_1781
*10913 TAP_TAPCELL_ROW_163_1782
*10914 TAP_TAPCELL_ROW_163_1783
*10915 TAP_TAPCELL_ROW_164_1784
*10916 TAP_TAPCELL_ROW_164_1785
*10917 TAP_TAPCELL_ROW_164_1786
*10918 TAP_TAPCELL_ROW_164_1787
*10919 TAP_TAPCELL_ROW_164_1788
*10920 TAP_TAPCELL_ROW_164_1789
*10921 TAP_TAPCELL_ROW_164_1790
*10922 TAP_TAPCELL_ROW_164_1791
*10923 TAP_TAPCELL_ROW_164_1792
*10924 TAP_TAPCELL_ROW_164_1793
*10925 TAP_TAPCELL_ROW_164_1794
*10926 TAP_TAPCELL_ROW_164_1795
*10927 TAP_TAPCELL_ROW_164_1796
*10928 TAP_TAPCELL_ROW_164_1797
*10929 TAP_TAPCELL_ROW_164_1798
*10930 TAP_TAPCELL_ROW_164_1799
*10931 TAP_TAPCELL_ROW_164_1800
*10932 TAP_TAPCELL_ROW_164_1801
*10933 TAP_TAPCELL_ROW_164_1802
*10934 TAP_TAPCELL_ROW_164_1803
*10935 TAP_TAPCELL_ROW_164_1804
*10936 TAP_TAPCELL_ROW_164_1805
*10937 TAP_TAPCELL_ROW_164_1806
*10938 TAP_TAPCELL_ROW_164_1807
*10939 TAP_TAPCELL_ROW_164_1808
*10940 TAP_TAPCELL_ROW_164_1809
*10941 TAP_TAPCELL_ROW_164_1810
*10942 TAP_TAPCELL_ROW_165_1811
*10943 TAP_TAPCELL_ROW_165_1812
*10944 TAP_TAPCELL_ROW_165_1813
*10945 TAP_TAPCELL_ROW_165_1814
*10946 TAP_TAPCELL_ROW_165_1815
*10947 TAP_TAPCELL_ROW_165_1816
*10948 TAP_TAPCELL_ROW_165_1817
*10949 TAP_TAPCELL_ROW_165_1818
*10950 TAP_TAPCELL_ROW_165_1819
*10951 TAP_TAPCELL_ROW_165_1820
*10952 TAP_TAPCELL_ROW_165_1821
*10953 TAP_TAPCELL_ROW_165_1822
*10954 TAP_TAPCELL_ROW_165_1823
*10955 TAP_TAPCELL_ROW_165_1824
*10956 TAP_TAPCELL_ROW_165_1825
*10957 TAP_TAPCELL_ROW_165_1826
*10958 TAP_TAPCELL_ROW_165_1827
*10959 TAP_TAPCELL_ROW_165_1828
*10960 TAP_TAPCELL_ROW_165_1829
*10961 TAP_TAPCELL_ROW_165_1830
*10962 TAP_TAPCELL_ROW_165_1831
*10963 TAP_TAPCELL_ROW_165_1832
*10964 TAP_TAPCELL_ROW_165_1833
*10965 TAP_TAPCELL_ROW_165_1834
*10966 TAP_TAPCELL_ROW_165_1835
*10967 TAP_TAPCELL_ROW_165_1836
*10968 TAP_TAPCELL_ROW_166_1837
*10969 TAP_TAPCELL_ROW_166_1838
*10970 TAP_TAPCELL_ROW_166_1839
*10971 TAP_TAPCELL_ROW_166_1840
*10972 TAP_TAPCELL_ROW_166_1841
*10973 TAP_TAPCELL_ROW_166_1842
*10974 TAP_TAPCELL_ROW_166_1843
*10975 TAP_TAPCELL_ROW_166_1844
*10976 TAP_TAPCELL_ROW_166_1845
*10977 TAP_TAPCELL_ROW_166_1846
*10978 TAP_TAPCELL_ROW_166_1847
*10979 TAP_TAPCELL_ROW_166_1848
*10980 TAP_TAPCELL_ROW_166_1849
*10981 TAP_TAPCELL_ROW_166_1850
*10982 TAP_TAPCELL_ROW_166_1851
*10983 TAP_TAPCELL_ROW_166_1852
*10984 TAP_TAPCELL_ROW_166_1853
*10985 TAP_TAPCELL_ROW_166_1854
*10986 TAP_TAPCELL_ROW_166_1855
*10987 TAP_TAPCELL_ROW_166_1856
*10988 TAP_TAPCELL_ROW_166_1857
*10989 TAP_TAPCELL_ROW_166_1858
*10990 TAP_TAPCELL_ROW_166_1859
*10991 TAP_TAPCELL_ROW_166_1860
*10992 TAP_TAPCELL_ROW_166_1861
*10993 TAP_TAPCELL_ROW_166_1862
*10994 TAP_TAPCELL_ROW_166_1863
*10995 TAP_TAPCELL_ROW_167_1864
*10996 TAP_TAPCELL_ROW_167_1865
*10997 TAP_TAPCELL_ROW_167_1866
*10998 TAP_TAPCELL_ROW_167_1867
*10999 TAP_TAPCELL_ROW_167_1868
*11000 TAP_TAPCELL_ROW_167_1869
*11001 TAP_TAPCELL_ROW_167_1870
*11002 TAP_TAPCELL_ROW_167_1871
*11003 TAP_TAPCELL_ROW_167_1872
*11004 TAP_TAPCELL_ROW_167_1873
*11005 TAP_TAPCELL_ROW_167_1874
*11006 TAP_TAPCELL_ROW_167_1875
*11007 TAP_TAPCELL_ROW_167_1876
*11008 TAP_TAPCELL_ROW_167_1877
*11009 TAP_TAPCELL_ROW_167_1878
*11010 TAP_TAPCELL_ROW_167_1879
*11011 TAP_TAPCELL_ROW_167_1880
*11012 TAP_TAPCELL_ROW_167_1881
*11013 TAP_TAPCELL_ROW_167_1882
*11014 TAP_TAPCELL_ROW_167_1883
*11015 TAP_TAPCELL_ROW_167_1884
*11016 TAP_TAPCELL_ROW_167_1885
*11017 TAP_TAPCELL_ROW_167_1886
*11018 TAP_TAPCELL_ROW_167_1887
*11019 TAP_TAPCELL_ROW_167_1888
*11020 TAP_TAPCELL_ROW_167_1889
*11021 TAP_TAPCELL_ROW_168_1890
*11022 TAP_TAPCELL_ROW_168_1891
*11023 TAP_TAPCELL_ROW_168_1892
*11024 TAP_TAPCELL_ROW_168_1893
*11025 TAP_TAPCELL_ROW_168_1894
*11026 TAP_TAPCELL_ROW_168_1895
*11027 TAP_TAPCELL_ROW_168_1896
*11028 TAP_TAPCELL_ROW_168_1897
*11029 TAP_TAPCELL_ROW_168_1898
*11030 TAP_TAPCELL_ROW_168_1899
*11031 TAP_TAPCELL_ROW_168_1900
*11032 TAP_TAPCELL_ROW_168_1901
*11033 TAP_TAPCELL_ROW_168_1902
*11034 TAP_TAPCELL_ROW_168_1903
*11035 TAP_TAPCELL_ROW_168_1904
*11036 TAP_TAPCELL_ROW_168_1905
*11037 TAP_TAPCELL_ROW_168_1906
*11038 TAP_TAPCELL_ROW_168_1907
*11039 TAP_TAPCELL_ROW_168_1908
*11040 TAP_TAPCELL_ROW_168_1909
*11041 TAP_TAPCELL_ROW_168_1910
*11042 TAP_TAPCELL_ROW_168_1911
*11043 TAP_TAPCELL_ROW_168_1912
*11044 TAP_TAPCELL_ROW_168_1913
*11045 TAP_TAPCELL_ROW_168_1914
*11046 TAP_TAPCELL_ROW_168_1915
*11047 TAP_TAPCELL_ROW_168_1916
*11048 TAP_TAPCELL_ROW_169_1917
*11049 TAP_TAPCELL_ROW_169_1918
*11050 TAP_TAPCELL_ROW_169_1919
*11051 TAP_TAPCELL_ROW_169_1920
*11052 TAP_TAPCELL_ROW_169_1921
*11053 TAP_TAPCELL_ROW_169_1922
*11054 TAP_TAPCELL_ROW_169_1923
*11055 TAP_TAPCELL_ROW_169_1924
*11056 TAP_TAPCELL_ROW_169_1925
*11057 TAP_TAPCELL_ROW_169_1926
*11058 TAP_TAPCELL_ROW_169_1927
*11059 TAP_TAPCELL_ROW_169_1928
*11060 TAP_TAPCELL_ROW_169_1929
*11061 TAP_TAPCELL_ROW_169_1930
*11062 TAP_TAPCELL_ROW_169_1931
*11063 TAP_TAPCELL_ROW_169_1932
*11064 TAP_TAPCELL_ROW_169_1933
*11065 TAP_TAPCELL_ROW_169_1934
*11066 TAP_TAPCELL_ROW_169_1935
*11067 TAP_TAPCELL_ROW_169_1936
*11068 TAP_TAPCELL_ROW_169_1937
*11069 TAP_TAPCELL_ROW_169_1938
*11070 TAP_TAPCELL_ROW_169_1939
*11071 TAP_TAPCELL_ROW_169_1940
*11072 TAP_TAPCELL_ROW_169_1941
*11073 TAP_TAPCELL_ROW_169_1942
*11074 TAP_TAPCELL_ROW_169_1943
*11075 TAP_TAPCELL_ROW_169_1944
*11076 TAP_TAPCELL_ROW_169_1945
*11077 TAP_TAPCELL_ROW_169_1946
*11078 TAP_TAPCELL_ROW_169_1947
*11079 TAP_TAPCELL_ROW_169_1948
*11080 TAP_TAPCELL_ROW_169_1949
*11081 TAP_TAPCELL_ROW_169_1950
*11082 TAP_TAPCELL_ROW_169_1951
*11083 TAP_TAPCELL_ROW_169_1952
*11084 TAP_TAPCELL_ROW_169_1953
*11085 TAP_TAPCELL_ROW_169_1954
*11086 TAP_TAPCELL_ROW_169_1955
*11087 TAP_TAPCELL_ROW_169_1956
*11088 TAP_TAPCELL_ROW_169_1957
*11089 TAP_TAPCELL_ROW_169_1958
*11090 TAP_TAPCELL_ROW_169_1959
*11091 TAP_TAPCELL_ROW_169_1960
*11092 TAP_TAPCELL_ROW_169_1961
*11093 TAP_TAPCELL_ROW_169_1962
*11094 TAP_TAPCELL_ROW_169_1963
*11095 TAP_TAPCELL_ROW_169_1964
*11096 TAP_TAPCELL_ROW_169_1965
*11097 TAP_TAPCELL_ROW_169_1966
*11098 TAP_TAPCELL_ROW_169_1967
*11099 TAP_TAPCELL_ROW_169_1968
*11100 TAP_TAPCELL_ROW_169_1969
*11101 TAP_TAPCELL_ROW_16_2_1552
*11102 TAP_TAPCELL_ROW_16_3_2287
*11103 TAP_TAPCELL_ROW_170_2_1624
*11104 TAP_TAPCELL_ROW_170_3_2359
*11105 TAP_TAPCELL_ROW_172_2_1970
*11106 TAP_TAPCELL_ROW_172_3_2360
*11107 TAP_TAPCELL_ROW_174_2_1971
*11108 TAP_TAPCELL_ROW_174_3_2361
*11109 TAP_TAPCELL_ROW_176_2_1972
*11110 TAP_TAPCELL_ROW_176_3_2362
*11111 TAP_TAPCELL_ROW_178_2_1973
*11112 TAP_TAPCELL_ROW_178_3_2363
*11113 TAP_TAPCELL_ROW_180_2_1974
*11114 TAP_TAPCELL_ROW_180_3_2364
*11115 TAP_TAPCELL_ROW_182_2_1975
*11116 TAP_TAPCELL_ROW_182_3_2365
*11117 TAP_TAPCELL_ROW_184_2_1976
*11118 TAP_TAPCELL_ROW_184_3_2366
*11119 TAP_TAPCELL_ROW_186_2_1977
*11120 TAP_TAPCELL_ROW_186_3_2367
*11121 TAP_TAPCELL_ROW_188_2_1978
*11122 TAP_TAPCELL_ROW_188_3_2368
*11123 TAP_TAPCELL_ROW_18_2_1553
*11124 TAP_TAPCELL_ROW_18_3_2288
*11125 TAP_TAPCELL_ROW_190_2_1979
*11126 TAP_TAPCELL_ROW_190_3_2369
*11127 TAP_TAPCELL_ROW_192_2_1980
*11128 TAP_TAPCELL_ROW_192_3_2370
*11129 TAP_TAPCELL_ROW_194_2_1981
*11130 TAP_TAPCELL_ROW_194_3_2371
*11131 TAP_TAPCELL_ROW_196_2_1982
*11132 TAP_TAPCELL_ROW_196_3_2372
*11133 TAP_TAPCELL_ROW_198_2_1983
*11134 TAP_TAPCELL_ROW_198_3_2373
*11135 TAP_TAPCELL_ROW_1_1311
*11136 TAP_TAPCELL_ROW_1_1312
*11137 TAP_TAPCELL_ROW_1_1313
*11138 TAP_TAPCELL_ROW_1_1314
*11139 TAP_TAPCELL_ROW_1_1315
*11140 TAP_TAPCELL_ROW_1_1316
*11141 TAP_TAPCELL_ROW_1_1317
*11142 TAP_TAPCELL_ROW_1_1318
*11143 TAP_TAPCELL_ROW_1_1319
*11144 TAP_TAPCELL_ROW_1_1320
*11145 TAP_TAPCELL_ROW_1_1321
*11146 TAP_TAPCELL_ROW_1_1322
*11147 TAP_TAPCELL_ROW_1_1323
*11148 TAP_TAPCELL_ROW_1_1324
*11149 TAP_TAPCELL_ROW_1_1325
*11150 TAP_TAPCELL_ROW_1_1326
*11151 TAP_TAPCELL_ROW_1_1327
*11152 TAP_TAPCELL_ROW_1_1328
*11153 TAP_TAPCELL_ROW_1_1329
*11154 TAP_TAPCELL_ROW_1_1330
*11155 TAP_TAPCELL_ROW_1_1331
*11156 TAP_TAPCELL_ROW_1_1332
*11157 TAP_TAPCELL_ROW_1_1333
*11158 TAP_TAPCELL_ROW_1_1334
*11159 TAP_TAPCELL_ROW_1_1335
*11160 TAP_TAPCELL_ROW_1_1336
*11161 TAP_TAPCELL_ROW_200_2_1984
*11162 TAP_TAPCELL_ROW_200_3_2374
*11163 TAP_TAPCELL_ROW_202_2_1985
*11164 TAP_TAPCELL_ROW_202_3_2375
*11165 TAP_TAPCELL_ROW_204_2_1986
*11166 TAP_TAPCELL_ROW_204_3_2376
*11167 TAP_TAPCELL_ROW_206_2_1987
*11168 TAP_TAPCELL_ROW_206_3_2377
*11169 TAP_TAPCELL_ROW_208_2_1988
*11170 TAP_TAPCELL_ROW_208_3_2378
*11171 TAP_TAPCELL_ROW_20_2_1554
*11172 TAP_TAPCELL_ROW_20_3_2289
*11173 TAP_TAPCELL_ROW_210_2_1989
*11174 TAP_TAPCELL_ROW_210_3_2379
*11175 TAP_TAPCELL_ROW_212_2_1990
*11176 TAP_TAPCELL_ROW_212_3_2380
*11177 TAP_TAPCELL_ROW_214_2_1991
*11178 TAP_TAPCELL_ROW_214_3_2381
*11179 TAP_TAPCELL_ROW_216_2_1992
*11180 TAP_TAPCELL_ROW_216_3_2382
*11181 TAP_TAPCELL_ROW_218_2_1993
*11182 TAP_TAPCELL_ROW_218_3_2383
*11183 TAP_TAPCELL_ROW_220_2_1994
*11184 TAP_TAPCELL_ROW_220_3_2384
*11185 TAP_TAPCELL_ROW_222_2_1995
*11186 TAP_TAPCELL_ROW_222_3_2385
*11187 TAP_TAPCELL_ROW_224_2_1996
*11188 TAP_TAPCELL_ROW_224_3_2386
*11189 TAP_TAPCELL_ROW_226_2_1997
*11190 TAP_TAPCELL_ROW_226_3_2387
*11191 TAP_TAPCELL_ROW_228_2_1998
*11192 TAP_TAPCELL_ROW_228_3_2388
*11193 TAP_TAPCELL_ROW_22_2_1555
*11194 TAP_TAPCELL_ROW_22_3_2290
*11195 TAP_TAPCELL_ROW_230_2_1999
*11196 TAP_TAPCELL_ROW_230_3_2389
*11197 TAP_TAPCELL_ROW_232_2_2000
*11198 TAP_TAPCELL_ROW_232_3_2390
*11199 TAP_TAPCELL_ROW_234_2_2001
*11200 TAP_TAPCELL_ROW_234_3_2391
*11201 TAP_TAPCELL_ROW_236_2_2002
*11202 TAP_TAPCELL_ROW_236_3_2392
*11203 TAP_TAPCELL_ROW_238_2_2003
*11204 TAP_TAPCELL_ROW_238_3_2393
*11205 TAP_TAPCELL_ROW_240_2_2004
*11206 TAP_TAPCELL_ROW_240_3_2394
*11207 TAP_TAPCELL_ROW_242_2_2005
*11208 TAP_TAPCELL_ROW_242_3_2395
*11209 TAP_TAPCELL_ROW_244_2_2006
*11210 TAP_TAPCELL_ROW_244_3_2396
*11211 TAP_TAPCELL_ROW_246_2_2007
*11212 TAP_TAPCELL_ROW_246_3_2397
*11213 TAP_TAPCELL_ROW_248_2_2008
*11214 TAP_TAPCELL_ROW_248_3_2398
*11215 TAP_TAPCELL_ROW_24_2_1556
*11216 TAP_TAPCELL_ROW_24_3_2291
*11217 TAP_TAPCELL_ROW_250_2_2009
*11218 TAP_TAPCELL_ROW_250_3_2399
*11219 TAP_TAPCELL_ROW_252_2_2010
*11220 TAP_TAPCELL_ROW_252_3_2400
*11221 TAP_TAPCELL_ROW_254_2_2011
*11222 TAP_TAPCELL_ROW_254_3_2401
*11223 TAP_TAPCELL_ROW_256_2_2012
*11224 TAP_TAPCELL_ROW_256_3_2402
*11225 TAP_TAPCELL_ROW_258_2_2013
*11226 TAP_TAPCELL_ROW_258_3_2403
*11227 TAP_TAPCELL_ROW_260_2_2014
*11228 TAP_TAPCELL_ROW_260_3_2404
*11229 TAP_TAPCELL_ROW_262_2_2015
*11230 TAP_TAPCELL_ROW_262_3_2405
*11231 TAP_TAPCELL_ROW_264_2_2016
*11232 TAP_TAPCELL_ROW_264_3_2406
*11233 TAP_TAPCELL_ROW_266_2_2017
*11234 TAP_TAPCELL_ROW_266_3_2407
*11235 TAP_TAPCELL_ROW_268_2_2018
*11236 TAP_TAPCELL_ROW_268_3_2408
*11237 TAP_TAPCELL_ROW_26_2_1557
*11238 TAP_TAPCELL_ROW_26_3_2292
*11239 TAP_TAPCELL_ROW_270_2_2019
*11240 TAP_TAPCELL_ROW_270_3_2409
*11241 TAP_TAPCELL_ROW_272_2_2020
*11242 TAP_TAPCELL_ROW_272_3_2410
*11243 TAP_TAPCELL_ROW_274_2_2021
*11244 TAP_TAPCELL_ROW_274_3_2411
*11245 TAP_TAPCELL_ROW_276_2_2022
*11246 TAP_TAPCELL_ROW_276_3_2412
*11247 TAP_TAPCELL_ROW_278_2_2023
*11248 TAP_TAPCELL_ROW_278_3_2413
*11249 TAP_TAPCELL_ROW_280_2_2024
*11250 TAP_TAPCELL_ROW_280_3_2414
*11251 TAP_TAPCELL_ROW_282_2_2025
*11252 TAP_TAPCELL_ROW_282_3_2415
*11253 TAP_TAPCELL_ROW_284_2_2026
*11254 TAP_TAPCELL_ROW_284_3_2416
*11255 TAP_TAPCELL_ROW_286_2_2027
*11256 TAP_TAPCELL_ROW_286_3_2417
*11257 TAP_TAPCELL_ROW_288_2_2028
*11258 TAP_TAPCELL_ROW_288_3_2418
*11259 TAP_TAPCELL_ROW_28_2_1558
*11260 TAP_TAPCELL_ROW_28_3_2293
*11261 TAP_TAPCELL_ROW_290_2_2029
*11262 TAP_TAPCELL_ROW_290_3_2419
*11263 TAP_TAPCELL_ROW_292_2_2030
*11264 TAP_TAPCELL_ROW_292_3_2420
*11265 TAP_TAPCELL_ROW_294_2_2031
*11266 TAP_TAPCELL_ROW_294_3_2421
*11267 TAP_TAPCELL_ROW_296_2_2032
*11268 TAP_TAPCELL_ROW_296_3_2422
*11269 TAP_TAPCELL_ROW_298_2_2033
*11270 TAP_TAPCELL_ROW_298_3_2423
*11271 TAP_TAPCELL_ROW_2_1337
*11272 TAP_TAPCELL_ROW_2_1338
*11273 TAP_TAPCELL_ROW_2_1339
*11274 TAP_TAPCELL_ROW_2_1340
*11275 TAP_TAPCELL_ROW_2_1341
*11276 TAP_TAPCELL_ROW_2_1342
*11277 TAP_TAPCELL_ROW_2_1343
*11278 TAP_TAPCELL_ROW_2_1344
*11279 TAP_TAPCELL_ROW_2_1345
*11280 TAP_TAPCELL_ROW_2_1346
*11281 TAP_TAPCELL_ROW_2_1347
*11282 TAP_TAPCELL_ROW_2_1348
*11283 TAP_TAPCELL_ROW_2_1349
*11284 TAP_TAPCELL_ROW_2_1350
*11285 TAP_TAPCELL_ROW_2_1351
*11286 TAP_TAPCELL_ROW_2_1352
*11287 TAP_TAPCELL_ROW_2_1353
*11288 TAP_TAPCELL_ROW_2_1354
*11289 TAP_TAPCELL_ROW_2_1355
*11290 TAP_TAPCELL_ROW_2_1356
*11291 TAP_TAPCELL_ROW_2_1357
*11292 TAP_TAPCELL_ROW_2_1358
*11293 TAP_TAPCELL_ROW_2_1359
*11294 TAP_TAPCELL_ROW_2_1360
*11295 TAP_TAPCELL_ROW_2_1361
*11296 TAP_TAPCELL_ROW_2_1362
*11297 TAP_TAPCELL_ROW_2_1363
*11298 TAP_TAPCELL_ROW_300_2_2034
*11299 TAP_TAPCELL_ROW_300_3_2424
*11300 TAP_TAPCELL_ROW_302_2_2035
*11301 TAP_TAPCELL_ROW_302_3_2425
*11302 TAP_TAPCELL_ROW_304_2_2036
*11303 TAP_TAPCELL_ROW_304_3_2426
*11304 TAP_TAPCELL_ROW_306_2_2037
*11305 TAP_TAPCELL_ROW_306_3_2427
*11306 TAP_TAPCELL_ROW_308_2_2038
*11307 TAP_TAPCELL_ROW_308_3_2428
*11308 TAP_TAPCELL_ROW_30_2_1559
*11309 TAP_TAPCELL_ROW_30_3_2294
*11310 TAP_TAPCELL_ROW_310_2_2039
*11311 TAP_TAPCELL_ROW_310_3_2429
*11312 TAP_TAPCELL_ROW_312_2_2040
*11313 TAP_TAPCELL_ROW_312_3_2430
*11314 TAP_TAPCELL_ROW_314_2_2041
*11315 TAP_TAPCELL_ROW_314_3_2431
*11316 TAP_TAPCELL_ROW_316_2_2042
*11317 TAP_TAPCELL_ROW_316_3_2432
*11318 TAP_TAPCELL_ROW_318_2_2043
*11319 TAP_TAPCELL_ROW_318_3_2433
*11320 TAP_TAPCELL_ROW_320_2_2044
*11321 TAP_TAPCELL_ROW_320_3_2434
*11322 TAP_TAPCELL_ROW_321_2045
*11323 TAP_TAPCELL_ROW_321_2046
*11324 TAP_TAPCELL_ROW_321_2047
*11325 TAP_TAPCELL_ROW_321_2048
*11326 TAP_TAPCELL_ROW_321_2049
*11327 TAP_TAPCELL_ROW_321_2050
*11328 TAP_TAPCELL_ROW_321_2051
*11329 TAP_TAPCELL_ROW_321_2052
*11330 TAP_TAPCELL_ROW_321_2053
*11331 TAP_TAPCELL_ROW_321_2054
*11332 TAP_TAPCELL_ROW_321_2055
*11333 TAP_TAPCELL_ROW_321_2056
*11334 TAP_TAPCELL_ROW_321_2057
*11335 TAP_TAPCELL_ROW_321_2058
*11336 TAP_TAPCELL_ROW_321_2059
*11337 TAP_TAPCELL_ROW_321_2060
*11338 TAP_TAPCELL_ROW_321_2061
*11339 TAP_TAPCELL_ROW_321_2062
*11340 TAP_TAPCELL_ROW_321_2063
*11341 TAP_TAPCELL_ROW_321_2064
*11342 TAP_TAPCELL_ROW_321_2065
*11343 TAP_TAPCELL_ROW_321_2066
*11344 TAP_TAPCELL_ROW_321_2067
*11345 TAP_TAPCELL_ROW_321_2068
*11346 TAP_TAPCELL_ROW_321_2069
*11347 TAP_TAPCELL_ROW_321_2070
*11348 TAP_TAPCELL_ROW_321_2071
*11349 TAP_TAPCELL_ROW_321_2072
*11350 TAP_TAPCELL_ROW_321_2073
*11351 TAP_TAPCELL_ROW_321_2074
*11352 TAP_TAPCELL_ROW_321_2075
*11353 TAP_TAPCELL_ROW_321_2076
*11354 TAP_TAPCELL_ROW_321_2077
*11355 TAP_TAPCELL_ROW_321_2078
*11356 TAP_TAPCELL_ROW_321_2079
*11357 TAP_TAPCELL_ROW_321_2080
*11358 TAP_TAPCELL_ROW_321_2081
*11359 TAP_TAPCELL_ROW_321_2082
*11360 TAP_TAPCELL_ROW_321_2083
*11361 TAP_TAPCELL_ROW_321_2084
*11362 TAP_TAPCELL_ROW_321_2085
*11363 TAP_TAPCELL_ROW_321_2086
*11364 TAP_TAPCELL_ROW_321_2087
*11365 TAP_TAPCELL_ROW_321_2088
*11366 TAP_TAPCELL_ROW_321_2089
*11367 TAP_TAPCELL_ROW_321_2090
*11368 TAP_TAPCELL_ROW_321_2091
*11369 TAP_TAPCELL_ROW_321_2092
*11370 TAP_TAPCELL_ROW_321_2093
*11371 TAP_TAPCELL_ROW_321_2094
*11372 TAP_TAPCELL_ROW_321_2095
*11373 TAP_TAPCELL_ROW_321_2096
*11374 TAP_TAPCELL_ROW_321_2097
*11375 TAP_TAPCELL_ROW_322_2098
*11376 TAP_TAPCELL_ROW_322_2099
*11377 TAP_TAPCELL_ROW_322_2100
*11378 TAP_TAPCELL_ROW_322_2101
*11379 TAP_TAPCELL_ROW_322_2102
*11380 TAP_TAPCELL_ROW_322_2103
*11381 TAP_TAPCELL_ROW_322_2104
*11382 TAP_TAPCELL_ROW_322_2105
*11383 TAP_TAPCELL_ROW_322_2106
*11384 TAP_TAPCELL_ROW_322_2107
*11385 TAP_TAPCELL_ROW_322_2108
*11386 TAP_TAPCELL_ROW_322_2109
*11387 TAP_TAPCELL_ROW_322_2110
*11388 TAP_TAPCELL_ROW_322_2111
*11389 TAP_TAPCELL_ROW_322_2112
*11390 TAP_TAPCELL_ROW_322_2113
*11391 TAP_TAPCELL_ROW_322_2114
*11392 TAP_TAPCELL_ROW_322_2115
*11393 TAP_TAPCELL_ROW_322_2116
*11394 TAP_TAPCELL_ROW_322_2117
*11395 TAP_TAPCELL_ROW_322_2118
*11396 TAP_TAPCELL_ROW_322_2119
*11397 TAP_TAPCELL_ROW_322_2120
*11398 TAP_TAPCELL_ROW_322_2121
*11399 TAP_TAPCELL_ROW_322_2122
*11400 TAP_TAPCELL_ROW_322_2123
*11401 TAP_TAPCELL_ROW_322_2124
*11402 TAP_TAPCELL_ROW_323_2125
*11403 TAP_TAPCELL_ROW_323_2126
*11404 TAP_TAPCELL_ROW_323_2127
*11405 TAP_TAPCELL_ROW_323_2128
*11406 TAP_TAPCELL_ROW_323_2129
*11407 TAP_TAPCELL_ROW_323_2130
*11408 TAP_TAPCELL_ROW_323_2131
*11409 TAP_TAPCELL_ROW_323_2132
*11410 TAP_TAPCELL_ROW_323_2133
*11411 TAP_TAPCELL_ROW_323_2134
*11412 TAP_TAPCELL_ROW_323_2135
*11413 TAP_TAPCELL_ROW_323_2136
*11414 TAP_TAPCELL_ROW_323_2137
*11415 TAP_TAPCELL_ROW_323_2138
*11416 TAP_TAPCELL_ROW_323_2139
*11417 TAP_TAPCELL_ROW_323_2140
*11418 TAP_TAPCELL_ROW_323_2141
*11419 TAP_TAPCELL_ROW_323_2142
*11420 TAP_TAPCELL_ROW_323_2143
*11421 TAP_TAPCELL_ROW_323_2144
*11422 TAP_TAPCELL_ROW_323_2145
*11423 TAP_TAPCELL_ROW_323_2146
*11424 TAP_TAPCELL_ROW_323_2147
*11425 TAP_TAPCELL_ROW_323_2148
*11426 TAP_TAPCELL_ROW_323_2149
*11427 TAP_TAPCELL_ROW_323_2150
*11428 TAP_TAPCELL_ROW_324_2151
*11429 TAP_TAPCELL_ROW_324_2152
*11430 TAP_TAPCELL_ROW_324_2153
*11431 TAP_TAPCELL_ROW_324_2154
*11432 TAP_TAPCELL_ROW_324_2155
*11433 TAP_TAPCELL_ROW_324_2156
*11434 TAP_TAPCELL_ROW_324_2157
*11435 TAP_TAPCELL_ROW_324_2158
*11436 TAP_TAPCELL_ROW_324_2159
*11437 TAP_TAPCELL_ROW_324_2160
*11438 TAP_TAPCELL_ROW_324_2161
*11439 TAP_TAPCELL_ROW_324_2162
*11440 TAP_TAPCELL_ROW_324_2163
*11441 TAP_TAPCELL_ROW_324_2164
*11442 TAP_TAPCELL_ROW_324_2165
*11443 TAP_TAPCELL_ROW_324_2166
*11444 TAP_TAPCELL_ROW_324_2167
*11445 TAP_TAPCELL_ROW_324_2168
*11446 TAP_TAPCELL_ROW_324_2169
*11447 TAP_TAPCELL_ROW_324_2170
*11448 TAP_TAPCELL_ROW_324_2171
*11449 TAP_TAPCELL_ROW_324_2172
*11450 TAP_TAPCELL_ROW_324_2173
*11451 TAP_TAPCELL_ROW_324_2174
*11452 TAP_TAPCELL_ROW_324_2175
*11453 TAP_TAPCELL_ROW_324_2176
*11454 TAP_TAPCELL_ROW_324_2177
*11455 TAP_TAPCELL_ROW_325_2178
*11456 TAP_TAPCELL_ROW_325_2179
*11457 TAP_TAPCELL_ROW_325_2180
*11458 TAP_TAPCELL_ROW_325_2181
*11459 TAP_TAPCELL_ROW_325_2182
*11460 TAP_TAPCELL_ROW_325_2183
*11461 TAP_TAPCELL_ROW_325_2184
*11462 TAP_TAPCELL_ROW_325_2185
*11463 TAP_TAPCELL_ROW_325_2186
*11464 TAP_TAPCELL_ROW_325_2187
*11465 TAP_TAPCELL_ROW_325_2188
*11466 TAP_TAPCELL_ROW_325_2189
*11467 TAP_TAPCELL_ROW_325_2190
*11468 TAP_TAPCELL_ROW_325_2191
*11469 TAP_TAPCELL_ROW_325_2192
*11470 TAP_TAPCELL_ROW_325_2193
*11471 TAP_TAPCELL_ROW_325_2194
*11472 TAP_TAPCELL_ROW_325_2195
*11473 TAP_TAPCELL_ROW_325_2196
*11474 TAP_TAPCELL_ROW_325_2197
*11475 TAP_TAPCELL_ROW_325_2198
*11476 TAP_TAPCELL_ROW_325_2199
*11477 TAP_TAPCELL_ROW_325_2200
*11478 TAP_TAPCELL_ROW_325_2201
*11479 TAP_TAPCELL_ROW_325_2202
*11480 TAP_TAPCELL_ROW_325_2203
*11481 TAP_TAPCELL_ROW_326_2204
*11482 TAP_TAPCELL_ROW_326_2205
*11483 TAP_TAPCELL_ROW_326_2206
*11484 TAP_TAPCELL_ROW_326_2207
*11485 TAP_TAPCELL_ROW_326_2208
*11486 TAP_TAPCELL_ROW_326_2209
*11487 TAP_TAPCELL_ROW_326_2210
*11488 TAP_TAPCELL_ROW_326_2211
*11489 TAP_TAPCELL_ROW_326_2212
*11490 TAP_TAPCELL_ROW_326_2213
*11491 TAP_TAPCELL_ROW_326_2214
*11492 TAP_TAPCELL_ROW_326_2215
*11493 TAP_TAPCELL_ROW_326_2216
*11494 TAP_TAPCELL_ROW_326_2217
*11495 TAP_TAPCELL_ROW_326_2218
*11496 TAP_TAPCELL_ROW_326_2219
*11497 TAP_TAPCELL_ROW_326_2220
*11498 TAP_TAPCELL_ROW_326_2221
*11499 TAP_TAPCELL_ROW_326_2222
*11500 TAP_TAPCELL_ROW_326_2223
*11501 TAP_TAPCELL_ROW_326_2224
*11502 TAP_TAPCELL_ROW_326_2225
*11503 TAP_TAPCELL_ROW_326_2226
*11504 TAP_TAPCELL_ROW_326_2227
*11505 TAP_TAPCELL_ROW_326_2228
*11506 TAP_TAPCELL_ROW_326_2229
*11507 TAP_TAPCELL_ROW_326_2230
*11508 TAP_TAPCELL_ROW_327_2231
*11509 TAP_TAPCELL_ROW_327_2232
*11510 TAP_TAPCELL_ROW_327_2233
*11511 TAP_TAPCELL_ROW_327_2234
*11512 TAP_TAPCELL_ROW_327_2235
*11513 TAP_TAPCELL_ROW_327_2236
*11514 TAP_TAPCELL_ROW_327_2237
*11515 TAP_TAPCELL_ROW_327_2238
*11516 TAP_TAPCELL_ROW_327_2239
*11517 TAP_TAPCELL_ROW_327_2240
*11518 TAP_TAPCELL_ROW_327_2241
*11519 TAP_TAPCELL_ROW_327_2242
*11520 TAP_TAPCELL_ROW_327_2243
*11521 TAP_TAPCELL_ROW_327_2244
*11522 TAP_TAPCELL_ROW_327_2245
*11523 TAP_TAPCELL_ROW_327_2246
*11524 TAP_TAPCELL_ROW_327_2247
*11525 TAP_TAPCELL_ROW_327_2248
*11526 TAP_TAPCELL_ROW_327_2249
*11527 TAP_TAPCELL_ROW_327_2250
*11528 TAP_TAPCELL_ROW_327_2251
*11529 TAP_TAPCELL_ROW_327_2252
*11530 TAP_TAPCELL_ROW_327_2253
*11531 TAP_TAPCELL_ROW_327_2254
*11532 TAP_TAPCELL_ROW_327_2255
*11533 TAP_TAPCELL_ROW_327_2256
*11534 TAP_TAPCELL_ROW_327_2257
*11535 TAP_TAPCELL_ROW_327_2258
*11536 TAP_TAPCELL_ROW_327_2259
*11537 TAP_TAPCELL_ROW_327_2260
*11538 TAP_TAPCELL_ROW_327_2261
*11539 TAP_TAPCELL_ROW_327_2262
*11540 TAP_TAPCELL_ROW_327_2263
*11541 TAP_TAPCELL_ROW_327_2264
*11542 TAP_TAPCELL_ROW_327_2265
*11543 TAP_TAPCELL_ROW_327_2266
*11544 TAP_TAPCELL_ROW_327_2267
*11545 TAP_TAPCELL_ROW_327_2268
*11546 TAP_TAPCELL_ROW_327_2269
*11547 TAP_TAPCELL_ROW_327_2270
*11548 TAP_TAPCELL_ROW_327_2271
*11549 TAP_TAPCELL_ROW_327_2272
*11550 TAP_TAPCELL_ROW_327_2273
*11551 TAP_TAPCELL_ROW_327_2274
*11552 TAP_TAPCELL_ROW_327_2275
*11553 TAP_TAPCELL_ROW_327_2276
*11554 TAP_TAPCELL_ROW_327_2277
*11555 TAP_TAPCELL_ROW_327_2278
*11556 TAP_TAPCELL_ROW_327_2279
*11557 TAP_TAPCELL_ROW_327_2280
*11558 TAP_TAPCELL_ROW_327_2281
*11559 TAP_TAPCELL_ROW_327_2282
*11560 TAP_TAPCELL_ROW_327_2283
*11561 TAP_TAPCELL_ROW_32_2_1560
*11562 TAP_TAPCELL_ROW_32_3_2295
*11563 TAP_TAPCELL_ROW_34_2_1561
*11564 TAP_TAPCELL_ROW_34_3_2296
*11565 TAP_TAPCELL_ROW_36_2_1562
*11566 TAP_TAPCELL_ROW_36_3_2297
*11567 TAP_TAPCELL_ROW_38_2_1563
*11568 TAP_TAPCELL_ROW_38_3_2298
*11569 TAP_TAPCELL_ROW_3_1364
*11570 TAP_TAPCELL_ROW_3_1365
*11571 TAP_TAPCELL_ROW_3_1366
*11572 TAP_TAPCELL_ROW_3_1367
*11573 TAP_TAPCELL_ROW_3_1368
*11574 TAP_TAPCELL_ROW_3_1369
*11575 TAP_TAPCELL_ROW_3_1370
*11576 TAP_TAPCELL_ROW_3_1371
*11577 TAP_TAPCELL_ROW_3_1372
*11578 TAP_TAPCELL_ROW_3_1373
*11579 TAP_TAPCELL_ROW_3_1374
*11580 TAP_TAPCELL_ROW_3_1375
*11581 TAP_TAPCELL_ROW_3_1376
*11582 TAP_TAPCELL_ROW_3_1377
*11583 TAP_TAPCELL_ROW_3_1378
*11584 TAP_TAPCELL_ROW_3_1379
*11585 TAP_TAPCELL_ROW_3_1380
*11586 TAP_TAPCELL_ROW_3_1381
*11587 TAP_TAPCELL_ROW_3_1382
*11588 TAP_TAPCELL_ROW_3_1383
*11589 TAP_TAPCELL_ROW_3_1384
*11590 TAP_TAPCELL_ROW_3_1385
*11591 TAP_TAPCELL_ROW_3_1386
*11592 TAP_TAPCELL_ROW_3_1387
*11593 TAP_TAPCELL_ROW_3_1388
*11594 TAP_TAPCELL_ROW_3_1389
*11595 TAP_TAPCELL_ROW_40_2_1564
*11596 TAP_TAPCELL_ROW_40_3_2299
*11597 TAP_TAPCELL_ROW_42_2_1565
*11598 TAP_TAPCELL_ROW_42_3_2300
*11599 TAP_TAPCELL_ROW_44_2_1566
*11600 TAP_TAPCELL_ROW_44_3_2301
*11601 TAP_TAPCELL_ROW_46_2_1567
*11602 TAP_TAPCELL_ROW_46_3_2302
*11603 TAP_TAPCELL_ROW_48_2_1568
*11604 TAP_TAPCELL_ROW_48_3_2303
*11605 TAP_TAPCELL_ROW_4_1390
*11606 TAP_TAPCELL_ROW_4_1391
*11607 TAP_TAPCELL_ROW_4_1392
*11608 TAP_TAPCELL_ROW_4_1393
*11609 TAP_TAPCELL_ROW_4_1394
*11610 TAP_TAPCELL_ROW_4_1395
*11611 TAP_TAPCELL_ROW_4_1396
*11612 TAP_TAPCELL_ROW_4_1397
*11613 TAP_TAPCELL_ROW_4_1398
*11614 TAP_TAPCELL_ROW_4_1399
*11615 TAP_TAPCELL_ROW_4_1400
*11616 TAP_TAPCELL_ROW_4_1401
*11617 TAP_TAPCELL_ROW_4_1402
*11618 TAP_TAPCELL_ROW_4_1403
*11619 TAP_TAPCELL_ROW_4_1404
*11620 TAP_TAPCELL_ROW_4_1405
*11621 TAP_TAPCELL_ROW_4_1406
*11622 TAP_TAPCELL_ROW_4_1407
*11623 TAP_TAPCELL_ROW_4_1408
*11624 TAP_TAPCELL_ROW_4_1409
*11625 TAP_TAPCELL_ROW_4_1410
*11626 TAP_TAPCELL_ROW_4_1411
*11627 TAP_TAPCELL_ROW_4_1412
*11628 TAP_TAPCELL_ROW_4_1413
*11629 TAP_TAPCELL_ROW_4_1414
*11630 TAP_TAPCELL_ROW_4_1415
*11631 TAP_TAPCELL_ROW_4_1416
*11632 TAP_TAPCELL_ROW_50_2_1569
*11633 TAP_TAPCELL_ROW_50_3_2304
*11634 TAP_TAPCELL_ROW_52_2_1570
*11635 TAP_TAPCELL_ROW_52_3_2305
*11636 TAP_TAPCELL_ROW_54_2_1571
*11637 TAP_TAPCELL_ROW_54_3_2306
*11638 TAP_TAPCELL_ROW_56_2_1572
*11639 TAP_TAPCELL_ROW_56_3_2307
*11640 TAP_TAPCELL_ROW_58_2_1573
*11641 TAP_TAPCELL_ROW_58_3_2308
*11642 TAP_TAPCELL_ROW_5_1417
*11643 TAP_TAPCELL_ROW_5_1418
*11644 TAP_TAPCELL_ROW_5_1419
*11645 TAP_TAPCELL_ROW_5_1420
*11646 TAP_TAPCELL_ROW_5_1421
*11647 TAP_TAPCELL_ROW_5_1422
*11648 TAP_TAPCELL_ROW_5_1423
*11649 TAP_TAPCELL_ROW_5_1424
*11650 TAP_TAPCELL_ROW_5_1425
*11651 TAP_TAPCELL_ROW_5_1426
*11652 TAP_TAPCELL_ROW_5_1427
*11653 TAP_TAPCELL_ROW_5_1428
*11654 TAP_TAPCELL_ROW_5_1429
*11655 TAP_TAPCELL_ROW_5_1430
*11656 TAP_TAPCELL_ROW_5_1431
*11657 TAP_TAPCELL_ROW_5_1432
*11658 TAP_TAPCELL_ROW_5_1433
*11659 TAP_TAPCELL_ROW_5_1434
*11660 TAP_TAPCELL_ROW_5_1435
*11661 TAP_TAPCELL_ROW_5_1436
*11662 TAP_TAPCELL_ROW_5_1437
*11663 TAP_TAPCELL_ROW_5_1438
*11664 TAP_TAPCELL_ROW_5_1439
*11665 TAP_TAPCELL_ROW_5_1440
*11666 TAP_TAPCELL_ROW_5_1441
*11667 TAP_TAPCELL_ROW_5_1442
*11668 TAP_TAPCELL_ROW_60_2_1574
*11669 TAP_TAPCELL_ROW_60_3_2309
*11670 TAP_TAPCELL_ROW_62_2_1575
*11671 TAP_TAPCELL_ROW_62_3_2310
*11672 TAP_TAPCELL_ROW_64_2_1576
*11673 TAP_TAPCELL_ROW_64_3_2311
*11674 TAP_TAPCELL_ROW_66_2_1577
*11675 TAP_TAPCELL_ROW_66_3_2312
*11676 TAP_TAPCELL_ROW_68_2_1578
*11677 TAP_TAPCELL_ROW_68_3_2313
*11678 TAP_TAPCELL_ROW_6_1443
*11679 TAP_TAPCELL_ROW_6_1444
*11680 TAP_TAPCELL_ROW_6_1445
*11681 TAP_TAPCELL_ROW_6_1446
*11682 TAP_TAPCELL_ROW_6_1447
*11683 TAP_TAPCELL_ROW_6_1448
*11684 TAP_TAPCELL_ROW_6_1449
*11685 TAP_TAPCELL_ROW_6_1450
*11686 TAP_TAPCELL_ROW_6_1451
*11687 TAP_TAPCELL_ROW_6_1452
*11688 TAP_TAPCELL_ROW_6_1453
*11689 TAP_TAPCELL_ROW_6_1454
*11690 TAP_TAPCELL_ROW_6_1455
*11691 TAP_TAPCELL_ROW_6_1456
*11692 TAP_TAPCELL_ROW_6_1457
*11693 TAP_TAPCELL_ROW_6_1458
*11694 TAP_TAPCELL_ROW_6_1459
*11695 TAP_TAPCELL_ROW_6_1460
*11696 TAP_TAPCELL_ROW_6_1461
*11697 TAP_TAPCELL_ROW_6_1462
*11698 TAP_TAPCELL_ROW_6_1463
*11699 TAP_TAPCELL_ROW_6_1464
*11700 TAP_TAPCELL_ROW_6_1465
*11701 TAP_TAPCELL_ROW_6_1466
*11702 TAP_TAPCELL_ROW_6_1467
*11703 TAP_TAPCELL_ROW_6_1468
*11704 TAP_TAPCELL_ROW_6_1469
*11705 TAP_TAPCELL_ROW_70_2_1579
*11706 TAP_TAPCELL_ROW_70_3_2314
*11707 TAP_TAPCELL_ROW_72_2_1580
*11708 TAP_TAPCELL_ROW_72_3_2315
*11709 TAP_TAPCELL_ROW_74_2_1581
*11710 TAP_TAPCELL_ROW_74_3_2316
*11711 TAP_TAPCELL_ROW_76_2_1582
*11712 TAP_TAPCELL_ROW_76_3_2317
*11713 TAP_TAPCELL_ROW_78_2_1583
*11714 TAP_TAPCELL_ROW_78_3_2318
*11715 TAP_TAPCELL_ROW_7_1470
*11716 TAP_TAPCELL_ROW_7_1471
*11717 TAP_TAPCELL_ROW_7_1472
*11718 TAP_TAPCELL_ROW_7_1473
*11719 TAP_TAPCELL_ROW_7_1474
*11720 TAP_TAPCELL_ROW_7_1475
*11721 TAP_TAPCELL_ROW_7_1476
*11722 TAP_TAPCELL_ROW_7_1477
*11723 TAP_TAPCELL_ROW_7_1478
*11724 TAP_TAPCELL_ROW_7_1479
*11725 TAP_TAPCELL_ROW_7_1480
*11726 TAP_TAPCELL_ROW_7_1481
*11727 TAP_TAPCELL_ROW_7_1482
*11728 TAP_TAPCELL_ROW_7_1483
*11729 TAP_TAPCELL_ROW_7_1484
*11730 TAP_TAPCELL_ROW_7_1485
*11731 TAP_TAPCELL_ROW_7_1486
*11732 TAP_TAPCELL_ROW_7_1487
*11733 TAP_TAPCELL_ROW_7_1488
*11734 TAP_TAPCELL_ROW_7_1489
*11735 TAP_TAPCELL_ROW_7_1490
*11736 TAP_TAPCELL_ROW_7_1491
*11737 TAP_TAPCELL_ROW_7_1492
*11738 TAP_TAPCELL_ROW_7_1493
*11739 TAP_TAPCELL_ROW_7_1494
*11740 TAP_TAPCELL_ROW_7_1495
*11741 TAP_TAPCELL_ROW_80_2_1584
*11742 TAP_TAPCELL_ROW_80_3_2319
*11743 TAP_TAPCELL_ROW_82_2_1585
*11744 TAP_TAPCELL_ROW_82_3_2320
*11745 TAP_TAPCELL_ROW_84_2_1586
*11746 TAP_TAPCELL_ROW_84_3_2321
*11747 TAP_TAPCELL_ROW_86_2_1587
*11748 TAP_TAPCELL_ROW_86_3_2322
*11749 TAP_TAPCELL_ROW_88_2_1588
*11750 TAP_TAPCELL_ROW_88_3_2323
*11751 TAP_TAPCELL_ROW_8_1496
*11752 TAP_TAPCELL_ROW_8_1497
*11753 TAP_TAPCELL_ROW_8_1498
*11754 TAP_TAPCELL_ROW_8_1499
*11755 TAP_TAPCELL_ROW_8_1500
*11756 TAP_TAPCELL_ROW_8_1501
*11757 TAP_TAPCELL_ROW_8_1502
*11758 TAP_TAPCELL_ROW_8_1503
*11759 TAP_TAPCELL_ROW_8_1504
*11760 TAP_TAPCELL_ROW_8_1505
*11761 TAP_TAPCELL_ROW_8_1506
*11762 TAP_TAPCELL_ROW_8_1507
*11763 TAP_TAPCELL_ROW_8_1508
*11764 TAP_TAPCELL_ROW_8_1509
*11765 TAP_TAPCELL_ROW_8_1510
*11766 TAP_TAPCELL_ROW_8_1511
*11767 TAP_TAPCELL_ROW_8_1512
*11768 TAP_TAPCELL_ROW_8_1513
*11769 TAP_TAPCELL_ROW_8_1514
*11770 TAP_TAPCELL_ROW_8_1515
*11771 TAP_TAPCELL_ROW_8_1516
*11772 TAP_TAPCELL_ROW_8_1517
*11773 TAP_TAPCELL_ROW_8_1518
*11774 TAP_TAPCELL_ROW_8_1519
*11775 TAP_TAPCELL_ROW_8_1520
*11776 TAP_TAPCELL_ROW_8_1521
*11777 TAP_TAPCELL_ROW_8_1522
*11778 TAP_TAPCELL_ROW_8_1523
*11779 TAP_TAPCELL_ROW_8_1524
*11780 TAP_TAPCELL_ROW_8_1525
*11781 TAP_TAPCELL_ROW_8_1526
*11782 TAP_TAPCELL_ROW_8_1527
*11783 TAP_TAPCELL_ROW_8_1528
*11784 TAP_TAPCELL_ROW_8_1529
*11785 TAP_TAPCELL_ROW_8_1530
*11786 TAP_TAPCELL_ROW_8_1531
*11787 TAP_TAPCELL_ROW_8_1532
*11788 TAP_TAPCELL_ROW_8_1533
*11789 TAP_TAPCELL_ROW_8_1534
*11790 TAP_TAPCELL_ROW_8_1535
*11791 TAP_TAPCELL_ROW_8_1536
*11792 TAP_TAPCELL_ROW_8_1537
*11793 TAP_TAPCELL_ROW_8_1538
*11794 TAP_TAPCELL_ROW_8_1539
*11795 TAP_TAPCELL_ROW_8_1540
*11796 TAP_TAPCELL_ROW_8_1541
*11797 TAP_TAPCELL_ROW_8_1542
*11798 TAP_TAPCELL_ROW_8_1543
*11799 TAP_TAPCELL_ROW_8_1544
*11800 TAP_TAPCELL_ROW_8_1545
*11801 TAP_TAPCELL_ROW_8_1546
*11802 TAP_TAPCELL_ROW_8_1547
*11803 TAP_TAPCELL_ROW_8_1548
*11804 TAP_TAPCELL_ROW_90_2_1589
*11805 TAP_TAPCELL_ROW_90_3_2324
*11806 TAP_TAPCELL_ROW_92_2_1590
*11807 TAP_TAPCELL_ROW_92_3_2325
*11808 TAP_TAPCELL_ROW_94_2_1591
*11809 TAP_TAPCELL_ROW_94_3_2326
*11810 TAP_TAPCELL_ROW_96_2_1592
*11811 TAP_TAPCELL_ROW_96_3_2327
*11812 TAP_TAPCELL_ROW_98_2_1593
*11813 TAP_TAPCELL_ROW_98_3_2328
*11814 _104_
*11815 _105_
*11816 _106_
*11817 _107_
*11818 _108_
*11819 _109_
*11820 _110_
*11821 _111_
*11822 _112_
*11823 _113_
*11824 _114_
*11825 _115_
*11826 _116_
*11827 _117_
*11828 _118_
*11829 _119_
*11830 _120_
*11831 _121_
*11832 _122_
*11833 _123_
*11834 _124_
*11835 _125_
*11836 _126_
*11837 _127_
*11838 _128_
*11839 _129_
*11840 _130_
*11841 _131_
*11842 _132_
*11843 _133_
*11844 _134_
*11845 _135_
*11846 _136_
*11847 _137_
*11848 _138_
*11849 _139_
*11850 _140_
*11851 _141_
*11852 _142_
*11853 _143_
*11854 _144_
*11855 _145_
*11856 _146_
*11857 _147_
*11858 _148_
*11859 _149_
*11860 _150_
*11861 _151_
*11862 _152_
*11863 _153_
*11864 _154_
*11865 _155_
*11866 _156_
*11867 _157_
*11868 _158_
*11869 _159_
*11870 _160_
*11871 _161_
*11872 _162_
*11873 _163_
*11874 _164_
*11875 _165_
*11876 _166_
*11877 _167_
*11878 _168_
*11879 _169_
*11880 _170_
*11881 _171_
*11882 _172_
*11883 _173_
*11884 _174_
*11885 _175_
*11886 _176_
*11887 _177_
*11888 _178_
*11889 _179_
*11890 _180_
*11891 _181_
*11892 _182_
*11893 _183_
*11894 _184_
*11895 _185_
*11896 _186_
*11897 _187_
*11898 _188_
*11899 _189_
*11900 _190_
*11901 _191_
*11902 _192_
*11903 _193_
*11904 _194_
*11905 _195_
*11906 _196_
*11907 _197_
*11908 _198_
*11909 _199_
*11910 _200_
*11911 _201_
*11912 _202_
*11913 _203_
*11914 _204_
*11915 _205_
*11916 _206_
*11917 _207_
*11918 _208_
*11919 _209_
*11920 _210_
*11921 clkbuf_0_wb_clk_i
*11922 clkbuf_1_0__f_wb_clk_i
*11923 clkbuf_1_1__f_wb_clk_i
*11924 clkload0
*11925 fanout86
*11926 fanout87
*11927 fanout88
*11928 fanout89
*11929 fanout90
*11930 fanout91
*11931 fanout92
*11932 fanout93
*11933 fanout94
*11934 fanout95
*11935 fanout96
*11936 fanout97
*11937 hold1
*11938 hold10
*11939 hold100
*11940 hold101
*11941 hold102
*11942 hold103
*11943 hold104
*11944 hold105
*11945 hold106
*11946 hold107
*11947 hold108
*11948 hold109
*11949 hold11
*11950 hold110
*11951 hold111
*11952 hold112
*11953 hold113
*11954 hold114
*11955 hold115
*11956 hold116
*11957 hold117
*11958 hold118
*11959 hold119
*11960 hold12
*11961 hold120
*11962 hold121
*11963 hold122
*11964 hold123
*11965 hold124
*11966 hold125
*11967 hold126
*11968 hold127
*11969 hold128
*11970 hold129
*11971 hold13
*11972 hold130
*11973 hold131
*11974 hold132
*11975 hold133
*11976 hold134
*11977 hold135
*11978 hold136
*11979 hold137
*11980 hold138
*11981 hold139
*11982 hold14
*11983 hold140
*11984 hold141
*11985 hold142
*11986 hold143
*11987 hold144
*11988 hold145
*11989 hold146
*11990 hold147
*11991 hold148
*11992 hold149
*11993 hold15
*11994 hold150
*11995 hold151
*11996 hold152
*11997 hold153
*11998 hold154
*11999 hold155
*12000 hold156
*12001 hold157
*12002 hold158
*12003 hold159
*12004 hold16
*12005 hold160
*12006 hold161
*12007 hold162
*12008 hold163
*12009 hold164
*12010 hold165
*12011 hold166
*12012 hold167
*12013 hold168
*12014 hold169
*12015 hold17
*12016 hold170
*12017 hold171
*12018 hold172
*12019 hold173
*12020 hold174
*12021 hold175
*12022 hold176
*12023 hold177
*12024 hold178
*12025 hold179
*12026 hold18
*12027 hold180
*12028 hold181
*12029 hold182
*12030 hold183
*12031 hold184
*12032 hold185
*12033 hold186
*12034 hold187
*12035 hold19
*12036 hold2
*12037 hold20
*12038 hold21
*12039 hold22
*12040 hold23
*12041 hold24
*12042 hold25
*12043 hold26
*12044 hold27
*12045 hold28
*12046 hold29
*12047 hold3
*12048 hold30
*12049 hold31
*12050 hold32
*12051 hold33
*12052 hold34
*12053 hold35
*12054 hold36
*12055 hold37
*12056 hold38
*12057 hold39
*12058 hold4
*12059 hold40
*12060 hold41
*12061 hold42
*12062 hold43
*12063 hold44
*12064 hold45
*12065 hold46
*12066 hold47
*12067 hold48
*12068 hold49
*12069 hold5
*12070 hold50
*12071 hold51
*12072 hold52
*12073 hold53
*12074 hold54
*12075 hold55
*12076 hold56
*12077 hold57
*12078 hold58
*12079 hold59
*12080 hold6
*12081 hold60
*12082 hold61
*12083 hold62
*12084 hold63
*12085 hold64
*12086 hold65
*12087 hold66
*12088 hold67
*12089 hold68
*12090 hold69
*12091 hold7
*12092 hold70
*12093 hold71
*12094 hold72
*12095 hold73
*12096 hold74
*12097 hold75
*12098 hold76
*12099 hold77
*12100 hold78
*12101 hold79
*12102 hold8
*12103 hold80
*12104 hold81
*12105 hold82
*12106 hold83
*12107 hold84
*12108 hold85
*12109 hold86
*12110 hold87
*12111 hold88
*12112 hold89
*12113 hold9
*12114 hold90
*12115 hold91
*12116 hold92
*12117 hold93
*12118 hold94
*12119 hold95
*12120 hold96
*12121 hold97
*12122 hold98
*12123 hold99
*12124 i_sram\.sram0
*12125 i_sram\.sram0_100
*12126 i_sram\.sram0_101
*12127 i_sram\.sram0_102
*12128 i_sram\.sram0_103
*12129 i_sram\.sram0_104
*12130 i_sram\.sram0_105
*12131 i_sram\.sram0_106
*12132 i_sram\.sram0_128
*12133 i_sram\.sram0_129
*12134 i_sram\.sram1
*12135 i_sram\.sram1_107
*12136 i_sram\.sram1_108
*12137 i_sram\.sram1_109
*12138 i_sram\.sram1_110
*12139 i_sram\.sram1_111
*12140 i_sram\.sram1_112
*12141 i_sram\.sram1_113
*12142 i_sram\.sram1_130
*12143 i_sram\.sram1_131
*12144 i_sram\.sram2
*12145 i_sram\.sram2_114
*12146 i_sram\.sram2_115
*12147 i_sram\.sram2_116
*12148 i_sram\.sram2_117
*12149 i_sram\.sram2_118
*12150 i_sram\.sram2_119
*12151 i_sram\.sram2_120
*12152 i_sram\.sram2_132
*12153 i_sram\.sram2_133
*12154 i_sram\.sram3
*12155 i_sram\.sram3_121
*12156 i_sram\.sram3_122
*12157 i_sram\.sram3_123
*12158 i_sram\.sram3_124
*12159 i_sram\.sram3_125
*12160 i_sram\.sram3_126
*12161 i_sram\.sram3_127
*12162 i_sram\.sram3_134
*12163 i_sram\.sram3_135
*12164 input1
*12165 input10
*12166 input11
*12167 input12
*12168 input13
*12169 input14
*12170 input15
*12171 input16
*12172 input17
*12173 input18
*12174 input19
*12175 input2
*12176 input20
*12177 input21
*12178 input22
*12179 input23
*12180 input24
*12181 input25
*12182 input26
*12183 input27
*12184 input28
*12185 input29
*12186 input3
*12187 input30
*12188 input31
*12189 input32
*12190 input33
*12191 input34
*12192 input35
*12193 input36
*12194 input37
*12195 input38
*12196 input39
*12197 input4
*12198 input40
*12199 input41
*12200 input42
*12201 input43
*12202 input44
*12203 input45
*12204 input46
*12205 input47
*12206 input48
*12207 input49
*12208 input5
*12209 input50
*12210 input51
*12211 input52
*12212 input6
*12213 input7
*12214 input8
*12215 input9
*12216 load_slew98
*12217 load_slew99
*12218 output53
*12219 output54
*12220 output55
*12221 output56
*12222 output57
*12223 output58
*12224 output59
*12225 output60
*12226 output61
*12227 output62
*12228 output63
*12229 output64
*12230 output65
*12231 output66
*12232 output67
*12233 output68
*12234 output69
*12235 output70
*12236 output71
*12237 output72
*12238 output73
*12239 output74
*12240 output75
*12241 output76
*12242 output77
*12243 output78
*12244 output79
*12245 output80
*12246 output81
*12247 output82
*12248 output83
*12249 output84
*12250 output85

*PORTS
wb_clk_i I
wb_rst_i I
wbs_ack_o O
wbs_adr_i[0] I
wbs_adr_i[10] I
wbs_adr_i[11] I
wbs_adr_i[12] I
wbs_adr_i[13] I
wbs_adr_i[14] I
wbs_adr_i[15] I
wbs_adr_i[16] I
wbs_adr_i[17] I
wbs_adr_i[18] I
wbs_adr_i[19] I
wbs_adr_i[1] I
wbs_adr_i[20] I
wbs_adr_i[21] I
wbs_adr_i[22] I
wbs_adr_i[23] I
wbs_adr_i[24] I
wbs_adr_i[25] I
wbs_adr_i[26] I
wbs_adr_i[27] I
wbs_adr_i[28] I
wbs_adr_i[29] I
wbs_adr_i[2] I
wbs_adr_i[30] I
wbs_adr_i[31] I
wbs_adr_i[3] I
wbs_adr_i[4] I
wbs_adr_i[5] I
wbs_adr_i[6] I
wbs_adr_i[7] I
wbs_adr_i[8] I
wbs_adr_i[9] I
wbs_cyc_i I
wbs_dat_i[0] I
wbs_dat_i[10] I
wbs_dat_i[11] I
wbs_dat_i[12] I
wbs_dat_i[13] I
wbs_dat_i[14] I
wbs_dat_i[15] I
wbs_dat_i[16] I
wbs_dat_i[17] I
wbs_dat_i[18] I
wbs_dat_i[19] I
wbs_dat_i[1] I
wbs_dat_i[20] I
wbs_dat_i[21] I
wbs_dat_i[22] I
wbs_dat_i[23] I
wbs_dat_i[24] I
wbs_dat_i[25] I
wbs_dat_i[26] I
wbs_dat_i[27] I
wbs_dat_i[28] I
wbs_dat_i[29] I
wbs_dat_i[2] I
wbs_dat_i[30] I
wbs_dat_i[31] I
wbs_dat_i[3] I
wbs_dat_i[4] I
wbs_dat_i[5] I
wbs_dat_i[6] I
wbs_dat_i[7] I
wbs_dat_i[8] I
wbs_dat_i[9] I
wbs_dat_o[0] O
wbs_dat_o[10] O
wbs_dat_o[11] O
wbs_dat_o[12] O
wbs_dat_o[13] O
wbs_dat_o[14] O
wbs_dat_o[15] O
wbs_dat_o[16] O
wbs_dat_o[17] O
wbs_dat_o[18] O
wbs_dat_o[19] O
wbs_dat_o[1] O
wbs_dat_o[20] O
wbs_dat_o[21] O
wbs_dat_o[22] O
wbs_dat_o[23] O
wbs_dat_o[24] O
wbs_dat_o[25] O
wbs_dat_o[26] O
wbs_dat_o[27] O
wbs_dat_o[28] O
wbs_dat_o[29] O
wbs_dat_o[2] O
wbs_dat_o[30] O
wbs_dat_o[31] O
wbs_dat_o[3] O
wbs_dat_o[4] O
wbs_dat_o[5] O
wbs_dat_o[6] O
wbs_dat_o[7] O
wbs_dat_o[8] O
wbs_dat_o[9] O
wbs_sel_i[0] I
wbs_sel_i[1] I
wbs_sel_i[2] I
wbs_sel_i[3] I
wbs_stb_i I
wbs_we_i I

*D_NET *3 0.098789
*CONN
*P wb_clk_i I
*I *11921:A I *D sky130_fd_sc_hd__clkbuf_16
*I *1061:DIODE I *D sky130_fd_sc_hd__diode_2
*CAP
1 wb_clk_i 0.000125062
2 *11921:A 0
3 *1061:DIODE 0
4 *3:47 9.99498e-05
5 *3:41 0.00270002
6 *3:25 0.00383582
7 *3:23 0.00193692
8 *3:19 0.0104757
9 *3:13 0.0311386
10 *3:11 0.0214892
11 *3:11 *12164:A 0
12 *3:19 *12124:BEN[31] 0
13 *3:19 *137:12 0.000496542
14 *3:19 *139:12 0.00081458
15 *3:19 *141:12 0.00112478
16 *3:19 *143:14 0.00162229
17 *3:19 *284:26 8.01708e-05
18 *3:19 *312:23 0.002781
19 *3:23 *637:27 0
20 *3:25 *982:DIODE 9.88259e-05
21 *3:25 *177:16 1.71761e-05
22 *3:25 *177:18 0.00779168
23 *3:25 *287:26 0.000603652
24 *3:25 *637:31 0.00783378
25 *3:41 *984:DIODE 7.15382e-05
26 *3:41 *11884:A0 1.56446e-05
27 *3:41 *11884:A1 0.000103307
28 *3:41 *157:14 0.000188542
29 *3:41 *177:16 0.00205457
30 *3:41 *263:40 9.84851e-05
31 *3:41 *637:49 5.50106e-05
32 *3:41 *637:64 5.50106e-05
33 *3:41 *637:83 0.00108116
*RES
1 wb_clk_i *3:11 16.9616
2 *3:11 *3:13 79.6432
3 *3:13 *3:19 44.0915
4 *3:19 *3:23 26.2375
5 *3:23 *3:25 86.855
6 *3:25 *3:41 49.2586
7 *3:41 *3:47 31.5536
8 *3:47 *1061:DIODE 23
9 *3:41 *11921:A 23
*END

*D_NET *4 0.000411272
*CONN
*P wb_rst_i I
*I *12164:A I *D sky130_fd_sc_hd__buf_1
*CAP
1 wb_rst_i 0.000191686
2 *12164:A 0.000191686
3 *12164:A wbs_ack_o 0
4 *12164:A *318:8 2.79004e-05
5 *3:11 *12164:A 0
*RES
1 wb_rst_i *12164:A 41.6871
*END

*D_NET *5 0.000860018
*CONN
*P wbs_ack_o O
*I *12218:X O *D sky130_fd_sc_hd__buf_12
*CAP
1 wbs_ack_o 0.000430009
2 *12218:X 0.000430009
3 wbs_ack_o *318:8 0
4 *12164:A wbs_ack_o 0
*RES
1 *12218:X wbs_ack_o 45.4571
*END

*D_NET *7 0.00466101
*CONN
*P wbs_adr_i[10] I
*I *11995:A I *D sky130_fd_sc_hd__dlygate4sd3_1
*CAP
1 wbs_adr_i[10] 0.00162031
2 *11995:A 0
3 *7:13 0.00162031
4 *7:13 wbs_dat_o[10] 0.000567191
5 *7:13 wbs_dat_o[9] 0
6 *7:13 *40:15 0
7 *7:13 *70:15 0.000754704
8 *7:13 *525:8 9.84851e-05
*RES
1 wbs_adr_i[10] *7:13 39.94
2 *7:13 *11995:A 23
*END

*D_NET *8 0.00334756
*CONN
*P wbs_adr_i[11] I
*I *11990:A I *D sky130_fd_sc_hd__dlygate4sd3_1
*CAP
1 wbs_adr_i[11] 0.00106463
2 *11990:A 0
3 *8:9 0.00106463
4 *8:9 *655:DIODE 3.22879e-05
5 *8:9 *12038:A 5.3304e-05
6 *8:9 *41:9 0
7 *8:9 *383:8 0.000166513
8 *8:9 *385:10 0
9 *8:9 *521:6 0.000393958
10 *8:9 *540:10 0.000187609
11 *8:9 *591:24 0
12 *8:9 *630:80 0.000233367
13 *8:9 *632:136 0.000151265
*RES
1 wbs_adr_i[11] *8:9 35.59
2 *8:9 *11990:A 23
*END

*D_NET *9 0.00187343
*CONN
*P wbs_adr_i[12] I
*I *12021:A I *D sky130_fd_sc_hd__dlygate4sd3_1
*CAP
1 wbs_adr_i[12] 0.000716179
2 *12021:A 0
3 *9:13 0.000716179
4 *9:13 wbs_dat_o[11] 0
5 *9:13 *42:9 0
6 *9:13 *593:28 0.00044107
*RES
1 wbs_adr_i[12] *9:13 27.035
2 *9:13 *12021:A 23
*END

*D_NET *10 0.00112748
*CONN
*P wbs_adr_i[13] I
*I *12031:A I *D sky130_fd_sc_hd__dlygate4sd3_1
*CAP
1 wbs_adr_i[13] 0.000462724
2 *12031:A 0.000462724
3 *12031:A *11993:A 0
4 *12031:A *370:14 0
5 *12031:A *378:8 7.66188e-05
6 *12031:A *407:8 0
7 *12031:A *600:14 0.000125416
*RES
1 wbs_adr_i[13] *12031:A 47.3629
*END

*D_NET *28 0.00262982
*CONN
*P wbs_adr_i[2] I
*I *12012:A I *D sky130_fd_sc_hd__dlygate4sd3_1
*CAP
1 wbs_adr_i[2] 0.000884122
2 *12012:A 0
3 *28:13 0.000884122
4 *28:13 *675:DIODE 0
5 *28:13 *61:15 7.59794e-05
6 *28:13 *104:11 0
7 *28:13 *120:28 1.22803e-05
8 *28:13 *318:20 0.00030139
9 *28:13 *435:10 0.000140259
10 *28:13 *523:8 0
11 *28:13 *545:10 0.000172942
12 *28:13 *614:8 0
13 *28:13 *631:30 0.000158722
*RES
1 wbs_adr_i[2] *28:13 32.1514
2 *28:13 *12012:A 23
*END

*D_NET *31 0.00341324
*CONN
*P wbs_adr_i[3] I
*I *12010:A I *D sky130_fd_sc_hd__dlygate4sd3_1
*CAP
1 wbs_adr_i[3] 0.00101449
2 *12010:A 0
3 *31:9 0.00101449
4 *31:9 *676:DIODE 9.84794e-05
5 *31:9 *681:DIODE 0.000119486
6 *31:9 *12075:A 0
7 *31:9 *105:13 0
8 *31:9 *408:10 0
9 *31:9 *419:8 0.000147874
10 *31:9 *519:10 4.66047e-05
11 *31:9 *542:6 0.000393298
12 *31:9 *546:10 0
13 *31:9 *583:14 0
14 *31:9 *588:30 0.000578507
15 *31:9 *607:8 0
16 *31:9 *624:10 0
*RES
1 wbs_adr_i[3] *31:9 36.5843
2 *31:9 *12010:A 23
*END

*D_NET *32 0.00234556
*CONN
*P wbs_adr_i[4] I
*I *12008:A I *D sky130_fd_sc_hd__dlygate4sd3_1
*CAP
1 wbs_adr_i[4] 0.000796131
2 *12008:A 0
3 *32:9 0.000796131
4 *32:9 *106:9 0
5 *32:9 *363:39 0.000180224
6 *32:9 *510:10 0.000405076
7 *32:9 *620:22 0.000167998
*RES
1 wbs_adr_i[4] *32:9 28.5679
2 *32:9 *12008:A 23
*END

*D_NET *33 0.00248286
*CONN
*P wbs_adr_i[5] I
*I *11999:A I *D sky130_fd_sc_hd__dlygate4sd3_1
*CAP
1 wbs_adr_i[5] 0.00040721
2 *11999:A 0
3 *33:13 0.00040721
4 *33:13 wbs_dat_o[4] 0
5 *33:13 *530:10 3.78847e-05
6 *33:13 *596:16 0.000189085
7 *33:13 *618:10 0.000820135
8 *33:13 *619:16 0.000393858
9 *33:13 *620:36 0.000227473
*RES
1 wbs_adr_i[5] *33:13 27.5529
2 *33:13 *11999:A 23
*END

*D_NET *34 0.00190464
*CONN
*P wbs_adr_i[6] I
*I *12003:A I *D sky130_fd_sc_hd__dlygate4sd3_1
*CAP
1 wbs_adr_i[6] 0.000640048
2 *12003:A 0
3 *34:17 0.000640048
4 *34:17 wbs_dat_o[5] 5.50106e-05
5 *34:17 *534:10 0.000138048
6 *34:17 *620:36 0.000319061
7 *34:17 *621:20 0.000112419
*RES
1 wbs_adr_i[6] *34:17 29.5
2 *34:17 *12003:A 23
*END

*D_NET *35 0.00171148
*CONN
*P wbs_adr_i[7] I
*I *12006:A I *D sky130_fd_sc_hd__dlygate4sd3_1
*CAP
1 wbs_adr_i[7] 0.000643692
2 *12006:A 0
3 *35:9 0.000643692
4 *35:9 *12060:A 0
5 *35:9 *330:8 0
6 *35:9 *396:16 0.000259582
7 *35:9 *574:16 0
8 *35:9 *592:12 0.000164518
*RES
1 wbs_adr_i[7] *35:9 27.18
2 *35:9 *12006:A 23
*END

*D_NET *36 0.00134905
*CONN
*P wbs_adr_i[8] I
*I *12001:A I *D sky130_fd_sc_hd__dlygate4sd3_1
*CAP
1 wbs_adr_i[8] 0.000569779
2 *12001:A 0.000569779
3 *12001:A *69:13 0
4 *12001:A *404:10 0
5 *12001:A *508:10 0
6 *12001:A *532:8 0
7 *12001:A *592:12 2.93747e-05
8 *12001:A *622:28 0.000180114
*RES
1 wbs_adr_i[8] *12001:A 47.3214
*END

*D_NET *37 0.00315336
*CONN
*P wbs_adr_i[9] I
*I *11997:A I *D sky130_fd_sc_hd__dlygate4sd3_1
*CAP
1 wbs_adr_i[9] 0.00079087
2 *11997:A 0
3 *37:17 0.00079087
4 *37:17 wbs_dat_o[8] 0
5 *37:17 *70:15 0
6 *37:17 *352:8 0
7 *37:17 *388:10 0.000121786
8 *37:17 *397:6 0.000717194
9 *37:17 *398:10 0.000130202
10 *37:17 *452:20 0
11 *37:17 *592:12 0.000602437
12 *37:17 *623:20 0
*RES
1 wbs_adr_i[9] *37:17 35.6107
2 *37:17 *11997:A 23
*END

*D_NET *38 0.000799134
*CONN
*P wbs_cyc_i I
*I *12033:A I *D sky130_fd_sc_hd__dlygate4sd3_1
*CAP
1 wbs_cyc_i 0.000346005
2 *12033:A 0.000346005
3 *12033:A *12169:A 5.50106e-05
4 *12033:A *12210:A 0
5 *12033:A *363:8 5.21127e-05
*RES
1 wbs_cyc_i *12033:A 44.5457
*END

*D_NET *39 0.000779753
*CONN
*P wbs_dat_i[0] I
*I *12101:A I *D sky130_fd_sc_hd__dlygate4sd3_1
*CAP
1 wbs_dat_i[0] 0.000380142
2 *12101:A 0.000380142
3 *12101:A wbs_dat_o[0] 0
4 *12101:A *374:10 0
5 *12101:A *446:10 1.94693e-05
*RES
1 wbs_dat_i[0] *12101:A 44.5457
*END

*D_NET *40 0.00377949
*CONN
*P wbs_dat_i[10] I
*I *12040:A I *D sky130_fd_sc_hd__dlygate4sd3_1
*CAP
1 wbs_dat_i[10] 0.00132143
2 *12040:A 0
3 *40:15 0.00132143
4 *40:15 wbs_dat_o[10] 0
5 *40:15 *12041:A 0.000102093
6 *40:15 *384:10 0.000182036
7 *40:15 *385:10 0
8 *40:15 *390:8 0.00039285
9 *40:15 *592:12 0.000125334
10 *40:15 *592:26 0.000334314
11 *7:13 *40:15 0
*RES
1 wbs_dat_i[10] *40:15 37.1436
2 *40:15 *12040:A 23
*END

*D_NET *41 0.00173411
*CONN
*P wbs_dat_i[11] I
*I *12035:A I *D sky130_fd_sc_hd__dlygate4sd3_1
*CAP
1 wbs_dat_i[11] 0.000584248
2 *12035:A 0
3 *41:9 0.000584248
4 *41:9 wbs_dat_o[11] 0
5 *41:9 *525:14 0.000129601
6 *41:9 *592:26 0.000322233
7 *41:9 *595:14 0.000113783
8 *8:9 *41:9 0
*RES
1 wbs_dat_i[11] *41:9 27.18
2 *41:9 *12035:A 23
*END

*D_NET *42 0.00202617
*CONN
*P wbs_dat_i[12] I
*I *12015:A I *D sky130_fd_sc_hd__dlygate4sd3_1
*CAP
1 wbs_dat_i[12] 0.000642055
2 *12015:A 0
3 *42:9 0.000642055
4 *42:9 wbs_dat_o[12] 0
5 *42:9 *652:DIODE 8.85189e-05
6 *42:9 *149:59 5.27225e-05
7 *42:9 *149:61 0.000194245
8 *42:9 *370:6 0.000406574
9 *42:9 *553:10 0
10 *42:9 *574:8 0
11 *9:13 *42:9 0
*RES
1 wbs_dat_i[12] *42:9 28.1329
2 *42:9 *12015:A 23
*END

*D_NET *43 0.00171224
*CONN
*P wbs_dat_i[13] I
*I *11993:A I *D sky130_fd_sc_hd__dlygate4sd3_1
*CAP
1 wbs_dat_i[13] 0.000438403
2 *11993:A 0.000438403
3 *11993:A *370:14 0.000447581
4 *11993:A *377:8 2.93845e-05
5 *11993:A *418:8 0
6 *11993:A *595:14 7.15126e-05
7 *11993:A *604:12 0.000286959
8 *12031:A *11993:A 0
*RES
1 wbs_dat_i[13] *11993:A 48.6264
*END

*D_NET *44 0.00102991
*CONN
*P wbs_dat_i[14] I
*I *11971:A I *D sky130_fd_sc_hd__dlygate4sd3_1
*CAP
1 wbs_dat_i[14] 0.000372996
2 *11971:A 0.000372996
3 *11971:A wbs_dat_o[14] 0
4 *11971:A *376:10 0
5 *11971:A *430:10 0
6 *11971:A *595:22 0.00014196
7 *11971:A *605:22 0.00014196
*RES
1 wbs_dat_i[14] *11971:A 45.4571
*END

*D_NET *45 0.000969736
*CONN
*P wbs_dat_i[15] I
*I *12091:A I *D sky130_fd_sc_hd__dlygate4sd3_1
*CAP
1 wbs_dat_i[15] 0.000386492
2 *12091:A 0.000386492
3 *12091:A wbs_dat_o[15] 0
4 *12091:A *600:14 5.47927e-05
5 *12091:A *605:22 0.00014196
*RES
1 wbs_dat_i[15] *12091:A 45.4571
*END

*D_NET *46 0.00236793
*CONN
*P wbs_dat_i[16] I
*I *12077:A I *D sky130_fd_sc_hd__dlygate4sd3_1
*CAP
1 wbs_dat_i[16] 0.000917007
2 *12077:A 0
3 *46:11 0.000917007
4 *46:11 wbs_dat_o[16] 0
5 *46:11 *907:DIODE 2.93431e-05
6 *46:11 *367:10 6.63698e-05
7 *46:11 *416:10 0
8 *46:11 *452:8 4.90891e-05
9 *46:11 *605:24 0.000389114
*RES
1 wbs_dat_i[16] *46:11 33.0836
2 *46:11 *12077:A 23
*END

*D_NET *47 0.000804847
*CONN
*P wbs_dat_i[17] I
*I *12084:A I *D sky130_fd_sc_hd__dlygate4sd3_1
*CAP
1 wbs_dat_i[17] 0.000375354
2 *12084:A 0.000375354
3 *12084:A wbs_dat_o[17] 0
4 *12084:A *427:8 0
5 *12084:A *605:24 5.41385e-05
*RES
1 wbs_dat_i[17] *12084:A 44.9807
*END

*D_NET *48 0.00134473
*CONN
*P wbs_dat_i[18] I
*I *12088:A I *D sky130_fd_sc_hd__dlygate4sd3_1
*CAP
1 wbs_dat_i[18] 0.000545071
2 *12088:A 0.000545071
3 *12088:A wbs_dat_o[18] 0
4 *12088:A *606:28 0.000254591
*RES
1 wbs_dat_i[18] *12088:A 47.6943
*END

*D_NET *49 0.00273125
*CONN
*P wbs_dat_i[19] I
*I *12099:A I *D sky130_fd_sc_hd__dlygate4sd3_1
*CAP
1 wbs_dat_i[19] 0.000553945
2 *12099:A 0
3 *49:11 0.000553945
4 *49:11 wbs_dat_o[19] 0
5 *49:11 *12097:A 0.000233146
6 *49:11 *433:10 5.50106e-05
7 *49:11 *442:10 5.72217e-05
8 *49:11 *606:28 0.00127799
*RES
1 wbs_dat_i[19] *49:11 32.1721
2 *49:11 *12099:A 23
*END

*D_NET *50 0.00242568
*CONN
*P wbs_dat_i[1] I
*I *12095:A I *D sky130_fd_sc_hd__dlygate4sd3_1
*CAP
1 wbs_dat_i[1] 0.000684857
2 *12095:A 0
3 *50:13 0.000684857
4 *50:13 wbs_dat_o[1] 0
5 *50:13 *104:11 0.000107611
6 *50:13 *558:8 0.000140958
7 *50:13 *559:10 0.000241583
8 *50:13 *588:6 0.000564067
9 *50:13 *602:8 1.74874e-06
*RES
1 wbs_dat_i[1] *50:13 28.8164
2 *50:13 *12095:A 23
*END

*D_NET *51 0.000809713
*CONN
*P wbs_dat_i[20] I
*I *12106:A I *D sky130_fd_sc_hd__dlygate4sd3_1
*CAP
1 wbs_dat_i[20] 0.000377043
2 *12106:A 0.000377043
3 *12106:A *12231:A 5.56279e-05
*RES
1 wbs_dat_i[20] *12106:A 44.5043
*END

*D_NET *52 0.00155052
*CONN
*P wbs_dat_i[21] I
*I *12110:A I *D sky130_fd_sc_hd__dlygate4sd3_1
*CAP
1 wbs_dat_i[21] 0.000571719
2 *12110:A 0.000571719
3 *12110:A *455:10 1.35751e-05
4 *12110:A *507:8 0.000393505
*RES
1 wbs_dat_i[21] *12110:A 49.2271
*END

*D_NET *53 0.000747451
*CONN
*P wbs_dat_i[22] I
*I *12115:A I *D sky130_fd_sc_hd__dlygate4sd3_1
*CAP
1 wbs_dat_i[22] 0.000297275
2 *12115:A 0.000297275
3 *12115:A *606:28 0.000152901
4 *12115:A *609:34 0
*RES
1 wbs_dat_i[22] *12115:A 44.0693
*END

*D_NET *54 0.00369835
*CONN
*P wbs_dat_i[23] I
*I *12119:A I *D sky130_fd_sc_hd__dlygate4sd3_1
*CAP
1 wbs_dat_i[23] 0.00126152
2 *12119:A 0
3 *54:13 0.00126152
4 *54:13 wbs_dat_o[23] 0.000663653
5 *54:13 *12234:A 0.00036758
6 *54:13 *464:8 0.000144067
*RES
1 wbs_dat_i[23] *54:13 36.1286
2 *54:13 *12119:A 23
*END

*D_NET *55 0.000992095
*CONN
*P wbs_dat_i[24] I
*I *12123:A I *D sky130_fd_sc_hd__dlygate4sd3_1
*CAP
1 wbs_dat_i[24] 0.000444276
2 *12123:A 0.000444276
3 *12123:A wbs_dat_o[24] 0
4 *12123:A *608:22 0.000103542
*RES
1 wbs_dat_i[24] *12123:A 45.9336
*END

*D_NET *56 0.00215851
*CONN
*P wbs_dat_i[25] I
*I *11942:A I *D sky130_fd_sc_hd__dlygate4sd3_1
*CAP
1 wbs_dat_i[25] 0.000980649
2 *11942:A 0
3 *56:13 0.000980649
4 *56:13 wbs_dat_o[25] 0
5 *56:13 *11939:A 0
6 *56:13 *472:10 0.000141573
7 *56:13 *552:8 0
8 *56:13 *563:10 5.56356e-05
9 *56:13 *609:44 0
*RES
1 wbs_dat_i[25] *56:13 32.2757
2 *56:13 *11942:A 23
*END

*D_NET *57 0.000338844
*CONN
*P wbs_dat_i[26] I
*I *11946:A I *D sky130_fd_sc_hd__dlygate4sd3_1
*CAP
1 wbs_dat_i[26] 0.000169422
2 *11946:A 0.000169422
3 *11946:A wbs_dat_o[26] 0
*RES
1 wbs_dat_i[26] *11946:A 41.0657
*END

*D_NET *58 0.00151447
*CONN
*P wbs_dat_i[27] I
*I *11951:A I *D sky130_fd_sc_hd__dlygate4sd3_1
*CAP
1 wbs_dat_i[27] 0.000690329
2 *11951:A 0
3 *58:9 0.000690329
4 *58:9 wbs_dat_o[27] 0
5 *58:9 *475:8 0.00013381
6 *58:9 *477:16 0
7 *58:9 *567:8 0
*RES
1 wbs_dat_i[27] *58:9 27.18
2 *58:9 *11951:A 23
*END

*D_NET *59 0.00239108
*CONN
*P wbs_dat_i[28] I
*I *11955:A I *D sky130_fd_sc_hd__dlygate4sd3_1
*CAP
1 wbs_dat_i[28] 0.00077564
2 *11955:A 0
3 *59:17 0.00077564
4 *59:17 wbs_dat_o[28] 0
5 *59:17 *11953:A 0
6 *59:17 *486:8 0.000119313
7 *59:17 *569:10 0.000720482
*RES
1 wbs_dat_i[28] *59:17 32.3586
2 *59:17 *11955:A 23
*END

*D_NET *60 0.00111586
*CONN
*P wbs_dat_i[29] I
*I *11959:A I *D sky130_fd_sc_hd__dlygate4sd3_1
*CAP
1 wbs_dat_i[29] 0.000451303
2 *11959:A 0.000451303
3 *11959:A wbs_dat_o[29] 0
4 *11959:A *12240:A 9.84851e-05
5 *11959:A *568:16 0.000114774
*RES
1 wbs_dat_i[29] *11959:A 44.9807
*END

*D_NET *61 0.00437806
*CONN
*P wbs_dat_i[2] I
*I *12090:A I *D sky130_fd_sc_hd__dlygate4sd3_1
*CAP
1 wbs_dat_i[2] 0.00168715
2 *12090:A 0
3 *61:15 0.00168715
4 *61:15 *670:DIODE 0.000159725
5 *61:15 *11832:A2 2.26406e-05
6 *61:15 *118:24 4.51454e-05
7 *61:15 *132:18 0
8 *61:15 *208:29 0.00013063
9 *61:15 *363:18 0
10 *61:15 *435:10 3.28795e-05
11 *61:15 *545:10 0
12 *61:15 *596:8 0
13 *61:15 *614:8 0.000107823
14 *61:15 *631:22 0.000174519
15 *61:15 *631:30 0.000254424
16 *28:13 *61:15 7.59794e-05
*RES
1 wbs_dat_i[2] *61:15 40.8721
2 *61:15 *12090:A 23
*END

*D_NET *62 0.000818528
*CONN
*P wbs_dat_i[30] I
*I *11964:A I *D sky130_fd_sc_hd__dlygate4sd3_1
*CAP
1 wbs_dat_i[30] 0.000289393
2 *11964:A 0.000289393
3 *11964:A wbs_dat_o[30] 0
4 *11964:A *529:20 0.000141258
5 *11964:A *572:8 0
6 *11964:A *615:22 9.84851e-05
*RES
1 wbs_dat_i[30] *11964:A 44.9807
*END

*D_NET *63 0.00075656
*CONN
*P wbs_dat_i[31] I
*I *11968:A I *D sky130_fd_sc_hd__dlygate4sd3_1
*CAP
1 wbs_dat_i[31] 0.000339976
2 *11968:A 0.000339976
3 *11968:A wbs_dat_o[31] 0
4 *11968:A *573:10 7.66085e-05
*RES
1 wbs_dat_i[31] *11968:A 44.9807
*END

*D_NET *64 0.00140515
*CONN
*P wbs_dat_i[3] I
*I *12075:A I *D sky130_fd_sc_hd__dlygate4sd3_1
*CAP
1 wbs_dat_i[3] 0.000440283
2 *12075:A 0.000440283
3 *12075:A wbs_dat_o[3] 0
4 *12075:A *408:10 0.000410218
5 *12075:A *543:10 0
6 *12075:A *587:16 0
7 *12075:A *607:8 2.75733e-06
8 *12075:A *619:10 0.000111609
9 *31:9 *12075:A 0
*RES
1 wbs_dat_i[3] *12075:A 47.4664
*END

*D_NET *65 0.00216981
*CONN
*P wbs_dat_i[4] I
*I *12068:A I *D sky130_fd_sc_hd__dlygate4sd3_1
*CAP
1 wbs_dat_i[4] 0.000841364
2 *12068:A 0
3 *65:9 0.000841364
4 *65:9 *363:39 0.000315857
5 *65:9 *412:8 0.000135557
6 *65:9 *539:10 0
7 *65:9 *575:14 0
8 *65:9 *576:10 0
9 *65:9 *582:14 3.5664e-05
10 *65:9 *620:22 0
*RES
1 wbs_dat_i[4] *65:9 29.9971
2 *65:9 *12068:A 23
*END

*D_NET *66 0.00218953
*CONN
*P wbs_dat_i[5] I
*I *12066:A I *D sky130_fd_sc_hd__dlygate4sd3_1
*CAP
1 wbs_dat_i[5] 0.000781423
2 *12066:A 0
3 *66:9 0.000781423
4 *66:9 wbs_dat_o[5] 0
5 *66:9 *363:39 5.50106e-05
6 *66:9 *410:8 6.33614e-05
7 *66:9 *531:8 0.000335165
8 *66:9 *577:12 0
9 *66:9 *607:16 0
10 *66:9 *621:10 0.000173152
*RES
1 wbs_dat_i[5] *66:9 30.4736
2 *66:9 *12066:A 23
*END

*D_NET *67 0.000704657
*CONN
*P wbs_dat_i[6] I
*I *12062:A I *D sky130_fd_sc_hd__dlygate4sd3_1
*CAP
1 wbs_dat_i[6] 0.000314537
2 *12062:A 0.000314537
3 *12062:A *394:8 7.55832e-05
4 *12062:A *407:16 0
*RES
1 wbs_dat_i[6] *12062:A 43.8829
*END

*D_NET *68 0.00077065
*CONN
*P wbs_dat_i[7] I
*I *12060:A I *D sky130_fd_sc_hd__dlygate4sd3_1
*CAP
1 wbs_dat_i[7] 0.000382238
2 *12060:A 0.000382238
3 *12060:A wbs_dat_o[7] 0
4 *12060:A *403:10 6.17437e-06
5 *35:9 *12060:A 0
*RES
1 wbs_dat_i[7] *12060:A 44.0693
*END

*D_NET *69 0.00236806
*CONN
*P wbs_dat_i[8] I
*I *12053:A I *D sky130_fd_sc_hd__dlygate4sd3_1
*CAP
1 wbs_dat_i[8] 0.000898591
2 *12053:A 0
3 *69:13 0.000898591
4 *69:13 *508:10 0.000413591
5 *69:13 *533:10 2.64616e-05
6 *69:13 *592:12 0.000130821
7 *12001:A *69:13 0
*RES
1 wbs_dat_i[8] *69:13 27.9464
2 *69:13 *12053:A 23
*END

*D_NET *70 0.00323236
*CONN
*P wbs_dat_i[9] I
*I *12046:A I *D sky130_fd_sc_hd__dlygate4sd3_1
*CAP
1 wbs_dat_i[9] 0.00119946
2 *12046:A 0
3 *70:15 0.00119946
4 *70:15 wbs_dat_o[9] 0
5 *70:15 *388:10 7.87243e-05
6 *7:13 *70:15 0.000754704
7 *37:17 *70:15 0
*RES
1 wbs_dat_i[9] *70:15 36.2736
2 *70:15 *12046:A 23
*END

*D_NET *71 0.00105122
*CONN
*P wbs_dat_o[0] O
*I *12219:X O *D sky130_fd_sc_hd__buf_12
*CAP
1 wbs_dat_o[0] 0.000414454
2 *12219:X 0.000414454
3 wbs_dat_o[0] *12030:A 0
4 wbs_dat_o[0] *446:10 0
5 wbs_dat_o[0] *447:8 0.000168211
6 wbs_dat_o[0] *588:6 5.40971e-05
7 *12101:A wbs_dat_o[0] 0
*RES
1 *12219:X wbs_dat_o[0] 45.7471
*END

*D_NET *72 0.00148238
*CONN
*P wbs_dat_o[10] O
*I *12220:X O *D sky130_fd_sc_hd__buf_12
*CAP
1 wbs_dat_o[10] 0.000441872
2 *12220:X 0.000441872
3 wbs_dat_o[10] *591:24 3.1441e-05
4 *7:13 wbs_dat_o[10] 0.000567191
5 *40:15 wbs_dat_o[10] 0
*RES
1 *12220:X wbs_dat_o[10] 47.0521
*END

*D_NET *73 0.00121103
*CONN
*P wbs_dat_o[11] O
*I *12221:X O *D sky130_fd_sc_hd__buf_12
*CAP
1 wbs_dat_o[11] 0.000399714
2 *12221:X 0.000399714
3 wbs_dat_o[11] *396:8 3.14565e-05
4 wbs_dat_o[11] *593:28 0.000272383
5 wbs_dat_o[11] *600:14 0.00010776
6 *9:13 wbs_dat_o[11] 0
7 *41:9 wbs_dat_o[11] 0
*RES
1 *12221:X wbs_dat_o[11] 46.8864
*END

*D_NET *74 0.00119587
*CONN
*P wbs_dat_o[12] O
*I *12222:X O *D sky130_fd_sc_hd__buf_12
*CAP
1 wbs_dat_o[12] 0.000408696
2 *12222:X 0.000408696
3 wbs_dat_o[12] *149:61 0
4 wbs_dat_o[12] *407:8 0.000191926
5 wbs_dat_o[12] *553:10 4.49881e-05
6 wbs_dat_o[12] *574:8 0
7 wbs_dat_o[12] *593:28 5.56356e-05
8 wbs_dat_o[12] *600:14 8.59256e-05
9 *42:9 wbs_dat_o[12] 0
*RES
1 *12222:X wbs_dat_o[12] 46.8864
*END

*D_NET *75 0.00132701
*CONN
*P wbs_dat_o[13] O
*I *12223:X O *D sky130_fd_sc_hd__buf_12
*CAP
1 wbs_dat_o[13] 0.000394102
2 *12223:X 0.000394102
3 wbs_dat_o[13] *364:10 0.000119056
4 wbs_dat_o[13] *418:8 0.000184858
5 wbs_dat_o[13] *594:30 5.56356e-05
6 wbs_dat_o[13] *595:22 0.000143535
7 wbs_dat_o[13] *600:14 2.32787e-05
8 wbs_dat_o[13] *604:12 0
9 wbs_dat_o[13] *605:22 1.24376e-05
*RES
1 *12223:X wbs_dat_o[13] 46.8864
*END

*D_NET *76 0.00165946
*CONN
*P wbs_dat_o[14] O
*I *12224:X O *D sky130_fd_sc_hd__buf_12
*CAP
1 wbs_dat_o[14] 0.00047738
2 *12224:X 0.00047738
3 wbs_dat_o[14] *372:8 0.000196794
4 wbs_dat_o[14] *430:10 4.71078e-05
5 wbs_dat_o[14] *595:22 9.77405e-05
6 wbs_dat_o[14] *600:14 6.09861e-05
7 wbs_dat_o[14] *605:22 0.000302073
8 *11971:A wbs_dat_o[14] 0
*RES
1 *12224:X wbs_dat_o[14] 48.1293
*END

*D_NET *77 0.00179299
*CONN
*P wbs_dat_o[15] O
*I *12225:X O *D sky130_fd_sc_hd__buf_12
*CAP
1 wbs_dat_o[15] 0.000551736
2 *12225:X 0.000551736
3 wbs_dat_o[15] *785:DIODE 0.0001366
4 wbs_dat_o[15] *366:10 0.00019338
5 wbs_dat_o[15] *605:22 0.000359536
6 *12091:A wbs_dat_o[15] 0
*RES
1 *12225:X wbs_dat_o[15] 48.6057
*END

*D_NET *78 0.000694758
*CONN
*P wbs_dat_o[16] O
*I *12226:X O *D sky130_fd_sc_hd__buf_12
*CAP
1 wbs_dat_o[16] 0.000305706
2 *12226:X 0.000305706
3 wbs_dat_o[16] *416:10 8.33469e-05
4 wbs_dat_o[16] *422:10 0
5 wbs_dat_o[16] *452:8 0
6 *46:11 wbs_dat_o[16] 0
*RES
1 *12226:X wbs_dat_o[16] 43.8829
*END

*D_NET *79 0.00253239
*CONN
*P wbs_dat_o[17] O
*I *12227:X O *D sky130_fd_sc_hd__buf_12
*CAP
1 wbs_dat_o[17] 0.000571795
2 *12227:X 9.19376e-05
3 *79:8 0.000663733
4 wbs_dat_o[17] *1062:DIODE 6.67764e-05
5 wbs_dat_o[17] *155:64 5.57725e-05
6 wbs_dat_o[17] *155:66 0.000100069
7 wbs_dat_o[17] *425:10 0
8 wbs_dat_o[17] *427:8 0.000197479
9 wbs_dat_o[17] *600:24 8.36011e-05
10 *79:8 *599:20 0.000182832
11 *79:8 *632:221 0.000119208
12 *79:8 *634:148 0.000399183
13 *12084:A wbs_dat_o[17] 0
*RES
1 *12227:X *79:8 42.4329
2 *79:8 wbs_dat_o[17] 11.5171
*END

*D_NET *80 0.00327158
*CONN
*P wbs_dat_o[18] O
*I *12228:X O *D sky130_fd_sc_hd__buf_12
*CAP
1 wbs_dat_o[18] 0.00029129
2 *12228:X 0.000837835
3 *80:8 0.00112912
4 wbs_dat_o[18] *1074:DIODE 5.80963e-05
5 *80:8 *12228:A 0.000463852
6 *80:8 *431:6 0.000408549
7 *80:8 *605:24 8.2832e-05
8 *12088:A wbs_dat_o[18] 0
*RES
1 *12228:X *80:8 39.8407
2 *80:8 wbs_dat_o[18] 20.5307
*END

*D_NET *81 0.00326885
*CONN
*P wbs_dat_o[19] O
*I *12229:X O *D sky130_fd_sc_hd__buf_12
*CAP
1 wbs_dat_o[19] 0.000486201
2 *12229:X 0.000858624
3 *81:8 0.00134483
4 wbs_dat_o[19] *1086:DIODE 6.10867e-05
5 wbs_dat_o[19] *159:61 2.71226e-05
6 wbs_dat_o[19] *433:10 0
7 wbs_dat_o[19] *442:10 0
8 *81:8 *1094:DIODE 2.31797e-05
9 *81:8 *601:28 0.00046781
10 *49:11 wbs_dat_o[19] 0
*RES
1 *12229:X *81:8 39.7164
2 *81:8 wbs_dat_o[19] 23.3479
*END

*D_NET *82 0.000730942
*CONN
*P wbs_dat_o[1] O
*I *12230:X O *D sky130_fd_sc_hd__buf_12
*CAP
1 wbs_dat_o[1] 0.000365471
2 *12230:X 0.000365471
3 wbs_dat_o[1] *104:11 0
4 wbs_dat_o[1] *556:10 0
5 wbs_dat_o[1] *558:8 0
6 *50:13 wbs_dat_o[1] 0
*RES
1 *12230:X wbs_dat_o[1] 43.8829
*END

*D_NET *83 0.00198777
*CONN
*P wbs_dat_o[20] O
*I *12231:X O *D sky130_fd_sc_hd__buf_12
*CAP
1 wbs_dat_o[20] 0.00012086
2 *12231:X 0.000504795
3 *83:10 0.000625655
4 *83:10 *1099:DIODE 0.000166513
5 *83:10 *12231:A 0.000446281
6 *83:10 *450:8 0
7 *83:10 *451:8 0
8 *83:10 *605:24 0.000123665
*RES
1 *12231:X *83:10 49.8382
2 *83:10 wbs_dat_o[20] 2.1025
*END

*D_NET *84 0.00211052
*CONN
*P wbs_dat_o[21] O
*I *12232:X O *D sky130_fd_sc_hd__buf_12
*CAP
1 wbs_dat_o[21] 0.000461059
2 *12232:X 0.000461059
3 wbs_dat_o[21] *12108:A 0.00014196
4 wbs_dat_o[21] *604:22 0.0002246
5 wbs_dat_o[21] *606:28 0.000821848
*RES
1 *12232:X wbs_dat_o[21] 49.9107
*END

*D_NET *85 0.00209671
*CONN
*P wbs_dat_o[22] O
*I *12233:X O *D sky130_fd_sc_hd__buf_12
*CAP
1 wbs_dat_o[22] 0.000305383
2 *12233:X 0.000220701
3 *85:8 0.000526084
4 wbs_dat_o[22] *459:10 0.000141879
5 *85:8 *12233:A 0.000388065
6 *85:8 *457:6 0.000392374
7 *85:8 *608:22 0.000122226
*RES
1 *12233:X *85:8 44.815
2 *85:8 wbs_dat_o[22] 5.88286
*END

*D_NET *86 0.00178703
*CONN
*P wbs_dat_o[23] O
*I *12234:X O *D sky130_fd_sc_hd__buf_12
*CAP
1 wbs_dat_o[23] 0.000282916
2 *12234:X 0.000282916
3 wbs_dat_o[23] *12234:A 0.000196523
4 wbs_dat_o[23] *464:8 0.000361027
5 *54:13 wbs_dat_o[23] 0.000663653
*RES
1 *12234:X wbs_dat_o[23] 48.005
*END

*D_NET *87 0.00114496
*CONN
*P wbs_dat_o[24] O
*I *12235:X O *D sky130_fd_sc_hd__buf_12
*CAP
1 wbs_dat_o[24] 0.000533036
2 *12235:X 0.000533036
3 wbs_dat_o[24] *608:22 7.88926e-05
4 *12123:A wbs_dat_o[24] 0
*RES
1 *12235:X wbs_dat_o[24] 47.8393
*END

*D_NET *88 0.00100219
*CONN
*P wbs_dat_o[25] O
*I *12236:X O *D sky130_fd_sc_hd__buf_12
*CAP
1 wbs_dat_o[25] 0.000501095
2 *12236:X 0.000501095
3 *56:13 wbs_dat_o[25] 0
*RES
1 *12236:X wbs_dat_o[25] 46.3893
*END

*D_NET *89 0.00122431
*CONN
*P wbs_dat_o[26] O
*I *12237:X O *D sky130_fd_sc_hd__buf_12
*CAP
1 wbs_dat_o[26] 0.000510428
2 *12237:X 0.000510428
3 wbs_dat_o[26] *478:8 6.12832e-05
4 wbs_dat_o[26] *610:30 0.000142173
5 *11946:A wbs_dat_o[26] 0
*RES
1 *12237:X wbs_dat_o[26] 47.8393
*END

*D_NET *90 0.00109757
*CONN
*P wbs_dat_o[27] O
*I *12238:X O *D sky130_fd_sc_hd__buf_12
*CAP
1 wbs_dat_o[27] 0.00049192
2 *12238:X 0.00049192
3 wbs_dat_o[27] *477:16 0
4 wbs_dat_o[27] *481:8 0
5 wbs_dat_o[27] *568:8 5.80963e-05
6 wbs_dat_o[27] *611:36 5.56356e-05
7 *58:9 wbs_dat_o[27] 0
*RES
1 *12238:X wbs_dat_o[27] 46.8864
*END

*D_NET *91 0.00108093
*CONN
*P wbs_dat_o[28] O
*I *12239:X O *D sky130_fd_sc_hd__buf_12
*CAP
1 wbs_dat_o[28] 0.000512958
2 *12239:X 0.000512958
3 wbs_dat_o[28] *11953:A 0
4 wbs_dat_o[28] *487:8 0
5 wbs_dat_o[28] *612:34 5.50106e-05
6 *59:17 wbs_dat_o[28] 0
*RES
1 *12239:X wbs_dat_o[28] 46.8864
*END

*D_NET *92 0.00135581
*CONN
*P wbs_dat_o[29] O
*I *12240:X O *D sky130_fd_sc_hd__buf_12
*CAP
1 wbs_dat_o[29] 0.000427183
2 *12240:X 0.000427183
3 wbs_dat_o[29] *12240:A 5.50106e-05
4 wbs_dat_o[29] *488:10 0.000246748
5 wbs_dat_o[29] *490:10 0.000136841
6 wbs_dat_o[29] *567:16 0
7 wbs_dat_o[29] *568:16 0
8 wbs_dat_o[29] *570:12 6.28488e-05
9 *11959:A wbs_dat_o[29] 0
*RES
1 *12240:X wbs_dat_o[29] 46.8864
*END

*D_NET *93 0.00266388
*CONN
*P wbs_dat_o[2] O
*I *12241:X O *D sky130_fd_sc_hd__buf_12
*CAP
1 wbs_dat_o[2] 0.000131652
2 *12241:X 0.000949764
3 *93:10 0.00108142
4 wbs_dat_o[2] *105:13 0
5 wbs_dat_o[2] *363:18 3.31683e-05
6 *93:10 *12212:A 0.000134295
7 *93:10 *12241:A 7.77212e-05
8 *93:10 *582:6 0.000255859
*RES
1 *12241:X *93:10 37.6036
2 *93:10 wbs_dat_o[2] 17.3614
*END

*D_NET *94 0.00106671
*CONN
*P wbs_dat_o[30] O
*I *12242:X O *D sky130_fd_sc_hd__buf_12
*CAP
1 wbs_dat_o[30] 0.000408557
2 *12242:X 0.000408557
3 wbs_dat_o[30] *492:10 4.58924e-05
4 wbs_dat_o[30] *494:10 0.000148698
5 wbs_dat_o[30] *495:10 0
6 wbs_dat_o[30] *572:8 0
7 wbs_dat_o[30] *615:22 5.50106e-05
8 *11964:A wbs_dat_o[30] 0
*RES
1 *12242:X wbs_dat_o[30] 46.8864
*END

*D_NET *95 0.000596143
*CONN
*P wbs_dat_o[31] O
*I *12243:X O *D sky130_fd_sc_hd__buf_12
*CAP
1 wbs_dat_o[31] 0.000298072
2 *12243:X 0.000298072
3 wbs_dat_o[31] *500:10 0
4 wbs_dat_o[31] *573:10 0
5 *11968:A wbs_dat_o[31] 0
*RES
1 *12243:X wbs_dat_o[31] 43.8829
*END

*D_NET *96 0.00174328
*CONN
*P wbs_dat_o[3] O
*I *12244:X O *D sky130_fd_sc_hd__buf_12
*CAP
1 wbs_dat_o[3] 0.000517944
2 *12244:X 0.000120474
3 *96:8 0.000638417
4 wbs_dat_o[3] *106:9 0
5 wbs_dat_o[3] *587:16 0
6 wbs_dat_o[3] *591:16 0.000169885
7 wbs_dat_o[3] *622:16 0
8 *96:8 *12244:A 2.93845e-05
9 *96:8 *588:30 0.000267173
10 *12075:A wbs_dat_o[3] 0
*RES
1 *12244:X *96:8 41.0036
2 *96:8 wbs_dat_o[3] 9.05214
*END

*D_NET *97 0.00145119
*CONN
*P wbs_dat_o[4] O
*I *12245:X O *D sky130_fd_sc_hd__buf_12
*CAP
1 wbs_dat_o[4] 0.000586444
2 *12245:X 0.000586444
3 wbs_dat_o[4] *596:16 0
4 wbs_dat_o[4] *620:36 0.000177146
5 wbs_dat_o[4] *622:20 0.000101159
6 *33:13 wbs_dat_o[4] 0
*RES
1 *12245:X wbs_dat_o[4] 46.265
*END

*D_NET *98 0.000544526
*CONN
*P wbs_dat_o[5] O
*I *12246:X O *D sky130_fd_sc_hd__buf_12
*CAP
1 wbs_dat_o[5] 0.000230065
2 *12246:X 0.000230065
3 wbs_dat_o[5] *534:10 2.93845e-05
4 wbs_dat_o[5] *621:20 0
5 *34:17 wbs_dat_o[5] 5.50106e-05
6 *66:9 wbs_dat_o[5] 0
*RES
1 *12246:X wbs_dat_o[5] 42.0393
*END

*D_NET *99 0.000835019
*CONN
*P wbs_dat_o[6] O
*I *12247:X O *D sky130_fd_sc_hd__buf_12
*CAP
1 wbs_dat_o[6] 0.000221676
2 *12247:X 0.000221676
3 wbs_dat_o[6] *407:16 4.34008e-06
4 wbs_dat_o[6] *418:16 0.000191157
5 wbs_dat_o[6] *574:16 0.000196171
*RES
1 *12247:X wbs_dat_o[6] 42.7643
*END

*D_NET *100 0.00175969
*CONN
*P wbs_dat_o[7] O
*I *12248:X O *D sky130_fd_sc_hd__buf_12
*CAP
1 wbs_dat_o[7] 0.000731193
2 *12248:X 0.000731193
3 wbs_dat_o[7] *11977:A 4.93812e-05
4 wbs_dat_o[7] *403:10 0.000148009
5 wbs_dat_o[7] *508:10 9.64943e-05
6 wbs_dat_o[7] *579:14 3.41998e-06
7 wbs_dat_o[7] *622:28 0
8 *12060:A wbs_dat_o[7] 0
*RES
1 *12248:X wbs_dat_o[7] 49.9107
*END

*D_NET *101 0.0015407
*CONN
*P wbs_dat_o[8] O
*I *12249:X O *D sky130_fd_sc_hd__buf_12
*CAP
1 wbs_dat_o[8] 0.000648529
2 *12249:X 0.000648529
3 wbs_dat_o[8] *11977:A 5.50106e-05
4 wbs_dat_o[8] *388:10 0.000146197
5 wbs_dat_o[8] *452:20 4.24315e-05
6 *37:17 wbs_dat_o[8] 0
*RES
1 *12249:X wbs_dat_o[8] 48.9579
*END

*D_NET *102 0.00159751
*CONN
*P wbs_dat_o[9] O
*I *12250:X O *D sky130_fd_sc_hd__buf_12
*CAP
1 wbs_dat_o[9] 0.000511017
2 *12250:X 0.000511017
3 wbs_dat_o[9] *397:12 0.000222797
4 wbs_dat_o[9] *593:22 0.00012377
5 wbs_dat_o[9] *624:22 0.000228909
6 *7:13 wbs_dat_o[9] 0
7 *70:15 wbs_dat_o[9] 0
*RES
1 *12250:X wbs_dat_o[9] 48.7921
*END

*D_NET *103 0.00117244
*CONN
*P wbs_sel_i[0] I
*I *12030:A I *D sky130_fd_sc_hd__dlygate4sd3_1
*CAP
1 wbs_sel_i[0] 0.000586218
2 *12030:A 0.000586218
3 *12030:A *590:12 0
4 wbs_dat_o[0] *12030:A 0
*RES
1 wbs_sel_i[0] *12030:A 47.3214
*END

*D_NET *104 0.00251914
*CONN
*P wbs_sel_i[1] I
*I *12027:A I *D sky130_fd_sc_hd__dlygate4sd3_1
*CAP
1 wbs_sel_i[1] 0.0010064
2 *12027:A 0
3 *104:11 0.0010064
4 *104:11 *12206:A 5.12254e-05
5 *104:11 *556:10 9.18574e-05
6 *104:11 *588:6 0.000255653
7 wbs_dat_o[1] *104:11 0
8 *28:13 *104:11 0
9 *50:13 *104:11 0.000107611
*RES
1 wbs_sel_i[1] *104:11 32.1307
2 *104:11 *12027:A 23
*END

*D_NET *105 0.00301697
*CONN
*P wbs_sel_i[2] I
*I *12017:A I *D sky130_fd_sc_hd__dlygate4sd3_1
*CAP
1 wbs_sel_i[2] 0.000921525
2 *12017:A 0
3 *105:13 0.000921525
4 *105:13 *11838:A2 0
5 *105:13 *12014:A 0
6 *105:13 *546:10 0.000168129
7 *105:13 *571:12 0.000452984
8 *105:13 *622:10 0.000218445
9 *105:13 *624:10 0
10 *105:13 *628:163 0
11 *105:13 *631:18 0.000313255
12 *105:13 *633:77 2.11066e-05
13 wbs_dat_o[2] *105:13 0
14 *31:9 *105:13 0
*RES
1 wbs_sel_i[2] *105:13 33.5807
2 *105:13 *12017:A 23
*END

*D_NET *106 0.00299908
*CONN
*P wbs_sel_i[3] I
*I *12020:A I *D sky130_fd_sc_hd__dlygate4sd3_1
*CAP
1 wbs_sel_i[3] 0.000834462
2 *12020:A 0
3 *106:9 0.000834462
4 *106:9 *538:10 8.02853e-05
5 *106:9 *549:10 0.000155914
6 *106:9 *551:8 0.000162422
7 *106:9 *587:24 0.000241355
8 *106:9 *587:30 0.000304686
9 *106:9 *588:42 2.3529e-05
10 *106:9 *592:8 5.72749e-05
11 *106:9 *622:16 0
12 *106:9 *631:200 0.000304686
13 wbs_dat_o[3] *106:9 0
14 *32:9 *106:9 0
*RES
1 wbs_sel_i[3] *106:9 32.8143
2 *106:9 *12020:A 23
*END

*D_NET *107 0.000483186
*CONN
*P wbs_stb_i I
*I *12210:A I *D sky130_fd_sc_hd__clkbuf_2
*CAP
1 wbs_stb_i 0.000220925
2 *12210:A 0.000220925
3 *12210:A *12034:A 0
4 *12210:A *587:8 4.13358e-05
5 *12033:A *12210:A 0
*RES
1 wbs_stb_i *12210:A 41.8114
*END

*D_NET *108 0.000376357
*CONN
*P wbs_we_i I
*I *12034:A I *D sky130_fd_sc_hd__dlygate4sd3_1
*CAP
1 wbs_we_i 0.000188179
2 *12034:A 0.000188179
3 *12034:A *587:8 0
4 *12210:A *12034:A 0
*RES
1 wbs_we_i *12034:A 41.0657
*END

*D_NET *109 0.0230551
*CONN
*I *11920:RESET_B I *D sky130_fd_sc_hd__dfrtp_4
*I *11815:Y O *D sky130_fd_sc_hd__inv_2
*CAP
1 *11920:RESET_B 0
2 *11815:Y 0.00017594
3 *109:26 0.000524885
4 *109:18 0.00163954
5 *109:16 0.00111465
6 *109:14 0.00353013
7 *109:12 0.00384697
8 *109:8 0.000492779
9 *109:8 *11853:A2 4.93223e-05
10 *109:8 *11853:B2 0.000264564
11 *109:8 *11853:C1 4.94669e-05
12 *109:8 *363:28 0.00047413
13 *109:8 *621:8 7.44161e-06
14 *109:12 *681:DIODE 6.32694e-05
15 *109:12 *217:27 0.000373397
16 *109:12 *436:12 0
17 *109:12 *571:12 0.000585423
18 *109:14 *623:14 0.000334654
19 *109:14 *630:6 0.000182963
20 *109:14 *630:19 4.39281e-05
21 *109:14 *630:26 0.00264812
22 *109:18 *110:33 0.00033319
23 *109:18 *110:48 8.22585e-05
24 *109:18 *116:22 0.000346923
25 *109:18 *118:14 0.00215978
26 *109:18 *588:46 0.00303186
27 *109:26 *110:48 4.67488e-05
28 *109:26 *118:14 0.000652743
*RES
1 *11815:Y *109:8 43.8621
2 *109:8 *109:12 23.2443
3 *109:12 *109:14 49.2171
4 *109:14 *109:16 15
5 *109:16 *109:18 40.9936
6 *109:18 *109:26 39.6943
7 *109:26 *11920:RESET_B 15
*END

*D_NET *110 0.0164254
*CONN
*I *11817:A I *D sky130_fd_sc_hd__inv_2
*I *11822:A I *D sky130_fd_sc_hd__nor2_4
*I *11825:B I *D sky130_fd_sc_hd__nor2_4
*I *11816:Y O *D sky130_fd_sc_hd__nand2_4
*CAP
1 *11817:A 0
2 *11822:A 7.67914e-05
3 *11825:B 0
4 *11816:Y 6.67577e-05
5 *110:48 0.0019948
6 *110:33 0.00274075
7 *110:31 0.00145602
8 *110:22 0.000879863
9 *110:18 0.000840919
10 *110:10 0.000814683
11 *11822:A *182:19 0.000175903
12 *11822:A *205:31 0.000175903
13 *110:10 *11816:B 6.07611e-06
14 *110:10 *363:28 3.22879e-05
15 *110:10 *543:10 0
16 *110:10 *595:10 5.94125e-05
17 *110:10 *621:10 5.50049e-05
18 *110:18 *11825:A 0.000169674
19 *110:18 *551:8 3.47879e-05
20 *110:18 *588:42 0.000133316
21 *110:18 *597:10 0.000167113
22 *110:18 *621:10 0.000643425
23 *110:22 *633:26 0.000135037
24 *110:31 *586:12 0.00107569
25 *110:31 *633:26 0.00184977
26 *110:33 *363:41 0
27 *110:33 *588:46 3.14106e-05
28 *110:48 *118:14 0.00211177
29 *110:48 *577:16 0.000236065
30 *109:18 *110:33 0.00033319
31 *109:18 *110:48 8.22585e-05
32 *109:26 *110:48 4.67488e-05
*RES
1 *11816:Y *110:10 39.4707
2 *110:10 *110:18 42.3664
3 *110:18 *110:22 16.5743
4 *110:22 *11825:B 23
5 *110:22 *110:31 40.3957
6 *110:31 *110:33 11.4136
7 *110:33 *11822:A 40.0507
8 *110:33 *110:48 49.2614
9 *110:48 *11817:A 23
*END

*D_NET *111 0.0615757
*CONN
*I *11933:A I *D sky130_fd_sc_hd__clkbuf_8
*I *11919:A2 I *D sky130_fd_sc_hd__o221a_2
*I *11916:A2 I *D sky130_fd_sc_hd__o221a_2
*I *11913:A2 I *D sky130_fd_sc_hd__o221a_2
*I *11910:A2 I *D sky130_fd_sc_hd__o221a_2
*I *11821:X O *D sky130_fd_sc_hd__or2_4
*CAP
1 *11933:A 0
2 *11919:A2 0
3 *11916:A2 0
4 *11913:A2 0
5 *11910:A2 9.14198e-05
6 *11821:X 0.000243593
7 *111:69 0.000327033
8 *111:54 0.00015771
9 *111:46 0.00077432
10 *111:37 0.00120358
11 *111:20 0.00207209
12 *111:16 0.00408908
13 *111:14 0.00376717
14 *111:10 0.00098836
15 *11910:A2 *11910:B1 6.33614e-05
16 *11910:A2 *161:44 3.884e-05
17 *111:10 *11821:B 2.64616e-05
18 *111:10 *418:16 0.000657797
19 *111:10 *452:24 0.000102381
20 *111:10 *574:16 0.000668341
21 *111:14 *418:16 0.00257844
22 *111:14 *452:24 0.000270035
23 *111:14 *574:16 0.00257622
24 *111:16 *155:26 0.000453924
25 *111:16 *196:39 2.95212e-05
26 *111:16 *199:25 0.00129816
27 *111:16 *200:15 9.03964e-06
28 *111:16 *201:15 5.00912e-05
29 *111:16 *203:27 0.0125723
30 *111:16 *207:19 0.0174479
31 *111:16 *210:17 4.21158e-05
32 *111:16 *227:21 0.000195323
33 *111:16 *228:25 0.00351325
34 *111:16 *598:18 0.00051517
35 *111:20 *11897:A1 3.86268e-05
36 *111:20 *11910:B1 3.00383e-05
37 *111:20 *161:24 4.45778e-05
38 *111:20 *161:28 0.00019747
39 *111:20 *161:38 3.93904e-06
40 *111:20 *161:40 2.11537e-05
41 *111:20 *161:42 7.21109e-05
42 *111:20 *161:44 2.29081e-05
43 *111:20 *182:23 0.000365472
44 *111:20 *234:25 0
45 *111:20 *234:37 0.000105062
46 *111:20 *234:39 0.000106516
47 *111:37 *164:14 6.17437e-06
48 *111:37 *164:26 0.00109463
49 *111:37 *182:42 6.11843e-05
50 *111:37 *182:63 1.24462e-05
51 *111:37 *485:14 0.000112764
52 *111:37 *611:12 2.12366e-05
53 *111:46 *11913:A1 5.50106e-05
54 *111:46 *164:14 0.000109046
55 *111:46 *182:42 7.11824e-06
56 *111:46 *209:25 2.02872e-05
57 *111:46 *518:18 0.000425422
58 *111:46 *611:12 7.72341e-05
59 *111:46 *613:10 0.000640186
60 *111:54 *11916:B2 3.80954e-05
61 *111:54 *164:14 0
62 *111:54 *182:63 9.72057e-06
63 *111:54 *209:38 2.60049e-05
64 *111:54 *210:21 0.000240435
65 *111:54 *613:10 0.000163361
66 *111:69 *11919:B1 1.4006e-05
67 *111:69 *11919:B2 5.56356e-05
68 *111:69 *166:14 2.31058e-05
69 *111:69 *182:84 2.33476e-05
70 *111:69 *209:38 5.56216e-05
71 *111:69 *210:21 0
72 *111:69 *518:18 0.000127071
73 *111:69 *608:18 8.45842e-05
74 *111:69 *611:28 4.21062e-05
75 *111:69 *612:10 0.000143259
76 *111:69 *613:10 5.56356e-05
*RES
1 *11821:X *111:10 47.57
2 *111:10 *111:14 49.3029
3 *111:14 *111:16 198.816
4 *111:16 *111:20 37.6821
5 *111:20 *11910:A2 39.9057
6 *111:20 *111:37 30.4321
7 *111:37 *11913:A2 23
8 *111:37 *111:46 9.69429
9 *111:46 *111:54 34.1636
10 *111:54 *11916:A2 23
11 *111:46 *111:69 36.4629
12 *111:69 *11919:A2 23
13 *111:10 *11933:A 38
*END

*D_NET *112 0.0464315
*CONN
*I *11824:A0 I *D sky130_fd_sc_hd__mux2_2
*I *11823:X O *D sky130_fd_sc_hd__mux2_2
*CAP
1 *11824:A0 0.000287615
2 *11823:X 0.000289845
3 *112:14 0.00105666
4 *112:10 0.004974
5 *112:8 0.0044948
6 *11824:A0 *11824:A1 4.65721e-05
7 *11824:A0 *11824:S 0.000380235
8 *11824:A0 *218:37 9.58083e-05
9 *11824:A0 *218:39 4.67488e-05
10 *11824:A0 *218:43 9.72792e-05
11 *11824:A0 *625:209 5.43895e-05
12 *112:8 *282:31 4.28688e-05
13 *112:8 *282:33 8.47992e-05
14 *112:8 *282:39 0.000135037
15 *112:10 *115:10 0.0136094
16 *112:10 *145:10 0.013799
17 *112:10 *145:18 0
18 *112:10 *290:27 8.36671e-05
19 *112:10 *430:16 0.000642962
20 *112:10 *452:24 0.000363843
21 *112:14 *115:10 0
22 *112:14 *145:18 0.000982628
23 *112:14 *180:36 0.00282631
24 *112:14 *441:20 0.000120999
25 *112:14 *564:51 0.00188795
26 *112:14 *564:59 6.7177e-06
27 *112:14 *578:10 2.13834e-05
*RES
1 *11823:X *112:8 42.9093
2 *112:8 *112:10 185.548
3 *112:10 *112:14 39.2225
4 *112:14 *11824:A0 43.8829
*END

*D_NET *113 0.0391478
*CONN
*I *11826:B2 I *D sky130_fd_sc_hd__o221a_1
*I *11824:X O *D sky130_fd_sc_hd__mux2_2
*CAP
1 *11826:B2 0
2 *11824:X 0.000424526
3 *113:24 0.000445882
4 *113:18 0.00244152
5 *113:16 0.00293729
6 *113:10 0.00354955
7 *113:8 0.00303242
8 *113:8 *688:DIODE 0.000135037
9 *113:8 *11926:A 2.31591e-05
10 *113:8 *218:45 0.000124306
11 *113:8 *218:47 4.08664e-05
12 *113:8 *218:49 8.17328e-05
13 *113:8 *626:8 1.05235e-05
14 *113:10 *120:18 0.00555484
15 *113:10 *122:26 0.00749778
16 *113:10 *131:26 0.00228191
17 *113:10 *360:12 0.000245658
18 *113:10 *586:16 1.5037e-05
19 *113:10 *586:20 0.000832308
20 *113:16 *124:22 0.000151865
21 *113:16 *196:39 0.00108904
22 *113:16 *576:14 0.00020889
23 *113:16 *596:22 0.000263538
24 *113:18 *116:22 0.000658687
25 *113:18 *120:22 0
26 *113:18 *124:22 0.00163208
27 *113:18 *124:28 0.00106426
28 *113:18 *132:14 0.00353326
29 *113:18 *186:25 0.000333993
30 *113:18 *496:20 0.000192885
31 *113:18 *576:14 8.48502e-06
32 *113:24 *646:DIODE 4.21594e-06
33 *113:24 *186:29 0.000332257
*RES
1 *11824:X *113:8 44.3386
2 *113:8 *113:10 111.774
3 *113:10 *113:16 32.7936
4 *113:16 *113:18 67.7979
5 *113:18 *113:24 42.1179
6 *113:24 *11826:B2 23
*END

*D_NET *114 0.0470106
*CONN
*I *11916:C1 I *D sky130_fd_sc_hd__o221a_2
*I *11919:C1 I *D sky130_fd_sc_hd__o221a_2
*I *11913:C1 I *D sky130_fd_sc_hd__o221a_2
*I *11929:A I *D sky130_fd_sc_hd__buf_4
*I *11825:Y O *D sky130_fd_sc_hd__nor2_4
*CAP
1 *11916:C1 0.000285208
2 *11919:C1 0
3 *11913:C1 0.000205737
4 *11929:A 9.36903e-05
5 *11825:Y 0.0001155
6 *114:62 0.000595175
7 *114:52 0.00138367
8 *114:39 0.00184075
9 *114:33 0.00127888
10 *114:19 0.00949433
11 *114:10 0.00944087
12 *114:8 0.0001155
13 *11913:C1 *172:20 2.64866e-05
14 *11913:C1 *182:63 9.82124e-05
15 *11916:C1 *11916:B2 1.1624e-05
16 *11916:C1 *182:63 7.20087e-05
17 *11929:A *623:14 0.000140068
18 *11929:A *630:6 5.52998e-05
19 *11929:A *630:19 5.53064e-05
20 *11929:A *630:26 0.000184027
21 *114:8 *136:26 2.46927e-05
22 *114:8 *597:10 0.000124066
23 *114:19 *801:DIODE 0.000145154
24 *114:19 *807:DIODE 5.52998e-05
25 *114:19 *11885:A0 0.000182031
26 *114:19 *11885:A1 9.81686e-05
27 *114:19 *11888:A0 0.000184029
28 *114:19 *11888:A1 0.000187084
29 *114:19 *11888:S 0.0011024
30 *114:19 *11891:A1 0.000128727
31 *114:19 *154:6 0.000660692
32 *114:19 *156:8 6.14916e-05
33 *114:19 *158:10 0.000249934
34 *114:19 *160:6 5.81666e-05
35 *114:19 *162:8 0.000263764
36 *114:19 *599:12 0.00304588
37 *114:19 *623:14 0.00294612
38 *114:19 *625:55 0.000999232
39 *114:19 *627:54 0.00114323
40 *114:19 *630:26 0.00303323
41 *114:19 *630:43 0.00264309
42 *114:33 *162:8 0.00018072
43 *114:33 *168:26 0
44 *114:33 *627:54 0.000137742
45 *114:33 *627:61 9.92279e-05
46 *114:39 *819:DIODE 0.000181131
47 *114:39 *172:20 4.30383e-05
48 *114:39 *627:61 0.00122443
49 *114:39 *627:72 0.000886083
50 *114:52 *182:63 0.000190289
51 *114:52 *608:12 2.13733e-05
52 *114:62 *166:14 0.000473088
53 *114:62 *209:25 0.00013231
54 *114:62 *518:12 0.000152426
55 *114:62 *612:10 0.000459862
*RES
1 *11825:Y *114:8 39.9057
2 *114:8 *114:10 15
3 *114:10 *11929:A 26.0036
4 *114:10 *114:19 227.401
5 *114:19 *114:33 34.5157
6 *114:33 *114:39 40.6236
7 *114:39 *11913:C1 42.0186
8 *114:39 *114:52 21.815
9 *114:52 *114:62 42.0143
10 *114:62 *11919:C1 23
11 *114:52 *11916:C1 26.3764
*END

*D_NET *115 0.0451477
*CONN
*I *11828:A0 I *D sky130_fd_sc_hd__mux2_2
*I *11827:X O *D sky130_fd_sc_hd__mux2_2
*CAP
1 *11828:A0 9.62975e-05
2 *11827:X 0.000457065
3 *115:10 0.00528088
4 *115:8 0.00564165
5 *11828:A0 *248:65 0.000135037
6 *115:8 *976:DIODE 2.81066e-05
7 *115:10 *121:18 0.0132141
8 *115:10 *221:54 0.000296947
9 *115:10 *225:70 0.000309221
10 *115:10 *225:74 0.000111852
11 *115:10 *229:25 0.000972614
12 *115:10 *248:76 0.000346234
13 *115:10 *290:27 0.000317631
14 *115:10 *418:16 0.000200098
15 *115:10 *452:24 0.00121863
16 *115:10 *452:34 0.000337345
17 *115:10 *554:57 0.00036806
18 *115:10 *564:59 0.000955525
19 *115:10 *625:228 0.000620885
20 *115:10 *625:236 0.000630142
21 *112:10 *115:10 0.0136094
22 *112:14 *115:10 0
*RES
1 *11827:X *115:8 43.8621
2 *115:8 *115:10 221.995
3 *115:10 *11828:A0 39.5743
*END

*D_NET *116 0.0418245
*CONN
*I *11829:B2 I *D sky130_fd_sc_hd__o221a_1
*I *11828:X O *D sky130_fd_sc_hd__mux2_2
*CAP
1 *11829:B2 0
2 *11828:X 0.00103184
3 *116:28 0.000811508
4 *116:22 0.00940045
5 *116:14 0.00962078
6 *116:14 *219:27 4.07923e-06
7 *116:14 *248:65 9.02364e-05
8 *116:14 *362:10 2.26497e-05
9 *116:14 *393:32 0
10 *116:14 *395:34 0
11 *116:22 *12124:vpwrac 0.000696554
12 *116:22 *118:14 0.000917647
13 *116:22 *120:16 0.000161888
14 *116:22 *122:26 0.000934182
15 *116:22 *124:12 0.000100513
16 *116:22 *124:14 0.00119346
17 *116:22 *124:22 0.000156142
18 *116:22 *124:28 0.000370573
19 *116:22 *132:14 0.000121952
20 *116:22 *144:24 0.000156774
21 *116:22 *186:25 0.0033543
22 *116:22 *187:30 4.04478e-05
23 *116:22 *191:21 0.000494156
24 *116:22 *192:31 0.000352224
25 *116:22 *199:25 0.00118684
26 *116:22 *351:38 0.000441246
27 *116:22 *382:46 0.00291118
28 *116:22 *496:20 0.000766606
29 *116:22 *557:12 0.00023688
30 *116:22 *560:8 0.000555087
31 *116:22 *577:16 0.00171802
32 *116:22 *586:16 0.00102851
33 *116:22 *588:46 0.00105233
34 *116:28 *197:27 4.77584e-05
35 *116:28 *496:14 0
36 *116:28 *631:55 0.000445327
37 *116:28 *633:110 0.000396715
38 *109:18 *116:22 0.000346923
39 *113:18 *116:22 0.000658687
*RES
1 *11828:X *116:14 49.9305
2 *116:14 *116:22 48.6685
3 *116:22 *116:28 41.6325
4 *116:28 *11829:B2 23
*END

*D_NET *117 0.0472972
*CONN
*I *11831:A0 I *D sky130_fd_sc_hd__mux2_2
*I *11830:X O *D sky130_fd_sc_hd__mux2_2
*CAP
1 *11831:A0 0
2 *11830:X 0.000175117
3 *117:14 0.00549835
4 *117:12 0.00604152
5 *117:8 0.000718287
6 *117:8 *1006:DIODE 4.08664e-05
7 *117:8 *304:50 8.17328e-05
8 *117:8 *304:52 0.000135037
9 *117:12 *121:10 0.000856854
10 *117:12 *290:27 0.000120307
11 *117:12 *304:41 0.000828365
12 *117:12 *362:76 0.000104065
13 *117:12 *550:28 4.82774e-05
14 *117:14 *968:DIODE 0.000213153
15 *117:14 *147:10 0.0161446
16 *117:14 *258:38 5.21191e-05
17 *117:14 *290:27 2.52828e-05
18 *117:14 *290:31 0.000306102
19 *117:14 *290:33 7.39034e-05
20 *117:14 *290:35 0.000233164
21 *117:14 *290:37 0.000178688
22 *117:14 *290:39 0.00021197
23 *117:14 *330:16 0.00151751
24 *117:14 *362:76 0.000469331
25 *117:14 *407:16 0.0113323
26 *117:14 *452:24 0.000623733
27 *117:14 *578:26 0.00124124
28 *117:14 *581:26 2.5343e-05
*RES
1 *11830:X *117:8 41.0036
2 *117:8 *117:12 17.1411
3 *117:12 *117:14 226.397
4 *117:14 *11831:A0 38
*END

*D_NET *118 0.0361443
*CONN
*I *11832:B2 I *D sky130_fd_sc_hd__o221a_1
*I *11831:X O *D sky130_fd_sc_hd__mux2_2
*CAP
1 *11832:B2 0
2 *11831:X 0.000943671
3 *118:24 0.000957814
4 *118:18 0.00208833
5 *118:16 0.00113051
6 *118:14 0.00192489
7 *118:12 0.0028721
8 *118:8 0.00189088
9 *118:8 *843:DIODE 2.80924e-06
10 *118:8 *11846:S 6.70361e-05
11 *118:8 *127:18 8.44861e-05
12 *118:8 *128:6 0.0006285
13 *118:8 *247:42 1.21972e-05
14 *118:12 *319:34 0.001071
15 *118:12 *382:46 0.000161888
16 *118:12 *560:8 2.97829e-05
17 *118:14 *319:30 0.00226142
18 *118:14 *560:8 0.002699
19 *118:14 *588:46 0.000417605
20 *118:18 *120:22 0.00512138
21 *118:18 *126:16 0.00512309
22 *118:24 *11832:A2 2.26406e-05
23 *118:24 *11832:B1 0.000157888
24 *118:24 *11862:C1 0.000103339
25 *118:24 *128:24 0
26 *118:24 *132:18 0
27 *118:24 *138:28 0
28 *118:24 *208:29 0.000141751
29 *118:24 *215:42 0.00010858
30 *118:24 *628:53 7.35193e-06
31 *118:24 *631:109 0.000227245
32 *61:15 *118:24 4.51454e-05
33 *109:18 *118:14 0.00215978
34 *109:26 *118:14 0.000652743
35 *110:48 *118:14 0.00211177
36 *116:22 *118:14 0.000917647
*RES
1 *11831:X *118:8 49.5793
2 *118:8 *118:12 16.0846
3 *118:12 *118:14 76.0318
4 *118:14 *118:16 15
5 *118:16 *118:18 56.84
6 *118:18 *118:24 49.5129
7 *118:24 *11832:B2 23
*END

*D_NET *119 0.0549087
*CONN
*I *11834:A0 I *D sky130_fd_sc_hd__mux2_2
*I *11833:X O *D sky130_fd_sc_hd__mux2_2
*CAP
1 *11834:A0 0.0017526
2 *11833:X 0.00161344
3 *119:42 0.00193171
4 *119:34 0.00091044
5 *119:18 0.00385409
6 *119:16 0.00312276
7 *119:14 0.000317869
8 *119:6 0.00193131
9 *11834:A0 *11834:A1 6.99492e-05
10 *11834:A0 *120:8 0.000190901
11 *11834:A0 *127:18 3.82058e-06
12 *119:6 *1019:DIODE 1.59094e-05
13 *119:6 *11833:A1 4.21158e-05
14 *119:6 *272:27 0
15 *119:6 *307:41 6.92412e-05
16 *119:6 *307:49 2.06822e-05
17 *119:6 *307:64 1.21972e-05
18 *119:6 *307:66 2.81066e-05
19 *119:6 *636:32 5.3304e-05
20 *119:14 *137:16 0.00118399
21 *119:14 *141:16 0.00118623
22 *119:14 *202:11 0.000135037
23 *119:14 *382:48 0.000173453
24 *119:18 *194:22 0.000548435
25 *119:18 *194:28 9.89529e-06
26 *119:18 *195:19 0.00149244
27 *119:18 *204:19 0.000726805
28 *119:18 *206:11 0.0159031
29 *119:18 *350:26 0.00162599
30 *119:18 *351:10 0.00595001
31 *119:18 *360:76 0.00723341
32 *119:34 *127:10 0.000375517
33 *119:34 *130:18 0.000337992
34 *119:34 *133:40 6.17437e-06
35 *119:34 *134:6 6.46983e-05
36 *119:34 *198:11 2.69968e-05
37 *119:34 *199:19 0.000265645
38 *119:34 *560:24 0.000126496
39 *119:42 *198:11 0.000682268
40 *119:42 *204:19 0.000109432
41 *119:42 *206:11 0.000684913
42 *119:42 *206:17 0.000119399
*RES
1 *11833:X *119:6 42.7304
2 *119:6 *119:14 46.8614
3 *119:14 *119:16 15
4 *119:16 *119:18 205.444
5 *119:18 *119:34 46.2325
6 *119:34 *119:42 33.3261
7 *119:42 *11834:A0 46.49
*END

*D_NET *120 0.0339898
*CONN
*I *11835:B2 I *D sky130_fd_sc_hd__o221a_1
*I *11834:X O *D sky130_fd_sc_hd__mux2_2
*CAP
1 *11835:B2 0
2 *11834:X 0.000647184
3 *120:28 0.000964493
4 *120:22 0.00311514
5 *120:20 0.00215065
6 *120:18 0.00187509
7 *120:16 0.00258041
8 *120:8 0.0013525
9 *120:16 *11814:A 6.17437e-06
10 *120:16 *124:14 0.00110775
11 *120:16 *223:45 0.000836061
12 *120:16 *319:34 2.72979e-05
13 *120:16 *560:8 0.000212726
14 *120:18 *122:26 0.000115289
15 *120:18 *180:10 0.000504754
16 *120:18 *223:33 3.82343e-05
17 *120:18 *319:16 0.000625841
18 *120:18 *360:12 0.000118653
19 *120:18 *362:26 0.00283021
20 *120:18 *557:30 2.27289e-05
21 *120:18 *557:136 0.000798822
22 *120:22 *126:16 0.000422973
23 *120:22 *132:14 0
24 *120:22 *136:20 0.00155817
25 *120:22 *142:30 0.000382313
26 *120:22 *194:44 0
27 *120:28 *680:DIODE 0
28 *120:28 *11835:A2 2.26406e-05
29 *120:28 *128:24 0
30 *120:28 *211:27 0.000262989
31 *120:28 *544:8 0.00014041
32 *120:28 *628:120 7.25516e-05
33 *120:28 *631:30 0.000156482
34 *11834:A0 *120:8 0.000190901
35 *28:13 *120:28 1.22803e-05
36 *113:10 *120:18 0.00555484
37 *113:18 *120:22 0
38 *116:22 *120:16 0.000161888
39 *118:18 *120:22 0.00512138
*RES
1 *11834:X *120:8 45.2914
2 *120:8 *120:16 47.8143
3 *120:16 *120:18 76.9121
4 *120:18 *120:20 15
5 *120:20 *120:22 65.4157
6 *120:22 *120:28 49.865
7 *120:28 *11835:B2 23
*END

*D_NET *121 0.0471971
*CONN
*I *11837:A0 I *D sky130_fd_sc_hd__mux2_2
*I *11836:X O *D sky130_fd_sc_hd__mux2_2
*CAP
1 *11837:A0 0
2 *11836:X 0.000461512
3 *121:26 0.000857355
4 *121:18 0.00474046
5 *121:16 0.00399923
6 *121:10 0.00119824
7 *121:8 0.00154363
8 *121:8 *289:80 4.27957e-05
9 *121:8 *308:23 0.000453101
10 *121:8 *308:25 8.17328e-05
11 *121:8 *308:27 0.000127408
12 *121:8 *308:29 0.000143259
13 *121:10 *282:27 0.00166636
14 *121:10 *290:27 0.000626009
15 *121:10 *291:47 0.000390614
16 *121:10 *304:35 0.00113152
17 *121:10 *304:41 1.12487e-05
18 *121:10 *362:76 0.0002607
19 *121:16 *11985:A 6.17437e-06
20 *121:18 *290:27 0.000443967
21 *121:18 *290:31 1.5037e-05
22 *121:18 *330:16 0.00577398
23 *121:18 *407:16 7.15574e-05
24 *121:18 *418:16 0.00683738
25 *121:18 *452:24 0.00148419
26 *121:26 *147:10 0.000758733
27 *115:10 *121:18 0.0132141
28 *117:12 *121:10 0.000856854
*RES
1 *11836:X *121:8 47.1971
2 *121:8 *121:10 39.585
3 *121:10 *121:16 31.5743
4 *121:16 *121:18 176.216
5 *121:18 *121:26 42.8843
6 *121:26 *11837:A0 38
*END

*D_NET *122 0.0425998
*CONN
*I *11838:B2 I *D sky130_fd_sc_hd__o221a_1
*I *11837:X O *D sky130_fd_sc_hd__mux2_2
*CAP
1 *11838:B2 0
2 *11837:X 0.000703188
3 *122:36 0.000811319
4 *122:30 0.00392554
5 *122:28 0.00311422
6 *122:26 0.00261348
7 *122:24 0.00261348
8 *122:22 0.000655468
9 *122:14 0.00142805
10 *122:8 0.00147577
11 *122:14 *11855:S 0.000244544
12 *122:14 *133:40 4.21158e-05
13 *122:14 *219:41 3.22051e-05
14 *122:14 *219:43 4.96303e-05
15 *122:14 *219:45 6.17437e-06
16 *122:14 *223:45 0.000545447
17 *122:14 *223:58 0.000209729
18 *122:14 *319:34 1.22906e-05
19 *122:14 *382:46 0.000113891
20 *122:14 *395:18 0.000461252
21 *122:14 *400:28 0.00023653
22 *122:14 *626:10 0.000272303
23 *122:14 *626:38 0.000398645
24 *122:14 *626:49 0.00106764
25 *122:22 *220:57 1.94613e-05
26 *122:22 *319:34 0.000509837
27 *122:22 *382:46 0.000112245
28 *122:26 *319:14 0
29 *122:26 *319:16 0
30 *122:26 *586:16 0.0080887
31 *122:30 *571:14 0.00317931
32 *122:30 *584:18 0.000461676
33 *122:36 *11838:A2 3.70094e-05
34 *122:36 *134:28 0
35 *122:36 *189:32 0
36 *122:36 *212:27 1.77147e-05
37 *122:36 *583:14 0
38 *122:36 *628:163 7.42074e-05
39 *122:36 *631:150 0.000163352
40 *122:36 *633:47 0.000356089
41 *113:10 *122:26 0.00749778
42 *116:22 *122:26 0.000934182
43 *120:18 *122:26 0.000115289
*RES
1 *11837:X *122:8 46.7207
2 *122:8 *122:14 42.4257
3 *122:14 *122:22 39.8393
4 *122:22 *122:24 15
5 *122:24 *122:26 108.253
6 *122:26 *122:28 15
7 *122:28 *122:30 45.4057
8 *122:30 *122:36 44.935
9 *122:36 *11838:B2 23
*END

*D_NET *123 0.0509331
*CONN
*I *11840:A0 I *D sky130_fd_sc_hd__mux2_2
*I *11839:X O *D sky130_fd_sc_hd__mux2_2
*CAP
1 *11840:A0 0.000435516
2 *11839:X 0.00121847
3 *123:34 0.00289292
4 *123:24 0.00257933
5 *123:18 0.00339215
6 *123:16 0.00336163
7 *123:10 0.000537103
8 *123:6 0.00166416
9 *11840:A0 *11849:A0 0.000221655
10 *11840:A0 *11858:S 5.3304e-05
11 *11840:A0 *124:8 0.000424672
12 *11840:A0 *130:6 0.000155324
13 *11840:A0 *248:65 0.000424672
14 *123:6 *11839:S 0.000278798
15 *123:6 *258:17 0
16 *123:6 *272:17 6.70361e-05
17 *123:6 *277:15 7.67318e-05
18 *123:6 *278:17 0
19 *123:6 *309:31 2.42041e-05
20 *123:6 *309:33 3.65917e-05
21 *123:10 *204:19 0.000127194
22 *123:10 *206:11 0.00200588
23 *123:10 *360:76 0.00200812
24 *123:16 *203:9 0.000135037
25 *123:18 *12124:BEN[22] 8.22421e-06
26 *123:18 *12124:TM 0.000164731
27 *123:18 *12124:BEN[0] 0.000131661
28 *123:18 *12124:BEN[1] 0.000565736
29 *123:18 *12124:DI[22] 2.19246e-05
30 *123:18 *133:14 0.000148614
31 *123:18 *133:16 0.000646202
32 *123:18 *133:26 0.00223147
33 *123:18 *193:16 0.00289391
34 *123:18 *193:18 0.000468583
35 *123:18 *194:18 0.000182699
36 *123:18 *194:22 0.00742144
37 *123:18 *195:19 0.000998338
38 *123:18 *204:19 0.000346211
39 *123:18 *258:19 0.00173898
40 *123:18 *281:15 0.00130494
41 *123:18 *360:76 0.00267134
42 *123:18 *639:22 0.000402932
43 *123:18 *639:34 0.00106915
44 *123:18 *639:46 0.000888927
45 *123:18 *639:58 0.000888927
46 *123:18 *639:74 0.000686629
47 *123:18 *639:94 8.22421e-06
48 *123:24 *12124:BEN[4] 6.17437e-06
49 *123:34 *135:34 0.000665914
50 *123:34 *193:18 0.00189199
51 *123:34 *215:17 2.81221e-05
52 *123:34 *220:127 8.43956e-05
53 *123:34 *319:34 4.45778e-05
54 *123:34 *560:54 0.000201661
*RES
1 *11839:X *123:6 41.2493
2 *123:6 *123:10 41.2036
3 *123:10 *123:16 31.5743
4 *123:16 *123:18 187.485
5 *123:18 *123:24 31.5743
6 *123:24 *123:34 44.4393
7 *123:34 *11840:A0 47.8393
*END

*D_NET *124 0.0365865
*CONN
*I *11841:B2 I *D sky130_fd_sc_hd__o221a_1
*I *11840:X O *D sky130_fd_sc_hd__mux2_2
*CAP
1 *11841:B2 0
2 *11840:X 0.00031201
3 *124:32 0.000756306
4 *124:28 0.00118779
5 *124:22 0.00197794
6 *124:14 0.00385126
7 *124:12 0.00258598
8 *124:8 0.000593192
9 *124:12 *223:45 0.000466533
10 *124:12 *586:20 0.000653241
11 *124:14 *223:45 0.000471931
12 *124:14 *560:8 2.13834e-05
13 *124:14 *586:16 0.00743802
14 *124:14 *586:20 2.34364e-05
15 *124:14 *588:46 0.00539725
16 *124:22 *144:24 0.00142772
17 *124:22 *203:19 0.000141442
18 *124:22 *557:12 0.000201195
19 *124:22 *575:30 0.000204154
20 *124:22 *596:22 3.60747e-05
21 *124:28 *496:20 0.00105411
22 *124:28 *557:12 3.32734e-05
23 *124:32 *132:18 0.00127793
24 *124:32 *189:42 0.000159802
25 *124:32 *571:12 0
26 *124:32 *633:141 0.000113239
27 *11840:A0 *124:8 0.000424672
28 *113:16 *124:22 0.000151865
29 *113:18 *124:22 0.00163208
30 *113:18 *124:28 0.00106426
31 *116:22 *124:12 0.000100513
32 *116:22 *124:14 0.00119346
33 *116:22 *124:22 0.000156142
34 *116:22 *124:28 0.000370573
35 *120:16 *124:14 0.00110775
*RES
1 *11840:X *124:8 42.9093
2 *124:8 *124:12 9.39393
3 *124:12 *124:14 99.9775
4 *124:14 *124:22 49.7275
5 *124:22 *124:28 36.3668
6 *124:28 *124:32 33.4564
7 *124:32 *11841:B2 23
*END

*D_NET *125 0.0509339
*CONN
*I *11843:A0 I *D sky130_fd_sc_hd__mux2_2
*I *11842:X O *D sky130_fd_sc_hd__mux2_2
*CAP
1 *11843:A0 0.000830993
2 *11842:X 0.00105275
3 *125:24 0.00174244
4 *125:20 0.00139325
5 *125:14 0.00124398
6 *125:10 0.00390742
7 *125:8 0.00314524
8 *125:6 0.00105275
9 *11843:A0 *854:DIODE 9.65021e-05
10 *11843:A0 *223:39 6.97772e-05
11 *11843:A0 *246:47 0.000212707
12 *11843:A0 *246:49 8.53029e-05
13 *125:6 *11842:S 9.41704e-05
14 *125:6 *11936:A 8.11489e-05
15 *125:6 *12124:BEN[24] 0
16 *125:6 *278:23 0.000172836
17 *125:6 *637:25 0.000733092
18 *125:10 *127:10 3.73941e-05
19 *125:10 *139:16 0.00880051
20 *125:10 *205:11 0.000723432
21 *125:10 *350:10 0.00407864
22 *125:10 *629:8 0.0114905
23 *125:14 *127:10 0.00295159
24 *125:14 *138:12 0.00170848
25 *125:14 *143:28 0.000550696
26 *125:14 *629:8 0.000328505
27 *125:20 *705:DIODE 2.64616e-05
28 *125:20 *130:6 2.30609e-05
29 *125:20 *220:159 6.17437e-06
30 *125:24 *129:10 0.000210078
31 *125:24 *184:8 0.00246861
32 *125:24 *203:11 0.000867279
33 *125:24 *220:57 8.62783e-05
34 *125:24 *220:68 0.000234364
35 *125:24 *220:79 0.000181934
36 *125:24 *374:16 0.000245558
*RES
1 *11842:X *125:6 40.7729
2 *125:6 *125:8 15
3 *125:8 *125:10 169.702
4 *125:10 *125:14 39.3261
5 *125:14 *125:20 36.3386
6 *125:20 *125:24 48.2464
7 *125:24 *11843:A0 35.0557
*END

*D_NET *126 0.0305897
*CONN
*I *11844:B2 I *D sky130_fd_sc_hd__o221a_2
*I *11843:X O *D sky130_fd_sc_hd__mux2_2
*CAP
1 *11844:B2 0
2 *11843:X 0
3 *126:22 0.000594544
4 *126:16 0.00254893
5 *126:14 0.00217119
6 *126:8 0.0023203
7 *126:6 0.0021035
8 *126:8 *650:DIODE 0.000185873
9 *126:8 *178:18 0.000838229
10 *126:8 *193:34 0.00177711
11 *126:8 *319:16 0.000513531
12 *126:8 *360:32 0.00114227
13 *126:8 *360:36 2.05503e-05
14 *126:8 *369:28 0.000740268
15 *126:8 *369:34 0.000344303
16 *126:8 *371:34 0.00113804
17 *126:8 *594:10 0.00274304
18 *126:14 *319:16 0.000383838
19 *126:14 *594:10 0.000171921
20 *126:16 *198:15 0.00160479
21 *126:16 *206:35 0.000221992
22 *126:16 *589:14 0.00126546
23 *126:22 *130:36 0.000380435
24 *126:22 *496:14 0.00143064
25 *126:22 *633:104 0.000402865
26 *118:18 *126:16 0.00512309
27 *120:22 *126:16 0.000422973
*RES
1 *11843:X *126:6 38
2 *126:6 *126:8 76.3839
3 *126:8 *126:14 20.8725
4 *126:14 *126:16 72.5621
5 *126:16 *126:22 49.1607
6 *126:22 *11844:B2 23
*END

*D_NET *127 0.0530184
*CONN
*I *11846:A0 I *D sky130_fd_sc_hd__mux2_2
*I *11845:X O *D sky130_fd_sc_hd__mux2_2
*CAP
1 *11846:A0 0
2 *11845:X 0.000796214
3 *127:18 0.00112479
4 *127:10 0.00525173
5 *127:8 0.00412693
6 *127:6 0.000796214
7 *127:6 *272:27 3.02941e-05
8 *127:6 *275:21 0.000937566
9 *127:6 *279:19 0.000113735
10 *127:6 *635:63 2.31687e-05
11 *127:10 *130:18 2.24151e-05
12 *127:10 *133:36 0.00165041
13 *127:10 *136:14 0.00156043
14 *127:10 *138:12 0.000118932
15 *127:10 *138:18 1.12487e-05
16 *127:10 *139:16 0.00966198
17 *127:10 *141:26 1.74053e-05
18 *127:10 *143:18 0.0139166
19 *127:10 *144:18 0.000979117
20 *127:10 *198:11 3.25229e-05
21 *127:10 *350:10 0.00408091
22 *127:10 *350:18 0.00183609
23 *127:18 *861:DIODE 9.41704e-05
24 *127:18 *128:6 0.00161854
25 *127:18 *247:42 0.000385173
26 *127:18 *247:44 9.65021e-05
27 *127:18 *247:46 9.41704e-05
28 *127:18 *247:48 9.41704e-05
29 *127:18 *247:50 9.41704e-05
30 *11834:A0 *127:18 3.82058e-06
31 *118:8 *127:18 8.44861e-05
32 *119:34 *127:10 0.000375517
33 *125:10 *127:10 3.73941e-05
34 *125:14 *127:10 0.00295159
*RES
1 *11845:X *127:6 37.9143
2 *127:6 *127:8 15
3 *127:8 *127:10 243.476
4 *127:10 *127:18 37.9307
5 *127:18 *11846:A0 23
*END

*D_NET *128 0.0317714
*CONN
*I *11847:B2 I *D sky130_fd_sc_hd__o221a_2
*I *11846:X O *D sky130_fd_sc_hd__mux2_2
*CAP
1 *11847:B2 0
2 *11846:X 0.000971312
3 *128:24 0.000589393
4 *128:20 0.00117883
5 *128:16 0.00101001
6 *128:10 0.00205536
7 *128:8 0.00163479
8 *128:6 0.000971312
9 *128:10 *136:14 0.00690588
10 *128:10 *138:18 0.000240971
11 *128:10 *144:18 0.00671183
12 *128:10 *582:18 8.94629e-05
13 *128:16 *134:22 0.00132582
14 *128:16 *182:10 9.45177e-05
15 *128:16 *589:14 0.00184233
16 *128:20 *130:30 0.000942035
17 *128:20 *134:22 0.000768632
18 *128:20 *589:14 0.00135912
19 *128:24 *11847:A2 1.14452e-05
20 *128:24 *208:29 0.000358913
21 *128:24 *211:27 0.000169598
22 *128:24 *215:27 0.000128399
23 *128:24 *523:8 0.00016441
24 *118:8 *128:6 0.0006285
25 *118:24 *128:24 0
26 *120:28 *128:24 0
27 *127:18 *128:6 0.00161854
*RES
1 *11846:X *128:6 41.7257
2 *128:6 *128:8 15
3 *128:8 *128:10 93.1107
4 *128:10 *128:16 35.8904
5 *128:16 *128:20 42.0632
6 *128:20 *128:24 29.5829
7 *128:24 *11847:B2 23
*END

*D_NET *129 0.0495739
*CONN
*I *11849:A0 I *D sky130_fd_sc_hd__mux2_2
*I *11848:X O *D sky130_fd_sc_hd__mux2_2
*CAP
1 *11849:A0 0.000492484
2 *11848:X 0.000172027
3 *129:10 0.00723024
4 *129:8 0.00690978
5 *11849:A0 *703:DIODE 6.17437e-06
6 *11849:A0 *11858:A1 0.000116096
7 *11849:A0 *11858:S 5.3304e-05
8 *11849:A0 *130:6 9.52825e-05
9 *11849:A0 *135:34 9.40798e-05
10 *11849:A0 *136:12 6.70361e-05
11 *11849:A0 *220:90 2.64616e-05
12 *129:8 *207:11 9.39417e-05
13 *129:10 *923:DIODE 0.000156325
14 *129:10 *935:DIODE 0.000218663
15 *129:10 *12124:AD[1] 2.05503e-05
16 *129:10 *12124:R_WB 2.11066e-05
17 *129:10 *137:26 0.00304144
18 *129:10 *184:8 0.00402658
19 *129:10 *196:11 0.00265277
20 *129:10 *203:11 0.0160462
21 *129:10 *220:159 0.000111852
22 *129:10 *250:11 0.000642221
23 *129:10 *257:19 0.000929144
24 *129:10 *283:58 0.000124902
25 *129:10 *284:30 0.000164282
26 *129:10 *284:32 0.000139647
27 *129:10 *369:74 0.00115159
28 *129:10 *374:16 0.00111757
29 *129:10 *506:54 0.000342288
30 *129:10 *596:34 0.00194754
31 *129:10 *635:69 2.35393e-05
32 *129:10 *635:78 0.000452304
33 *129:10 *635:89 0.000323747
34 *129:10 *635:100 0.000130934
35 *11840:A0 *11849:A0 0.000221655
36 *125:24 *129:10 0.000210078
*RES
1 *11848:X *129:8 40.1025
2 *129:8 *129:10 258.618
3 *129:10 *11849:A0 47.0521
*END

*D_NET *130 0.0374729
*CONN
*I *11850:B2 I *D sky130_fd_sc_hd__o221a_2
*I *11849:X O *D sky130_fd_sc_hd__mux2_2
*CAP
1 *11850:B2 0
2 *11849:X 0.00116766
3 *130:36 0.00020738
4 *130:30 0.00155346
5 *130:28 0.00134608
6 *130:26 0.00136576
7 *130:24 0.0017021
8 *130:18 0.00113135
9 *130:6 0.00196267
10 *130:6 *136:12 0.000327794
11 *130:18 *133:36 0.000225728
12 *130:18 *138:18 0.000272253
13 *130:18 *198:11 0.000903258
14 *130:18 *199:19 0.00222676
15 *130:18 *204:19 0.0022421
16 *130:26 *142:24 9.50102e-05
17 *130:26 *194:30 0.00423734
18 *130:26 *195:19 0.000970146
19 *130:26 *206:27 3.35885e-05
20 *130:26 *350:26 2.34364e-05
21 *130:26 *351:26 0.00560185
22 *130:26 *575:14 0
23 *130:26 *575:30 0.000129751
24 *130:26 *587:32 0.00194513
25 *130:30 *134:22 0.0015446
26 *130:30 *138:22 0.00343515
27 *130:30 *182:10 0.000660306
28 *130:30 *589:14 0.000205712
29 *11840:A0 *130:6 0.000155324
30 *11849:A0 *130:6 9.52825e-05
31 *119:34 *130:18 0.000337992
32 *125:20 *130:6 2.30609e-05
33 *126:22 *130:36 0.000380435
34 *127:10 *130:18 2.24151e-05
35 *128:20 *130:30 0.000942035
*RES
1 *11849:X *130:6 37.4379
2 *130:6 *130:18 44.1611
3 *130:18 *130:24 16.5283
4 *130:24 *130:26 80.6096
5 *130:26 *130:28 15
6 *130:28 *130:30 51.1229
7 *130:30 *130:36 35.075
8 *130:36 *11850:B2 23
*END

*D_NET *131 0.044549
*CONN
*I *11852:A0 I *D sky130_fd_sc_hd__mux2_1
*I *11851:X O *D sky130_fd_sc_hd__mux2_2
*CAP
1 *11852:A0 0
2 *11851:X 0.000980068
3 *131:26 0.00298867
4 *131:24 0.00439899
5 *131:18 0.00246521
6 *131:16 0.00112074
7 *131:10 0.00148762
8 *131:8 0.00142179
9 *131:6 0.000980068
10 *131:6 *959:DIODE 0.000223906
11 *131:6 *963:DIODE 4.08664e-05
12 *131:6 *11851:S 9.41704e-05
13 *131:6 *313:31 2.81066e-05
14 *131:6 *313:33 2.81066e-05
15 *131:6 *313:35 2.43944e-05
16 *131:10 *185:10 0
17 *131:10 *365:74 0.00423931
18 *131:10 *550:18 0.000223804
19 *131:10 *578:10 7.37814e-06
20 *131:10 *578:20 0.000292326
21 *131:10 *579:42 0.000432864
22 *131:18 *200:11 0.00068855
23 *131:18 *226:22 0.00188259
24 *131:18 *365:72 0.000880255
25 *131:18 *396:16 0.00379862
26 *131:18 *578:10 1.89075e-05
27 *131:18 *579:26 0.00152958
28 *131:24 *12124:AD[9] 5.01289e-05
29 *131:24 *387:16 4.96207e-05
30 *131:26 *360:12 0.00809963
31 *131:26 *402:18 0.00107192
32 *131:26 *409:54 0
33 *131:26 *415:18 0.000420293
34 *131:26 *415:22 2.12234e-05
35 *131:26 *424:34 0.00125592
36 *131:26 *424:38 4.75766e-05
37 *131:26 *586:20 0.000973933
38 *113:10 *131:26 0.00228191
*RES
1 *11851:X *131:6 36.9614
2 *131:6 *131:8 15
3 *131:8 *131:10 54.7271
4 *131:10 *131:16 31.2014
5 *131:16 *131:18 61.4179
6 *131:18 *131:24 45.3907
7 *131:24 *131:26 109.309
8 *131:26 *11852:A0 38
*END

*D_NET *132 0.0302957
*CONN
*I *11853:B2 I *D sky130_fd_sc_hd__o221a_2
*I *11852:X O *D sky130_fd_sc_hd__mux2_1
*CAP
1 *11853:B2 9.37451e-05
2 *11852:X 0.00135577
3 *132:18 0.00110848
4 *132:14 0.00225227
5 *132:12 0.00123754
6 *132:10 0.001264
7 *132:8 0.001264
8 *132:6 0.00135577
9 *11853:B2 *11853:C1 0.000136743
10 *11853:B2 *621:8 3.83953e-05
11 *11853:B2 *631:139 1.37039e-05
12 *132:6 *879:DIODE 9.41704e-05
13 *132:6 *12124:DI[9] 7.54509e-05
14 *132:6 *249:42 4.08664e-05
15 *132:6 *249:44 8.17328e-05
16 *132:6 *249:46 8.17328e-05
17 *132:6 *249:48 8.17328e-05
18 *132:10 *134:14 2.72775e-05
19 *132:10 *194:44 0.00150316
20 *132:10 *195:19 0.000890968
21 *132:10 *206:19 0.00466672
22 *132:10 *350:26 0.00604106
23 *132:10 *587:32 8.31864e-05
24 *132:14 *136:20 0
25 *132:14 *142:30 0
26 *132:14 *186:25 0.000112764
27 *132:14 *189:32 0.000183556
28 *132:14 *575:14 0.000395889
29 *132:14 *576:14 6.17437e-06
30 *132:18 *677:DIODE 9.85586e-06
31 *132:18 *11841:A1 4.19174e-05
32 *132:18 *11853:C1 7.57281e-06
33 *132:18 *12014:A 4.66343e-05
34 *132:18 *138:28 0.000345635
35 *132:18 *593:10 0
36 *132:18 *617:10 5.58473e-05
37 *132:18 *628:53 0
38 *132:18 *631:117 0.00010364
39 *61:15 *132:18 0
40 *109:8 *11853:B2 0.000264564
41 *113:18 *132:14 0.00353326
42 *116:22 *132:14 0.000121952
43 *118:24 *132:18 0
44 *120:22 *132:14 0
45 *124:32 *132:18 0.00127793
*RES
1 *11852:X *132:6 39.3436
2 *132:6 *132:8 15
3 *132:8 *132:10 80.4336
4 *132:10 *132:12 15
5 *132:12 *132:14 38.7357
6 *132:14 *132:18 38.3864
7 *132:18 *11853:B2 41.0036
*END

*D_NET *133 0.0415171
*CONN
*I *11855:A0 I *D sky130_fd_sc_hd__mux2_1
*I *11854:X O *D sky130_fd_sc_hd__mux2_2
*CAP
1 *11855:A0 0
2 *11854:X 0.000986556
3 *133:40 0.00130006
4 *133:36 0.00198255
5 *133:26 0.00120385
6 *133:22 0.000593284
7 *133:16 0.00549788
8 *133:14 0.00628816
9 *133:8 0.00184876
10 *133:8 *11854:A1 1.61361e-05
11 *133:8 *204:17 2.3e-05
12 *133:8 *251:15 6.76646e-05
13 *133:8 *279:19 0
14 *133:8 *283:41 0.000182031
15 *133:8 *283:45 5.3304e-05
16 *133:14 *12124:BEN[23] 2.11157e-05
17 *133:14 *12124:DI[23] 2.11066e-05
18 *133:14 *12124:DI[24] 2.11066e-05
19 *133:14 *281:15 0.0022912
20 *133:14 *638:19 0.000999848
21 *133:14 *638:39 2.11157e-05
22 *133:14 *639:134 0.000156606
23 *133:16 *12124:BEN[22] 2.11157e-05
24 *133:16 *12124:DI[19] 5.09165e-05
25 *133:16 *12124:DI[21] 5.09165e-05
26 *133:16 *12124:DI[18] 5.09165e-05
27 *133:16 *12124:DI[22] 5.09165e-05
28 *133:16 *12124:DI[20] 2.31116e-05
29 *133:16 *12124:DI[17] 2.31209e-05
30 *133:16 *139:36 0.00151131
31 *133:16 *186:19 2.11066e-05
32 *133:16 *193:16 0.000669931
33 *133:16 *193:18 0.0016223
34 *133:16 *195:17 0.000130551
35 *133:16 *199:17 2.31116e-05
36 *133:16 *560:154 0.000341849
37 *133:16 *632:83 0.000670372
38 *133:16 *639:22 0.000465596
39 *133:16 *639:34 0.000455691
40 *133:16 *639:46 0.000435964
41 *133:16 *639:58 0.000450731
42 *133:16 *639:74 0.00042595
43 *133:16 *639:94 1.18349e-05
44 *133:22 *12124:DI[2] 2.62931e-05
45 *133:22 *208:19 6.17437e-06
46 *133:26 *193:18 0.00268886
47 *133:26 *194:22 0.000224817
48 *133:26 *195:19 0.000275969
49 *133:26 *213:17 2.05503e-05
50 *133:36 *12124:DI[5] 0.000424168
51 *133:36 *141:26 0.000672583
52 *133:36 *198:11 0.000322233
53 *133:36 *199:19 0.000254406
54 *133:36 *350:24 5.45826e-05
55 *133:36 *351:16 7.03733e-05
56 *133:40 *700:DIODE 1.85916e-05
57 *133:40 *704:DIODE 1.85916e-05
58 *133:40 *11855:S 0.00021677
59 *133:40 *134:6 4.21537e-05
60 *133:40 *136:12 9.33353e-05
61 *133:40 *219:45 1.61361e-05
62 *133:40 *219:47 1.85916e-05
63 *133:40 *219:49 1.85916e-05
64 *119:34 *133:40 6.17437e-06
65 *122:14 *133:40 4.21158e-05
66 *123:18 *133:14 0.000148614
67 *123:18 *133:16 0.000646202
68 *123:18 *133:26 0.00223147
69 *127:10 *133:36 0.00165041
70 *130:18 *133:36 0.000225728
*RES
1 *11854:X *133:8 37.935
2 *133:8 *133:14 48.6918
3 *133:14 *133:16 138.713
4 *133:16 *133:22 31.0979
5 *133:22 *133:26 49.655
6 *133:26 *133:36 42.3014
7 *133:36 *133:40 30.3907
8 *133:40 *11855:A0 23
*END

*D_NET *134 0.0326442
*CONN
*I *11856:B2 I *D sky130_fd_sc_hd__o221a_2
*I *11855:X O *D sky130_fd_sc_hd__mux2_1
*CAP
1 *11856:B2 0
2 *11855:X 0.00118456
3 *134:28 0.000468359
4 *134:22 0.00100094
5 *134:14 0.00213733
6 *134:12 0.0018897
7 *134:6 0.00146952
8 *134:6 *700:DIODE 9.41704e-05
9 *134:6 *704:DIODE 9.41704e-05
10 *134:6 *12124:DI[7] 0.000178716
11 *134:6 *219:41 4.44329e-05
12 *134:6 *219:43 8.40645e-05
13 *134:6 *219:45 8.17328e-05
14 *134:6 *219:47 8.17328e-05
15 *134:6 *219:49 8.17328e-05
16 *134:12 *195:19 0.000109432
17 *134:12 *198:11 1.11421e-05
18 *134:12 *206:11 0.001135
19 *134:12 *350:26 0.00117893
20 *134:14 *138:18 6.43005e-05
21 *134:14 *194:44 0.00158322
22 *134:14 *198:11 0.00734349
23 *134:14 *204:19 0.00103865
24 *134:14 *206:19 0.00536847
25 *134:14 *350:26 3.05881e-05
26 *134:14 *576:10 0.000183087
27 *134:22 *182:10 0.000869909
28 *134:28 *187:30 3.89178e-05
29 *134:28 *583:14 0.000408189
30 *134:28 *584:16 0.000616575
31 *119:34 *134:6 6.46983e-05
32 *122:36 *134:28 0
33 *128:16 *134:22 0.00132582
34 *128:20 *134:22 0.000768632
35 *130:30 *134:22 0.0015446
36 *132:10 *134:14 2.72775e-05
37 *133:40 *134:6 4.21537e-05
*RES
1 *11855:X *134:6 38.8671
2 *134:6 *134:12 31.2089
3 *134:12 *134:14 96.8082
4 *134:14 *134:22 42.4671
5 *134:22 *134:28 41.0614
6 *134:28 *11856:B2 23
*END

*D_NET *135 0.0374254
*CONN
*I *11858:A0 I *D sky130_fd_sc_hd__mux2_1
*I *11857:X O *D sky130_fd_sc_hd__mux2_2
*CAP
1 *11858:A0 0
2 *11857:X 0.000155694
3 *135:34 0.00226286
4 *135:18 0.0137469
5 *135:16 0.0137694
6 *135:12 0.00244106
7 *135:12 *250:11 0.00012758
8 *135:12 *284:66 2.64616e-05
9 *135:16 *12124:BEN[28] 9.59396e-05
10 *135:16 *484:34 0
11 *135:16 *489:42 0
12 *135:18 *186:25 0.000209351
13 *135:18 *208:25 0.0016278
14 *135:18 *212:25 0.000292751
15 *135:18 *215:27 4.09472e-05
16 *135:34 *11858:A1 3.27248e-05
17 *135:34 *12124:BEN[6] 4.51353e-05
18 *135:34 *215:17 0.00143962
19 *135:34 *220:127 0.000330729
20 *135:34 *319:34 2.05503e-05
21 *11849:A0 *135:34 9.40798e-05
22 *123:34 *135:34 0.000665914
*RES
1 *11857:X *135:12 48.3511
2 *135:12 *135:16 13.3368
3 *135:16 *135:18 45.8789
4 *135:18 *135:34 38.9131
5 *135:34 *11858:A0 23
*END

*D_NET *136 0.0286221
*CONN
*I *11859:B2 I *D sky130_fd_sc_hd__o221a_2
*I *11858:X O *D sky130_fd_sc_hd__mux2_1
*CAP
1 *11859:B2 0
2 *11858:X 0.000608678
3 *136:26 0.000987646
4 *136:20 0.00143812
5 *136:14 0.00253294
6 *136:12 0.00269115
7 *136:12 *703:DIODE 1.61361e-05
8 *136:14 *138:12 0.000572588
9 *136:14 *144:18 1.74053e-05
10 *136:14 *193:26 0.00327111
11 *136:14 *582:18 0.00293127
12 *136:14 *629:8 0.000848915
13 *136:20 *142:30 0.00105217
14 *136:20 *194:44 2.13361e-05
15 *136:20 *575:14 0
16 *136:20 *576:14 0
17 *136:26 *648:DIODE 0
18 *136:26 *11825:A 1.61305e-05
19 *136:26 *144:28 0.000651331
20 *136:26 *212:25 0.000146939
21 *136:26 *557:12 0
22 *136:26 *597:10 0
23 *136:26 *630:12 0.00011901
24 *136:26 *632:28 0
25 *136:26 *633:26 0.000144221
26 *136:26 *633:41 1.76557e-05
27 *11849:A0 *136:12 6.70361e-05
28 *114:8 *136:26 2.46927e-05
29 *120:22 *136:20 0.00155817
30 *127:10 *136:14 0.00156043
31 *128:10 *136:14 0.00690588
32 *130:6 *136:12 0.000327794
33 *132:14 *136:20 0
34 *133:40 *136:12 9.33353e-05
*RES
1 *11858:X *136:12 47.9429
2 *136:12 *136:14 111.422
3 *136:14 *136:20 47.2964
4 *136:20 *136:26 33.415
5 *136:26 *11859:B2 23
*END

*D_NET *137 0.0602166
*CONN
*I *11861:A0 I *D sky130_fd_sc_hd__mux2_2
*I *11860:X O *D sky130_fd_sc_hd__mux2_2
*CAP
1 *11861:A0 0.000277988
2 *11860:X 0
3 *137:26 0.00111798
4 *137:24 0.00146393
5 *137:16 0.00458538
6 *137:14 0.00396145
7 *137:12 0.00161225
8 *137:10 0.00224457
9 *137:6 0.000632323
10 *11861:A0 *719:DIODE 9.41704e-05
11 *11861:A0 *138:8 0.000171385
12 *11861:A0 *221:69 4.08664e-05
13 *11861:A0 *221:71 0.000163466
14 *11861:A0 *221:73 8.17328e-05
15 *137:10 *141:8 0
16 *137:10 *253:27 0
17 *137:10 *287:32 0
18 *137:12 *139:12 0.0023723
19 *137:16 *141:16 0.00425178
20 *137:16 *143:18 0.017976
21 *137:16 *198:11 0.00693625
22 *137:16 *199:19 0.000277518
23 *137:16 *258:11 3.72639e-05
24 *137:16 *272:11 0
25 *137:16 *272:21 0.00148364
26 *137:16 *382:48 0.00195621
27 *137:24 *12124:DI[1] 7.3578e-05
28 *137:24 *197:17 0.000148185
29 *137:26 *184:8 0.00304683
30 *137:26 *374:16 0.000487617
31 *3:19 *137:12 0.000496542
32 *119:14 *137:16 0.00118399
33 *129:10 *137:26 0.00304144
*RES
1 *11860:X *137:6 38
2 *137:6 *137:10 27.1179
3 *137:10 *137:12 46.3586
4 *137:12 *137:14 15
5 *137:14 *137:16 233.616
6 *137:16 *137:24 38.6171
7 *137:24 *137:26 40.2893
8 *137:26 *11861:A0 43.3857
*END

*D_NET *138 0.0389617
*CONN
*I *11862:B2 I *D sky130_fd_sc_hd__o221a_2
*I *11861:X O *D sky130_fd_sc_hd__mux2_2
*CAP
1 *11862:B2 0
2 *11861:X 0.000745114
3 *138:28 0.000204121
4 *138:22 0.00278025
5 *138:20 0.00257613
6 *138:18 0.00179211
7 *138:16 0.0019145
8 *138:12 0.000755268
9 *138:8 0.00137798
10 *138:12 *629:8 0.00252938
11 *138:16 *12124:DI[7] 0
12 *138:16 *144:16 5.3304e-05
13 *138:16 *193:24 6.08617e-05
14 *138:18 *144:18 0.00773698
15 *138:18 *198:11 0.00814739
16 *138:18 *199:19 0.00107871
17 *138:18 *582:18 0
18 *138:22 *182:10 3.74951e-05
19 *138:22 *206:39 0.000226923
20 *138:28 *631:117 4.2812e-06
21 *11861:A0 *138:8 0.000171385
22 *118:24 *138:28 0
23 *125:14 *138:12 0.00170848
24 *127:10 *138:12 0.000118932
25 *127:10 *138:18 1.12487e-05
26 *128:10 *138:18 0.000240971
27 *130:18 *138:18 0.000272253
28 *130:30 *138:22 0.00343515
29 *132:18 *138:28 0.000345635
30 *134:14 *138:18 6.43005e-05
31 *136:14 *138:12 0.000572588
*RES
1 *11861:X *138:8 47.6736
2 *138:8 *138:12 48.2464
3 *138:12 *138:16 17.0507
4 *138:16 *138:18 108.253
5 *138:18 *138:20 15
6 *138:20 *138:22 41.1179
7 *138:22 *138:28 34.7229
8 *138:28 *11862:B2 23
*END

*D_NET *139 0.0653099
*CONN
*I *11864:A0 I *D sky130_fd_sc_hd__mux2_1
*I *11863:X O *D sky130_fd_sc_hd__mux2_2
*CAP
1 *11864:A0 0.00123176
2 *11863:X 0
3 *139:42 0.00155335
4 *139:36 0.0015816
5 *139:22 0.00154645
6 *139:16 0.00391257
7 *139:14 0.00362614
8 *139:12 0.00120824
9 *139:10 0.00184813
10 *139:6 0.000639888
11 *11864:A0 *731:DIODE 1.85916e-05
12 *11864:A0 *140:8 2.6362e-05
13 *11864:A0 *141:22 8.91468e-07
14 *11864:A0 *222:48 3.22722e-05
15 *11864:A0 *222:50 1.85916e-05
16 *11864:A0 *222:52 1.85916e-05
17 *11864:A0 *222:54 1.85916e-05
18 *11864:A0 *402:18 5.50106e-05
19 *139:12 *143:14 0.00532872
20 *139:16 *143:18 0.000748561
21 *139:16 *205:11 2.11396e-05
22 *139:16 *258:11 0.00441144
23 *139:16 *259:11 0.00430732
24 *139:16 *278:21 0.00233167
25 *139:22 *12124:AD[2] 0.000254034
26 *139:22 *351:8 0.000341701
27 *139:36 *186:19 2.81221e-05
28 *139:36 *193:16 0.00150329
29 *139:36 *195:19 0.000953345
30 *139:36 *197:17 0.000332709
31 *139:36 *560:128 5.96737e-06
32 *139:36 *632:83 0.000317214
33 *139:42 *143:18 0.00178237
34 *139:42 *198:11 0.0017878
35 *139:42 *199:19 0.000356787
36 *3:19 *139:12 0.00081458
37 *125:10 *139:16 0.00880051
38 *127:10 *139:16 0.00966198
39 *133:16 *139:36 0.00151131
40 *137:12 *139:12 0.0023723
*RES
1 *11863:X *139:6 38
2 *139:6 *139:10 27.8221
3 *139:10 *139:12 59.2221
4 *139:12 *139:14 15
5 *139:14 *139:16 203.331
6 *139:16 *139:22 35.8621
7 *139:22 *139:36 46.5337
8 *139:36 *139:42 45.8582
9 *139:42 *11864:A0 36.9614
*END

*D_NET *140 0.0238133
*CONN
*I *11865:B2 I *D sky130_fd_sc_hd__o221a_2
*I *11864:X O *D sky130_fd_sc_hd__mux2_1
*CAP
1 *11865:B2 0.000397437
2 *11864:X 0.000725091
3 *140:10 0.00230583
4 *140:8 0.00263349
5 *11865:B2 *11865:A1 5.44668e-05
6 *11865:B2 *11865:B1 1.28818e-05
7 *11865:B2 *205:19 0.0001337
8 *11865:B2 *575:36 0.000322119
9 *11865:B2 *628:194 0.000294061
10 *140:8 *731:DIODE 9.41704e-05
11 *140:8 *12124:DI[3] 2.94659e-05
12 *140:8 *222:48 4.08664e-05
13 *140:8 *222:50 8.17328e-05
14 *140:8 *222:52 8.17328e-05
15 *140:8 *222:54 8.17328e-05
16 *140:10 *205:19 0.00826686
17 *140:10 *575:36 2.15604e-05
18 *140:10 *575:38 0.00820977
19 *11864:A0 *140:8 2.6362e-05
*RES
1 *11864:X *140:8 46.7207
2 *140:8 *140:10 108.077
3 *140:10 *11865:B2 47.2489
*END

*D_NET *141 0.059862
*CONN
*I *11867:A0 I *D sky130_fd_sc_hd__mux2_2
*I *11866:X O *D sky130_fd_sc_hd__mux2_2
*CAP
1 *11867:A0 0.000739
2 *11866:X 0.000479496
3 *141:26 0.00124973
4 *141:22 0.000582165
5 *141:16 0.00437418
6 *141:14 0.00430275
7 *141:12 0.00196178
8 *141:10 0.00196178
9 *141:8 0.000479496
10 *11867:A0 *737:DIODE 9.67842e-05
11 *11867:A0 *142:6 0.000122826
12 *11867:A0 *223:71 0.00021677
13 *141:12 *143:14 0.000416883
14 *141:16 *198:11 0.0088937
15 *141:16 *204:19 0.00151467
16 *141:16 *206:11 0.015856
17 *141:16 *272:11 0.00203145
18 *141:16 *272:21 0.00148587
19 *141:16 *382:48 0.00106878
20 *141:22 *12124:DI[3] 2.19998e-05
21 *141:26 *198:11 0.00251245
22 *141:26 *199:19 0.000441804
23 *141:26 *350:18 0.00179795
24 *11864:A0 *141:22 8.91468e-07
25 *3:19 *141:12 0.00112478
26 *119:14 *141:16 0.00118623
27 *127:10 *141:26 1.74053e-05
28 *133:36 *141:26 0.000672583
29 *137:10 *141:8 0
30 *137:16 *141:16 0.00425178
*RES
1 *11866:X *141:8 47.3007
2 *141:8 *141:10 15
3 *141:10 *141:12 43.5
4 *141:12 *141:14 15
5 *141:14 *141:16 255.801
6 *141:16 *141:22 31.0979
7 *141:22 *141:26 47.5421
8 *141:26 *11867:A0 33.6264
*END

*D_NET *142 0.0274463
*CONN
*I *11868:B2 I *D sky130_fd_sc_hd__o221a_2
*I *11867:X O *D sky130_fd_sc_hd__mux2_2
*CAP
1 *11868:B2 0
2 *11867:X 0.000890383
3 *142:30 0.00152478
4 *142:24 0.00220076
5 *142:20 0.0025438
6 *142:16 0.001977
7 *142:10 0.000697622
8 *142:8 0.000588435
9 *142:6 0.000890383
10 *142:6 *737:DIODE 3.3577e-05
11 *142:6 *12124:DI[6] 0.000219033
12 *142:6 *214:17 3.7122e-06
13 *142:6 *223:71 2.43944e-05
14 *142:10 *194:30 0.00315337
15 *142:10 *195:19 0.000403337
16 *142:10 *351:18 0.00310597
17 *142:10 *351:24 2.17761e-05
18 *142:16 *12124:BEN[9] 3.7122e-06
19 *142:20 *12124:BEN[10] 2.11157e-05
20 *142:20 *12124:BEN[11] 2.11157e-05
21 *142:20 *187:22 2.11066e-05
22 *142:20 *188:22 2.11066e-05
23 *142:20 *189:22 2.11066e-05
24 *142:20 *351:24 3.39102e-05
25 *142:20 *351:26 0.00129175
26 *142:20 *557:161 0.000314965
27 *142:20 *557:171 0.000746883
28 *142:20 *557:191 3.81338e-05
29 *142:24 *191:21 2.11066e-05
30 *142:24 *192:23 2.26406e-05
31 *142:24 *195:19 0.00018885
32 *142:24 *206:27 0.00175784
33 *142:24 *351:26 0.00202298
34 *142:24 *557:157 0.000405494
35 *142:24 *575:30 0.00013185
36 *142:30 *187:30 0
37 *142:30 *191:27 0.0003151
38 *142:30 *208:25 0.00010083
39 *142:30 *575:14 0
40 *142:30 *631:178 1.40087e-05
41 *11867:A0 *142:6 0.000122826
42 *120:22 *142:30 0.000382313
43 *130:26 *142:24 9.50102e-05
44 *132:14 *142:30 0
45 *136:20 *142:30 0.00105217
*RES
1 *11867:X *142:6 35.5321
2 *142:6 *142:8 15
3 *142:8 *142:10 40.6414
4 *142:10 *142:16 31.5743
5 *142:16 *142:20 49.1861
6 *142:20 *142:24 45.6054
7 *142:24 *142:30 49.4893
8 *142:30 *11868:B2 38
*END

*D_NET *143 0.0649128
*CONN
*I *11870:A0 I *D sky130_fd_sc_hd__mux2_2
*I *11869:X O *D sky130_fd_sc_hd__mux2_4
*CAP
1 *11870:A0 0.000548812
2 *11869:X 0.000562165
3 *143:28 0.000873199
4 *143:18 0.00428965
5 *143:16 0.00396527
6 *143:14 0.00220533
7 *143:12 0.00220533
8 *143:10 0.000562165
9 *11870:A0 *742:DIODE 6.70361e-05
10 *11870:A0 *11870:A1 4.67488e-05
11 *11870:A0 *144:8 0.000310483
12 *11870:A0 *400:28 3.05299e-05
13 *143:10 *256:32 0
14 *143:10 *288:36 5.50106e-05
15 *143:10 *635:144 5.50106e-05
16 *143:18 *198:11 4.30644e-05
17 *143:18 *199:19 0.00169817
18 *143:18 *258:11 0.00443726
19 *143:28 *12124:DI[3] 6.70361e-05
20 *143:28 *629:8 0.000548434
21 *3:19 *143:14 0.00162229
22 *125:14 *143:28 0.000550696
23 *127:10 *143:18 0.0139166
24 *137:16 *143:18 0.017976
25 *139:12 *143:14 0.00532872
26 *139:16 *143:18 0.000748561
27 *139:42 *143:18 0.00178237
28 *141:12 *143:14 0.000416883
*RES
1 *11869:X *143:10 49.6829
2 *143:10 *143:12 15
3 *143:12 *143:14 70.18
4 *143:14 *143:16 15
5 *143:16 *143:18 256.505
6 *143:18 *143:28 40.6679
7 *143:28 *11870:A0 46.7207
*END

*D_NET *144 0.0362303
*CONN
*I *11871:B2 I *D sky130_fd_sc_hd__o221a_2
*I *11870:X O *D sky130_fd_sc_hd__mux2_2
*CAP
1 *11871:B2 0
2 *11870:X 0.000732865
3 *144:28 0.000488081
4 *144:24 0.000858393
5 *144:18 0.00192773
6 *144:16 0.00163219
7 *144:10 0.000743963
8 *144:8 0.00140206
9 *144:10 *198:11 0.0033259
10 *144:10 *204:19 0.000467403
11 *144:10 *206:11 0.00333035
12 *144:16 *193:24 0.000137361
13 *144:18 *199:19 0.0014108
14 *144:24 *496:32 0.000105749
15 *144:24 *557:12 0.000843568
16 *144:24 *575:30 0.000240459
17 *144:28 *192:31 0.000249834
18 *144:28 *212:25 0.000147694
19 *144:28 *557:12 0
20 *144:28 *632:8 0.000140949
21 *11870:A0 *144:8 0.000310483
22 *116:22 *144:24 0.000156774
23 *124:22 *144:24 0.00142772
24 *127:10 *144:18 0.000979117
25 *128:10 *144:18 0.00671183
26 *136:14 *144:18 1.74053e-05
27 *136:26 *144:28 0.000651331
28 *138:16 *144:16 5.3304e-05
29 *138:18 *144:18 0.00773698
*RES
1 *11870:X *144:8 48.15
2 *144:8 *144:10 43.1064
3 *144:10 *144:16 31.5743
4 *144:16 *144:18 99.8014
5 *144:18 *144:24 45.8671
6 *144:24 *144:28 27.8221
7 *144:28 *11871:B2 23
*END

*D_NET *145 0.0443909
*CONN
*I *11873:A0 I *D sky130_fd_sc_hd__mux2_1
*I *11872:X O *D sky130_fd_sc_hd__mux2_2
*CAP
1 *11873:A0 0
2 *11872:X 0.000205909
3 *145:18 0.000712224
4 *145:10 0.00549142
5 *145:8 0.00498511
6 *145:8 *289:31 0.000135037
7 *145:8 *289:33 5.3304e-05
8 *145:8 *289:35 0.000127041
9 *145:10 *149:10 0.0129931
10 *145:10 *180:52 0.00145531
11 *145:10 *181:51 0.000112617
12 *145:10 *185:10 0.000131966
13 *145:10 *290:27 0
14 *145:10 *293:19 0.00060325
15 *145:10 *310:19 0.000225477
16 *145:10 *430:16 0.000435681
17 *145:10 *452:24 0.000236054
18 *145:10 *554:77 1.47563e-05
19 *145:10 *578:10 0
20 *145:18 *225:97 0.000135037
21 *145:18 *225:99 5.3304e-05
22 *145:18 *243:27 0.000138759
23 *145:18 *564:59 8.73233e-05
24 *145:18 *564:67 0.000115312
25 *145:18 *578:10 0.00106706
26 *145:18 *626:64 9.41704e-05
27 *112:10 *145:10 0.013799
28 *112:10 *145:18 0
29 *112:14 *145:18 0.000982628
*RES
1 *11872:X *145:8 41.3868
2 *145:8 *145:10 203.508
3 *145:10 *145:18 35.5382
4 *145:18 *11873:A0 23
*END

*D_NET *146 0.0204614
*CONN
*I *11874:B2 I *D sky130_fd_sc_hd__o221a_2
*I *11873:X O *D sky130_fd_sc_hd__mux2_1
*CAP
1 *11874:B2 0.000103869
2 *11873:X 0.000229335
3 *146:10 0.00337376
4 *146:8 0.00349923
5 *11874:B2 *11874:A1 3.46206e-05
6 *11874:B2 *11874:A2 0.000175903
7 *11874:B2 *11874:B1 5.28598e-05
8 *11874:B2 *11874:C1 9.41704e-05
9 *11874:B2 *180:23 2.02872e-05
10 *146:8 *626:64 0.000298503
11 *146:10 *11932:A 0.000252769
12 *146:10 *12124:DI[7] 7.13409e-05
13 *146:10 *178:18 0.000139822
14 *146:10 *360:28 0.00282084
15 *146:10 *362:10 8.20893e-05
16 *146:10 *365:24 1.90195e-05
17 *146:10 *369:50 4.96811e-06
18 *146:10 *371:26 0.00457613
19 *146:10 *371:52 4.96811e-06
20 *146:10 *389:16 0.000139945
21 *146:10 *393:16 0.0024003
22 *146:10 *560:18 1.38076e-05
23 *146:10 *560:20 0.00103639
24 *146:10 *560:403 0.000102611
25 *146:10 *627:27 0.000703537
26 *146:10 *630:30 3.64246e-05
27 *146:10 *634:10 0.000173945
*RES
1 *11873:X *146:8 41.48
2 *146:8 *146:10 105.084
3 *146:10 *11874:B2 40.5271
*END

*D_NET *147 0.0492692
*CONN
*I *11876:A0 I *D sky130_fd_sc_hd__mux2_1
*I *11875:X O *D sky130_fd_sc_hd__mux2_2
*CAP
1 *11876:A0 0
2 *11875:X 0.000150415
3 *147:10 0.00628225
4 *147:8 0.00643266
5 *147:8 *290:72 1.61361e-05
6 *147:8 *290:76 3.7122e-06
7 *147:10 *11840:A1 8.4047e-05
8 *147:10 *220:29 0.000641402
9 *147:10 *220:51 0.00085596
10 *147:10 *221:46 0.00157688
11 *147:10 *223:25 0.00030643
12 *147:10 *245:27 4.51403e-05
13 *147:10 *248:39 0.000219469
14 *147:10 *258:38 0.000218416
15 *147:10 *362:76 0.000635989
16 *147:10 *407:16 0.000501414
17 *147:10 *452:24 0.000577173
18 *147:10 *550:8 0.0114408
19 *147:10 *554:14 0.000888327
20 *147:10 *554:31 0.000668362
21 *147:10 *625:120 0.000187707
22 *147:10 *625:131 0.000426959
23 *147:10 *625:153 0.000206211
24 *117:14 *147:10 0.0161446
25 *121:26 *147:10 0.000758733
*RES
1 *11875:X *147:8 39.5743
2 *147:8 *147:10 250.166
3 *147:10 *11876:A0 38
*END

*D_NET *148 0.0143785
*CONN
*I *11877:B2 I *D sky130_fd_sc_hd__o221a_2
*I *11876:X O *D sky130_fd_sc_hd__mux2_1
*CAP
1 *11877:B2 0
2 *11876:X 0.000137747
3 *148:14 0.000710094
4 *148:10 0.00257955
5 *148:8 0.00200721
6 *148:8 *625:26 6.70361e-05
7 *148:10 *180:25 0.00148687
8 *148:10 *223:17 0.00181812
9 *148:10 *430:16 0.000282337
10 *148:10 *564:10 0.00102646
11 *148:10 *564:25 0.000494924
12 *148:10 *574:16 0.00146586
13 *148:10 *578:10 0
14 *148:14 *11877:A1 1.47162e-05
15 *148:14 *11877:A2 0.000107611
16 *148:14 *11877:B1 5.89771e-05
17 *148:14 *11877:C1 0.000138607
18 *148:14 *632:95 0.000976486
19 *148:14 *634:22 0.00100585
*RES
1 *11876:X *148:8 39.5743
2 *148:8 *148:10 64.235
3 *148:10 *148:14 38.0136
4 *148:14 *11877:B2 23
*END

*D_NET *149 0.0865087
*CONN
*I *663:DIODE I *D sky130_fd_sc_hd__diode_2
*I *862:DIODE I *D sky130_fd_sc_hd__diode_2
*I *11879:A0 I *D sky130_fd_sc_hd__mux2_1
*I *640:DIODE I *D sky130_fd_sc_hd__diode_2
*I *751:DIODE I *D sky130_fd_sc_hd__diode_2
*I *973:DIODE I *D sky130_fd_sc_hd__diode_2
*I *1076:DIODE I *D sky130_fd_sc_hd__diode_2
*I *1109:DIODE I *D sky130_fd_sc_hd__diode_2
*I *641:DIODE I *D sky130_fd_sc_hd__diode_2
*I *652:DIODE I *D sky130_fd_sc_hd__diode_2
*I *1098:DIODE I *D sky130_fd_sc_hd__diode_2
*I *1087:DIODE I *D sky130_fd_sc_hd__diode_2
*I *1065:DIODE I *D sky130_fd_sc_hd__diode_2
*I *11878:X O *D sky130_fd_sc_hd__mux2_4
*CAP
1 *663:DIODE 4.54402e-05
2 *862:DIODE 0
3 *11879:A0 2.68367e-05
4 *640:DIODE 7.37141e-05
5 *751:DIODE 0
6 *973:DIODE 0
7 *1076:DIODE 0
8 *1109:DIODE 0
9 *641:DIODE 0
10 *652:DIODE 5.25057e-05
11 *1098:DIODE 0
12 *1087:DIODE 0
13 *1065:DIODE 0
14 *11878:X 0.00012034
15 *149:61 0.000212012
16 *149:59 0.000505778
17 *149:57 0.000530488
18 *149:55 0.0003609
19 *149:53 0.000363159
20 *149:51 0.000316914
21 *149:49 0.000183068
22 *149:45 0.000350925
23 *149:38 0.000263468
24 *149:31 0.000128779
25 *149:24 0.000110409
26 *149:22 0.00316237
27 *149:20 0.00312325
28 *149:18 0.00338006
29 *149:16 0.0037688
30 *149:10 0.00377747
31 *149:8 0.00350906
32 *640:DIODE *385:14 5.41288e-05
33 *652:DIODE *553:10 0
34 *663:DIODE *585:14 2.64616e-05
35 *11879:A0 *385:14 0.000143543
36 *11879:A0 *625:63 0.000143543
37 *149:8 *291:23 3.22879e-05
38 *149:8 *309:23 3.84903e-05
39 *149:10 *181:51 0.00065542
40 *149:10 *185:10 0.00969254
41 *149:10 *310:19 0.00208961
42 *149:10 *310:25 0.000655888
43 *149:10 *441:20 0.000265953
44 *149:10 *550:18 0.000482709
45 *149:16 *185:8 0
46 *149:18 *209:13 0.000222988
47 *149:18 *210:13 0.0133606
48 *149:18 *330:8 0.0140988
49 *149:18 *540:18 0
50 *149:22 *564:6 0.00346886
51 *149:22 *584:18 0.000165744
52 *149:22 *585:14 0.00256839
53 *149:31 *585:14 4.79641e-05
54 *149:38 *585:14 5.70419e-05
55 *149:45 *585:14 0.000144221
56 *149:49 *150:10 1.4471e-05
57 *149:49 *227:75 8.62783e-05
58 *149:51 *150:10 2.61802e-05
59 *149:53 *150:10 2.76611e-06
60 *149:53 *198:19 0
61 *149:55 *198:19 0
62 *149:55 *603:8 0
63 *149:57 *198:19 0
64 *149:57 *603:8 0
65 *149:57 *630:88 6.7177e-06
66 *149:59 *198:19 0
67 *149:59 *198:40 0.000161651
68 *149:59 *603:8 0
69 *149:59 *630:88 1.69668e-05
70 *149:59 *634:56 8.4047e-05
71 *149:61 *553:10 0
72 wbs_dat_o[12] *149:61 0
73 *42:9 *652:DIODE 8.85189e-05
74 *42:9 *149:59 5.27225e-05
75 *42:9 *149:61 0.000194245
76 *145:10 *149:10 0.0129931
*RES
1 *11878:X *149:8 40.0507
2 *149:8 *149:10 173.751
3 *149:10 *149:16 35.3857
4 *149:16 *149:18 184.668
5 *149:18 *149:20 15
6 *149:20 *149:22 69.7036
7 *149:22 *149:24 0.497143
8 *149:24 *1065:DIODE 23
9 *149:24 *149:31 1.09786
10 *149:31 *1087:DIODE 23
11 *149:31 *149:38 1.09786
12 *149:38 *1098:DIODE 23
13 *149:38 *149:45 3.00357
14 *149:45 *149:49 16.9057
15 *149:49 *149:51 1.20143
16 *149:51 *149:53 2.96214
17 *149:53 *149:55 2.96214
18 *149:55 *149:57 2.96214
19 *149:57 *149:59 5.77929
20 *149:59 *149:61 2.96214
21 *149:61 *652:DIODE 39.2014
22 *149:61 *641:DIODE 38
23 *149:59 *1109:DIODE 38
24 *149:57 *1076:DIODE 38
25 *149:55 *973:DIODE 38
26 *149:53 *751:DIODE 38
27 *149:51 *640:DIODE 39.0979
28 *149:49 *11879:A0 39.5743
29 *149:45 *862:DIODE 23
30 *149:45 *663:DIODE 23.6214
*END

*D_NET *150 0.00896803
*CONN
*I *11880:B2 I *D sky130_fd_sc_hd__o221a_2
*I *11879:X O *D sky130_fd_sc_hd__mux2_1
*CAP
1 *11880:B2 0
2 *11879:X 0.000143675
3 *150:26 0.000454886
4 *150:18 0.00158152
5 *150:10 0.00127031
6 *150:10 *198:19 6.32792e-05
7 *150:10 *227:45 1.01436e-05
8 *150:10 *625:63 9.84851e-05
9 *150:18 *196:43 0
10 *150:18 *385:14 0.000597937
11 *150:18 *632:126 3.43144e-05
12 *150:26 *11880:B1 0
13 *150:26 *594:22 0.00235083
14 *150:26 *632:107 0
15 *150:26 *632:126 0.00231924
16 *149:49 *150:10 1.4471e-05
17 *149:51 *150:10 2.61802e-05
18 *149:53 *150:10 2.76611e-06
*RES
1 *11879:X *150:10 41.0036
2 *150:10 *150:18 47.1307
3 *150:18 *150:26 41.9907
4 *150:26 *11880:B2 23
*END

*D_NET *151 0.0578262
*CONN
*I *718:DIODE I *D sky130_fd_sc_hd__diode_2
*I *740:DIODE I *D sky130_fd_sc_hd__diode_2
*I *696:DIODE I *D sky130_fd_sc_hd__diode_2
*I *11882:A0 I *D sky130_fd_sc_hd__mux2_1
*I *674:DIODE I *D sky130_fd_sc_hd__diode_2
*I *685:DIODE I *D sky130_fd_sc_hd__diode_2
*I *707:DIODE I *D sky130_fd_sc_hd__diode_2
*I *763:DIODE I *D sky130_fd_sc_hd__diode_2
*I *774:DIODE I *D sky130_fd_sc_hd__diode_2
*I *785:DIODE I *D sky130_fd_sc_hd__diode_2
*I *729:DIODE I *D sky130_fd_sc_hd__diode_2
*I *796:DIODE I *D sky130_fd_sc_hd__diode_2
*I *752:DIODE I *D sky130_fd_sc_hd__diode_2
*I *11881:X O *D sky130_fd_sc_hd__mux2_4
*CAP
1 *718:DIODE 6.5493e-05
2 *740:DIODE 0
3 *696:DIODE 0
4 *11882:A0 0.000156611
5 *674:DIODE 0
6 *685:DIODE 0
7 *707:DIODE 0
8 *763:DIODE 0
9 *774:DIODE 0
10 *785:DIODE 0.000113001
11 *729:DIODE 0
12 *796:DIODE 0
13 *752:DIODE 0
14 *11881:X 0.00023738
15 *151:131 0.000391539
16 *151:124 0.000370213
17 *151:110 0.000156611
18 *151:71 0.000322165
19 *151:69 0.000540845
20 *151:54 0.000479193
21 *151:52 0.000278049
22 *151:50 0.000378213
23 *151:44 0.000478263
24 *151:40 0.000501075
25 *151:33 0.000320375
26 *151:26 0.00203545
27 *151:16 0.0237197
28 *151:14 0.022291
29 *151:8 0.000750111
30 *718:DIODE *584:22 3.53115e-05
31 *785:DIODE *12225:A 4.77164e-06
32 *785:DIODE *441:10 0
33 *11882:A0 *625:76 0.000233367
34 *151:14 *304:23 0.00033945
35 *151:14 *311:23 0.000694472
36 *151:26 *199:25 8.78319e-07
37 *151:26 *201:15 0.000181109
38 *151:26 *202:23 0.00022293
39 *151:26 *227:21 0.000398482
40 *151:26 *441:14 0.000569538
41 *151:33 *584:22 3.16665e-05
42 *151:40 *584:22 6.09861e-05
43 *151:44 *441:10 0
44 *151:50 *152:10 9.80563e-05
45 *151:52 *152:10 0.000172919
46 *151:52 *441:10 0
47 *151:54 *12225:A 4.55909e-05
48 *151:54 *152:10 0.00013549
49 *151:54 *441:10 0
50 *151:69 *12225:A 0.000383189
51 *151:69 *634:121 0.00020967
52 *151:71 *12225:A 0.000113576
53 *151:124 *584:22 1.46286e-05
54 *151:131 *584:22 0.00015827
55 wbs_dat_o[15] *785:DIODE 0.0001366
*RES
1 *11881:X *151:8 42.5468
2 *151:8 *151:14 18.5032
3 *151:14 *151:16 74.6928
4 *151:16 *151:26 43.065
5 *151:26 *752:DIODE 23
6 *151:26 *151:33 1.09786
7 *151:33 *796:DIODE 23
8 *151:33 *151:40 2.52714
9 *151:40 *151:44 17.9621
10 *151:44 *151:50 4.08071
11 *151:50 *151:52 2.61
12 *151:52 *151:54 2.96214
13 *151:54 *729:DIODE 38
14 *151:54 *151:69 7.16714
15 *151:69 *151:71 3.66643
16 *151:71 *785:DIODE 40.2579
17 *151:71 *774:DIODE 38
18 *151:69 *763:DIODE 38
19 *151:52 *707:DIODE 38
20 *151:50 *685:DIODE 38
21 *151:44 *151:110 15
22 *151:110 *674:DIODE 23
23 *151:110 *11882:A0 25.5271
24 *151:40 *151:124 0.621429
25 *151:124 *696:DIODE 23
26 *151:124 *151:131 4.90929
27 *151:131 *740:DIODE 23
28 *151:131 *718:DIODE 24.0979
*END

*D_NET *152 0.0144604
*CONN
*I *11883:B2 I *D sky130_fd_sc_hd__o221a_2
*I *11882:X O *D sky130_fd_sc_hd__mux2_1
*CAP
1 *11883:B2 0
2 *11882:X 0.000444678
3 *152:32 0.000181926
4 *152:22 0.000607753
5 *152:14 0.00311864
6 *152:12 0.00269282
7 *152:10 0.000444678
8 *152:10 *385:16 5.3304e-05
9 *152:14 *594:22 0.000959423
10 *152:14 *597:24 0.00263007
11 *152:14 *634:90 0.000158063
12 *152:22 *11883:A1 7.51453e-06
13 *152:22 *597:14 0.00152183
14 *152:22 *601:8 0.000166593
15 *152:22 *601:10 0.00102398
16 *152:22 *634:56 1.83618e-05
17 *152:32 *632:126 2.42715e-05
18 *151:50 *152:10 9.80563e-05
19 *151:52 *152:10 0.000172919
20 *151:54 *152:10 0.00013549
*RES
1 *11882:X *152:10 44.4007
2 *152:10 *152:12 15
3 *152:12 *152:14 43.0236
4 *152:14 *152:22 48.3736
5 *152:22 *152:32 32.2164
6 *152:32 *11883:B2 23
*END

*D_NET *153 0.0592167
*CONN
*I *851:DIODE I *D sky130_fd_sc_hd__diode_2
*I *874:DIODE I *D sky130_fd_sc_hd__diode_2
*I *896:DIODE I *D sky130_fd_sc_hd__diode_2
*I *918:DIODE I *D sky130_fd_sc_hd__diode_2
*I *829:DIODE I *D sky130_fd_sc_hd__diode_2
*I *11885:A0 I *D sky130_fd_sc_hd__mux2_1
*I *807:DIODE I *D sky130_fd_sc_hd__diode_2
*I *818:DIODE I *D sky130_fd_sc_hd__diode_2
*I *840:DIODE I *D sky130_fd_sc_hd__diode_2
*I *863:DIODE I *D sky130_fd_sc_hd__diode_2
*I *885:DIODE I *D sky130_fd_sc_hd__diode_2
*I *907:DIODE I *D sky130_fd_sc_hd__diode_2
*I *929:DIODE I *D sky130_fd_sc_hd__diode_2
*I *11884:X O *D sky130_fd_sc_hd__mux2_4
*CAP
1 *851:DIODE 0
2 *874:DIODE 4.68094e-05
3 *896:DIODE 0
4 *918:DIODE 0
5 *829:DIODE 0
6 *11885:A0 0.000107479
7 *807:DIODE 3.41679e-05
8 *818:DIODE 0
9 *840:DIODE 0
10 *863:DIODE 0
11 *885:DIODE 5.57193e-05
12 *907:DIODE 1.91535e-05
13 *929:DIODE 0.000152179
14 *11884:X 0.00012239
15 *153:126 0.00010249
16 *153:119 0.000209141
17 *153:115 0.000153461
18 *153:92 0.000141647
19 *153:40 0.000396787
20 *153:38 0.000510006
21 *153:34 0.000394194
22 *153:32 0.000304146
23 *153:30 0.000231319
24 *153:28 0.000328679
25 *153:26 0.000413559
26 *153:24 0.00258223
27 *153:16 0.0247048
28 *153:14 0.0223
29 *153:12 0.00012239
30 *874:DIODE *228:33 3.53115e-05
31 *907:DIODE *605:24 5.53064e-05
32 *929:DIODE *416:10 1.41244e-05
33 *929:DIODE *421:8 2.04934e-05
34 *929:DIODE *422:10 7.59666e-05
35 *153:12 *287:26 3.07372e-05
36 *153:16 *219:27 0.000213429
37 *153:16 *247:31 0.000120703
38 *153:24 *11885:A1 2.75733e-06
39 *153:24 *204:27 0.0038942
40 *153:24 *227:29 0.000103405
41 *153:24 *230:25 2.82419e-06
42 *153:24 *584:22 0.000124324
43 *153:26 *11885:A1 5.67005e-05
44 *153:26 *547:8 0
45 *153:28 *11885:A1 5.90591e-05
46 *153:28 *156:14 8.29506e-05
47 *153:30 *156:14 0.000104454
48 *153:32 *156:14 0.00021347
49 *153:34 *156:14 0.000112303
50 *153:38 *634:131 6.07306e-05
51 *153:40 *416:10 0
52 *153:40 *422:10 4.24597e-05
53 *153:119 *228:33 5.99365e-05
54 *153:126 *228:33 3.16799e-05
55 *46:11 *907:DIODE 2.93431e-05
56 *114:19 *807:DIODE 5.52998e-05
57 *114:19 *11885:A0 0.000182031
*RES
1 *11884:X *153:12 46.5059
2 *153:12 *153:14 8
3 *153:14 *153:16 76.9776
4 *153:16 *153:24 23.7187
5 *153:24 *153:26 2.96214
6 *153:26 *153:28 4.37071
7 *153:28 *153:30 1.55357
8 *153:30 *153:32 2.96214
9 *153:32 *153:34 2.96214
10 *153:34 *153:38 3.58357
11 *153:38 *153:40 3.66643
12 *153:40 *929:DIODE 40.8793
13 *153:40 *907:DIODE 38.6214
14 *153:38 *885:DIODE 38.6214
15 *153:34 *863:DIODE 38
16 *153:32 *840:DIODE 38
17 *153:30 *818:DIODE 38
18 *153:28 *153:92 15
19 *153:92 *807:DIODE 23.6214
20 *153:92 *11885:A0 25.0507
21 *153:26 *829:DIODE 38
22 *153:24 *153:115 15
23 *153:115 *153:119 2.54786
24 *153:119 *918:DIODE 23
25 *153:119 *153:126 1.09786
26 *153:126 *896:DIODE 23
27 *153:126 *874:DIODE 24.0979
28 *153:115 *851:DIODE 23
*END

*D_NET *154 0.0123914
*CONN
*I *11886:B2 I *D sky130_fd_sc_hd__o221a_2
*I *11885:X O *D sky130_fd_sc_hd__mux2_1
*CAP
1 *11886:B2 0
2 *11885:X 0.00026278
3 *154:20 0.00179147
4 *154:16 0.00291891
5 *154:6 0.00139021
6 *154:6 *599:12 0.00122931
7 *154:16 *441:10 0.000712215
8 *154:16 *630:113 7.00895e-05
9 *154:16 *630:121 0.000517108
10 *154:20 *12208:A 0.000144211
11 *154:20 *156:26 0.000591259
12 *154:20 *585:8 5.50106e-05
13 *154:20 *630:113 0.000599467
14 *154:20 *632:151 0.00105586
15 *154:20 *634:56 8.06804e-06
16 *154:20 *634:73 0.000384719
17 *114:19 *154:6 0.000660692
*RES
1 *11885:X *154:6 36.485
2 *154:6 *154:16 48.7464
3 *154:16 *154:20 43.9971
4 *154:20 *11886:B2 23
*END

*D_NET *155 0.0560731
*CONN
*I *1051:DIODE I *D sky130_fd_sc_hd__diode_2
*I *985:DIODE I *D sky130_fd_sc_hd__diode_2
*I *962:DIODE I *D sky130_fd_sc_hd__diode_2
*I *1029:DIODE I *D sky130_fd_sc_hd__diode_2
*I *11888:A0 I *D sky130_fd_sc_hd__mux2_1
*I *951:DIODE I *D sky130_fd_sc_hd__diode_2
*I *974:DIODE I *D sky130_fd_sc_hd__diode_2
*I *996:DIODE I *D sky130_fd_sc_hd__diode_2
*I *1018:DIODE I *D sky130_fd_sc_hd__diode_2
*I *1040:DIODE I *D sky130_fd_sc_hd__diode_2
*I *1062:DIODE I *D sky130_fd_sc_hd__diode_2
*I *940:DIODE I *D sky130_fd_sc_hd__diode_2
*I *1007:DIODE I *D sky130_fd_sc_hd__diode_2
*I *11887:X O *D sky130_fd_sc_hd__mux2_4
*CAP
1 *1051:DIODE 0
2 *985:DIODE 0
3 *962:DIODE 0
4 *1029:DIODE 0.000106007
5 *11888:A0 0.000107545
6 *951:DIODE 0
7 *974:DIODE 0
8 *996:DIODE 0
9 *1018:DIODE 0
10 *1040:DIODE 0
11 *1062:DIODE 0.000134445
12 *940:DIODE 5.87709e-05
13 *1007:DIODE 0
14 *11887:X 0.000151956
15 *155:121 0.000106007
16 *155:66 0.00025451
17 *155:64 0.000297548
18 *155:62 0.000344473
19 *155:60 0.000318869
20 *155:58 0.000236724
21 *155:56 0.000282186
22 *155:43 0.000337508
23 *155:41 0.000340675
24 *155:37 0.000282906
25 *155:33 0.000171618
26 *155:26 0.0020964
27 *155:16 0.0239497
28 *155:14 0.0218938
29 *155:12 0.000151956
30 *1029:DIODE *800:DIODE 5.67058e-05
31 *1029:DIODE *385:16 7.24484e-05
32 *1062:DIODE *425:10 0
33 *1062:DIODE *428:8 2.46071e-05
34 *1062:DIODE *600:24 8.1379e-05
35 *155:12 *287:26 3.07372e-05
36 *155:16 *248:19 0
37 *155:26 *203:27 0.000524059
38 *155:26 *227:21 0.00158394
39 *155:26 *598:20 0.000333775
40 *155:33 *228:33 1.32939e-05
41 *155:37 *799:DIODE 0.00010018
42 *155:37 *228:33 0.000143059
43 *155:37 *231:66 4.17736e-05
44 *155:37 *231:68 8.6949e-05
45 *155:41 *228:31 0
46 *155:41 *231:27 0
47 *155:41 *231:29 0
48 *155:43 *231:29 0
49 *155:56 *11888:A1 0
50 *155:56 *158:20 8.04879e-05
51 *155:56 *231:29 0
52 *155:56 *599:20 0
53 *155:58 *158:20 0.000104454
54 *155:60 *158:20 0.000241112
55 *155:60 *599:20 0
56 *155:62 *158:20 3.70187e-05
57 *155:62 *599:20 0
58 *155:62 *601:24 0
59 *155:64 *599:20 0
60 *155:64 *601:24 0
61 *155:66 *425:10 0
62 *155:66 *428:8 3.29127e-05
63 *155:66 *601:24 0
64 wbs_dat_o[17] *1062:DIODE 6.67764e-05
65 wbs_dat_o[17] *155:64 5.57725e-05
66 wbs_dat_o[17] *155:66 0.000100069
67 *111:16 *155:26 0.000453924
68 *114:19 *11888:A0 0.000184029
*RES
1 *11887:X *155:12 46.858
2 *155:12 *155:14 8
3 *155:14 *155:16 75.2005
4 *155:16 *155:26 46.8613
5 *155:26 *1007:DIODE 23
6 *155:26 *155:33 0.621429
7 *155:33 *155:37 4.45357
8 *155:37 *155:41 17.61
9 *155:41 *155:43 2.78607
10 *155:43 *940:DIODE 38.9425
11 *155:43 *155:56 1.72964
12 *155:56 *155:58 1.55357
13 *155:58 *155:60 3.31429
14 *155:60 *155:62 2.61
15 *155:62 *155:64 2.96214
16 *155:64 *155:66 2.96214
17 *155:66 *1062:DIODE 40.9621
18 *155:66 *1040:DIODE 38
19 *155:64 *1018:DIODE 38
20 *155:62 *996:DIODE 38
21 *155:60 *974:DIODE 38
22 *155:58 *951:DIODE 38
23 *155:56 *11888:A0 40.0507
24 *155:41 *155:121 15
25 *155:121 *1029:DIODE 25.5479
26 *155:121 *962:DIODE 23
27 *155:37 *985:DIODE 23
28 *155:33 *1051:DIODE 23
*END

*D_NET *156 0.0144491
*CONN
*I *11889:B2 I *D sky130_fd_sc_hd__o221a_2
*I *11888:X O *D sky130_fd_sc_hd__mux2_1
*CAP
1 *11889:B2 0
2 *11888:X 0.000320464
3 *156:26 0.00119764
4 *156:20 0.00130304
5 *156:14 0.000871155
6 *156:8 0.00108622
7 *156:8 *11885:A1 9.65021e-05
8 *156:8 *11888:S 0.000833248
9 *156:8 *599:12 0.000656052
10 *156:14 *11885:A1 1.68817e-05
11 *156:14 *162:16 0.00160424
12 *156:14 *203:31 0.000107277
13 *156:14 *601:18 0.00189264
14 *156:14 *634:121 0.000142011
15 *156:20 *202:23 0.000133316
16 *156:26 *659:DIODE 5.79559e-05
17 *156:26 *12208:A 0.000267161
18 *156:26 *201:23 5.50049e-05
19 *156:26 *201:38 0.000420115
20 *156:26 *585:12 0.000156616
21 *156:26 *630:113 0.00117162
22 *156:26 *632:193 0.000707122
23 *156:26 *634:73 0.000186861
24 *114:19 *156:8 6.14916e-05
25 *153:28 *156:14 8.29506e-05
26 *153:30 *156:14 0.000104454
27 *153:32 *156:14 0.00021347
28 *153:34 *156:14 0.000112303
29 *154:20 *156:26 0.000591259
*RES
1 *11888:X *156:8 49.5793
2 *156:8 *156:14 42.9436
3 *156:14 *156:20 31.9057
4 *156:20 *156:26 49.8
5 *156:26 *11889:B2 38
*END

*D_NET *157 0.0574064
*CONN
*I *1075:DIODE I *D sky130_fd_sc_hd__diode_2
*I *1069:DIODE I *D sky130_fd_sc_hd__diode_2
*I *1068:DIODE I *D sky130_fd_sc_hd__diode_2
*I *1066:DIODE I *D sky130_fd_sc_hd__diode_2
*I *1073:DIODE I *D sky130_fd_sc_hd__diode_2
*I *11891:A0 I *D sky130_fd_sc_hd__mux2_1
*I *1064:DIODE I *D sky130_fd_sc_hd__diode_2
*I *1067:DIODE I *D sky130_fd_sc_hd__diode_2
*I *1070:DIODE I *D sky130_fd_sc_hd__diode_2
*I *1072:DIODE I *D sky130_fd_sc_hd__diode_2
*I *1074:DIODE I *D sky130_fd_sc_hd__diode_2
*I *1071:DIODE I *D sky130_fd_sc_hd__diode_2
*I *11890:X O *D sky130_fd_sc_hd__mux2_4
*CAP
1 *1075:DIODE 0
2 *1069:DIODE 0.00018905
3 *1068:DIODE 0
4 *1066:DIODE 0
5 *1073:DIODE 0
6 *11891:A0 0
7 *1064:DIODE 0.000108789
8 *1067:DIODE 3.08984e-05
9 *1070:DIODE 0
10 *1072:DIODE 0
11 *1074:DIODE 0.000161769
12 *1071:DIODE 0
13 *11890:X 0.000209832
14 *157:65 0.000306537
15 *157:61 0.000567624
16 *157:55 0.000659816
17 *157:53 0.000426001
18 *157:51 0.000274362
19 *157:47 0.00030266
20 *157:43 0.000221067
21 *157:37 0.000548151
22 *157:33 0.000366548
23 *157:26 0.00123632
24 *157:16 0.023173
25 *157:14 0.0229946
26 *157:10 0.00117863
27 *1064:DIODE *603:16 5.47808e-05
28 *1067:DIODE *162:16 7.88828e-05
29 *1067:DIODE *609:14 0.000141954
30 *1069:DIODE *232:29 8.6949e-05
31 *1069:DIODE *232:31 8.43466e-05
32 *1069:DIODE *232:33 8.6949e-05
33 *1069:DIODE *232:35 4.2573e-05
34 *1069:DIODE *232:37 9.67842e-05
35 *1074:DIODE *434:8 1.05441e-05
36 *157:10 *892:DIODE 0
37 *157:14 *159:14 0.00105996
38 *157:14 *177:16 0.000190284
39 *157:14 *287:26 0.000664127
40 *157:26 *204:31 0
41 *157:26 *227:21 0.000416138
42 *157:26 *231:25 0
43 *157:37 *809:DIODE 9.5877e-05
44 *157:37 *232:37 4.17736e-05
45 *157:37 *232:39 8.43466e-05
46 *157:43 *204:31 9.98891e-05
47 *157:43 *232:60 9.3813e-05
48 *157:43 *232:64 6.07611e-06
49 *157:47 *385:16 6.69899e-05
50 *157:51 *204:31 0
51 *157:51 *232:64 0.000119931
52 *157:51 *627:41 0.000119931
53 *157:55 *204:31 0
54 *157:61 *664:DIODE 0
55 *157:61 *204:31 0
56 *157:61 *601:28 0.00014196
57 *157:61 *632:248 0.000160588
58 *157:61 *634:167 1.98125e-05
59 *157:65 *664:DIODE 2.76611e-06
60 *157:65 *434:8 0.000136041
61 wbs_dat_o[18] *1074:DIODE 5.80963e-05
62 *3:41 *157:14 0.000188542
*RES
1 *11890:X *157:10 49.1382
2 *157:10 *157:14 11.5336
3 *157:14 *157:16 75.2005
4 *157:16 *157:26 42.7397
5 *157:26 *1071:DIODE 23
6 *157:26 *157:33 1.09786
7 *157:33 *157:37 4.45357
8 *157:37 *157:43 32.61
9 *157:43 *157:47 2.54786
10 *157:47 *157:51 19.0186
11 *157:51 *157:53 1.55357
12 *157:53 *157:55 3.31429
13 *157:55 *157:61 22.0014
14 *157:61 *157:65 17.9621
15 *157:65 *1074:DIODE 40.9621
16 *157:65 *1072:DIODE 38
17 *157:61 *1070:DIODE 23
18 *157:55 *1067:DIODE 39.5743
19 *157:53 *1064:DIODE 39.5743
20 *157:51 *11891:A0 38
21 *157:47 *1073:DIODE 23
22 *157:43 *1066:DIODE 23
23 *157:37 *1068:DIODE 23
24 *157:37 *1069:DIODE 27.9093
25 *157:33 *1075:DIODE 23
*END

*D_NET *158 0.0136447
*CONN
*I *11892:B2 I *D sky130_fd_sc_hd__o221a_2
*I *11891:X O *D sky130_fd_sc_hd__mux2_1
*CAP
1 *11892:B2 0
2 *11891:X 0.000773798
3 *158:36 0.000577541
4 *158:28 0.00256641
5 *158:20 0.00244357
6 *158:10 0.00122849
7 *158:10 *11888:S 0.000230492
8 *158:10 *160:6 0.000139352
9 *158:20 *11888:A1 0
10 *158:20 *162:16 0.000464509
11 *158:20 *609:14 0.00024876
12 *158:28 *11895:B1 3.84478e-06
13 *158:28 *162:16 0.00119576
14 *158:28 *609:14 0.000293723
15 *158:28 *634:106 2.38733e-05
16 *158:28 *634:121 0.00129222
17 *158:36 *11892:B1 9.28078e-06
18 *158:36 *200:19 0
19 *158:36 *601:10 0.00117775
20 *158:36 *605:12 9.84794e-05
21 *158:36 *632:170 0.000137859
22 *158:36 *634:90 2.1154e-05
23 *158:36 *634:106 4.77164e-06
24 *114:19 *158:10 0.000249934
25 *155:56 *158:20 8.04879e-05
26 *155:58 *158:20 0.000104454
27 *155:60 *158:20 0.000241112
28 *155:62 *158:20 3.70187e-05
*RES
1 *11891:X *158:10 35.2214
2 *158:10 *158:20 41.7761
3 *158:20 *158:28 41.5425
4 *158:28 *158:36 43.8579
5 *158:36 *11892:B2 23
*END

*D_NET *159 0.0572866
*CONN
*I *1080:DIODE I *D sky130_fd_sc_hd__diode_2
*I *1083:DIODE I *D sky130_fd_sc_hd__diode_2
*I *1078:DIODE I *D sky130_fd_sc_hd__diode_2
*I *11894:A0 I *D sky130_fd_sc_hd__mux2_1
*I *1077:DIODE I *D sky130_fd_sc_hd__diode_2
*I *1079:DIODE I *D sky130_fd_sc_hd__diode_2
*I *1082:DIODE I *D sky130_fd_sc_hd__diode_2
*I *1084:DIODE I *D sky130_fd_sc_hd__diode_2
*I *1086:DIODE I *D sky130_fd_sc_hd__diode_2
*I *1088:DIODE I *D sky130_fd_sc_hd__diode_2
*I *1085:DIODE I *D sky130_fd_sc_hd__diode_2
*I *1081:DIODE I *D sky130_fd_sc_hd__diode_2
*I *11893:X O *D sky130_fd_sc_hd__mux2_4
*CAP
1 *1080:DIODE 0
2 *1083:DIODE 0.000148374
3 *1078:DIODE 0
4 *11894:A0 0
5 *1077:DIODE 0
6 *1079:DIODE 0
7 *1082:DIODE 0
8 *1084:DIODE 0
9 *1086:DIODE 0.000169052
10 *1088:DIODE 0
11 *1085:DIODE 0
12 *1081:DIODE 0
13 *11893:X 0.000121257
14 *159:113 0.000148374
15 *159:106 0.000287367
16 *159:93 0.000287367
17 *159:61 0.000330871
18 *159:59 0.000486439
19 *159:57 0.000433783
20 *159:55 0.000366106
21 *159:53 0.000357176
22 *159:49 0.000308911
23 *159:42 0.000293091
24 *159:35 0.000189544
25 *159:28 0.000974329
26 *159:16 0.0230328
27 *159:14 0.023772
28 *159:10 0.00172973
29 *1083:DIODE *12039:A 4.5051e-05
30 *1083:DIODE *205:43 9.67842e-05
31 *1086:DIODE *433:10 0
32 *159:10 *177:35 8.10663e-05
33 *159:10 *265:48 0
34 *159:14 *269:32 0.000222511
35 *159:14 *287:26 0.000338774
36 *159:28 *227:21 0.000169109
37 *159:28 *230:23 5.59957e-05
38 *159:28 *232:25 8.28847e-05
39 *159:49 *817:DIODE 9.84794e-05
40 *159:49 *233:37 5.3304e-05
41 *159:53 *205:37 0.000102335
42 *159:53 *233:41 0.000181654
43 *159:55 *11894:A1 0.000129902
44 *159:55 *168:26 0.00010079
45 *159:55 *205:37 1.58805e-05
46 *159:55 *205:43 2.33694e-05
47 *159:55 *233:41 0.000221184
48 *159:57 *168:26 6.78328e-05
49 *159:57 *205:43 0.000101804
50 *159:59 *665:DIODE 0.000127013
51 *159:59 *168:26 1.69879e-05
52 *159:59 *205:43 2.46036e-05
53 *159:59 *445:8 0.000149499
54 *159:61 *442:10 0
55 *159:61 *445:8 6.07611e-06
56 *159:106 *168:26 0.000121976
57 *159:106 *603:16 6.70017e-05
58 wbs_dat_o[19] *1086:DIODE 6.10867e-05
59 wbs_dat_o[19] *159:61 2.71226e-05
60 *157:14 *159:14 0.00105996
*RES
1 *11893:X *159:10 48.4339
2 *159:10 *159:14 12.564
3 *159:14 *159:16 76.0891
4 *159:16 *159:28 39.8307
5 *159:28 *1081:DIODE 23
6 *159:28 *159:35 1.09786
7 *159:35 *1085:DIODE 23
8 *159:35 *159:42 1.09786
9 *159:42 *1088:DIODE 23
10 *159:42 *159:49 3.00357
11 *159:49 *159:53 17.9621
12 *159:53 *159:55 5.77929
13 *159:55 *159:57 2.96214
14 *159:57 *159:59 5.77929
15 *159:59 *159:61 2.96214
16 *159:61 *1086:DIODE 40.9621
17 *159:61 *1084:DIODE 38
18 *159:59 *1082:DIODE 38
19 *159:57 *1079:DIODE 38
20 *159:55 *159:93 15
21 *159:93 *1077:DIODE 23
22 *159:93 *159:106 33.9564
23 *159:106 *11894:A0 23
24 *159:53 *159:113 15
25 *159:113 *1078:DIODE 23
26 *159:113 *1083:DIODE 25.0507
27 *159:49 *1080:DIODE 23
*END

*D_NET *160 0.0136346
*CONN
*I *11895:B2 I *D sky130_fd_sc_hd__o221a_2
*I *11894:X O *D sky130_fd_sc_hd__mux2_1
*CAP
1 *11895:B2 0
2 *11894:X 0.000763443
3 *160:20 0.000264012
4 *160:14 0.00248286
5 *160:12 0.00245306
6 *160:6 0.000997658
7 *160:6 *801:DIODE 0.000141954
8 *160:6 *11891:A1 0.000139357
9 *160:6 *627:54 0.00103716
10 *160:12 *204:31 0.000234615
11 *160:14 *603:16 0.00491832
12 *160:20 *201:19 0
13 *160:20 *601:16 4.6318e-06
14 *114:19 *160:6 5.81666e-05
15 *158:10 *160:6 0.000139352
*RES
1 *11894:X *160:6 38.8671
2 *160:6 *160:12 33.3143
3 *160:12 *160:14 54.4579
4 *160:14 *160:20 32.9621
5 *160:20 *11895:B2 23
*END

*D_NET *161 0.0659725
*CONN
*I *1095:DIODE I *D sky130_fd_sc_hd__diode_2
*I *1100:DIODE I *D sky130_fd_sc_hd__diode_2
*I *1092:DIODE I *D sky130_fd_sc_hd__diode_2
*I *1090:DIODE I *D sky130_fd_sc_hd__diode_2
*I *1093:DIODE I *D sky130_fd_sc_hd__diode_2
*I *1097:DIODE I *D sky130_fd_sc_hd__diode_2
*I *11897:A0 I *D sky130_fd_sc_hd__mux2_1
*I *1089:DIODE I *D sky130_fd_sc_hd__diode_2
*I *1091:DIODE I *D sky130_fd_sc_hd__diode_2
*I *1094:DIODE I *D sky130_fd_sc_hd__diode_2
*I *1096:DIODE I *D sky130_fd_sc_hd__diode_2
*I *1099:DIODE I *D sky130_fd_sc_hd__diode_2
*I *11896:X O *D sky130_fd_sc_hd__mux2_4
*CAP
1 *1095:DIODE 7.39271e-05
2 *1100:DIODE 0
3 *1092:DIODE 0
4 *1090:DIODE 0
5 *1093:DIODE 6.0311e-05
6 *1097:DIODE 0
7 *11897:A0 0
8 *1089:DIODE 0.000120177
9 *1091:DIODE 3.3586e-05
10 *1094:DIODE 0.000104277
11 *1096:DIODE 0.000102531
12 *1099:DIODE 0.000201167
13 *11896:X 0.00038698
14 *161:128 0.000268746
15 *161:121 0.000194819
16 *161:102 0.000119026
17 *161:46 0.000510584
18 *161:44 0.000678826
19 *161:42 0.000570377
20 *161:40 0.000392386
21 *161:38 0.000296588
22 *161:32 0.000409216
23 *161:28 0.000216812
24 *161:24 0.000175358
25 *161:16 0.0225564
26 *161:14 0.0235944
27 *161:8 0.00154052
28 *1089:DIODE *608:12 3.71228e-05
29 *1091:DIODE *182:42 0.000140259
30 *1091:DIODE *611:12 0.000140259
31 *1094:DIODE *601:28 5.67058e-05
32 *1096:DIODE *605:24 0.000143156
33 *1099:DIODE *12104:A 8.1796e-05
34 *1099:DIODE *448:10 0.000196884
35 *1099:DIODE *450:8 0
36 *161:14 *287:26 0.00151151
37 *161:14 *304:23 0.00329796
38 *161:16 *382:18 0.00614897
39 *161:24 *182:23 3.53546e-05
40 *161:24 *233:25 6.70779e-05
41 *161:28 *182:23 0.000199701
42 *161:32 *830:DIODE 5.50106e-05
43 *161:38 *11897:A1 8.25833e-05
44 *161:38 *170:18 0
45 *161:38 *234:39 0.000169674
46 *161:42 *170:18 0
47 *161:44 *170:18 0
48 *161:44 *206:77 0
49 *161:46 *206:77 0
50 *161:102 *830:DIODE 1.32314e-05
51 *161:128 *234:29 8.6949e-05
52 *161:128 *234:31 8.6949e-05
53 *161:128 *234:33 8.60475e-05
54 *161:128 *234:75 0.000137651
55 *11910:A2 *161:44 3.884e-05
56 *81:8 *1094:DIODE 2.31797e-05
57 *83:10 *1099:DIODE 0.000166513
58 *111:20 *161:24 4.45778e-05
59 *111:20 *161:28 0.00019747
60 *111:20 *161:38 3.93904e-06
61 *111:20 *161:40 2.11537e-05
62 *111:20 *161:42 7.21109e-05
63 *111:20 *161:44 2.29081e-05
*RES
1 *11896:X *161:8 44.6596
2 *161:8 *161:14 22.1955
3 *161:14 *161:16 76.3429
4 *161:16 *161:24 16.9439
5 *161:24 *161:28 17.61
6 *161:28 *161:32 2.54786
7 *161:32 *161:38 19.1636
8 *161:38 *161:40 1.55357
9 *161:40 *161:42 3.31429
10 *161:42 *161:44 5.42714
11 *161:44 *161:46 2.96214
12 *161:46 *1099:DIODE 42.8886
13 *161:46 *1096:DIODE 39.5743
14 *161:44 *1094:DIODE 39.5743
15 *161:42 *1091:DIODE 39.5743
16 *161:40 *1089:DIODE 39.5743
17 *161:38 *11897:A0 38
18 *161:32 *161:102 1.09786
19 *161:102 *1097:DIODE 23
20 *161:102 *1093:DIODE 24.0979
21 *161:28 *1090:DIODE 23
22 *161:24 *161:121 15
23 *161:121 *1092:DIODE 23
24 *161:121 *161:128 4.90929
25 *161:128 *1100:DIODE 23
26 *161:128 *1095:DIODE 24.0979
*END

*D_NET *162 0.01402
*CONN
*I *11898:B2 I *D sky130_fd_sc_hd__o221a_2
*I *11897:X O *D sky130_fd_sc_hd__mux2_1
*CAP
1 *11898:B2 0
2 *11897:X 0.000743817
3 *162:22 0.000177026
4 *162:16 0.00138006
5 *162:14 0.00146769
6 *162:8 0.00100848
7 *162:8 *11894:A1 0.000265767
8 *162:8 *627:61 0.000489232
9 *162:14 *665:DIODE 3.39192e-05
10 *162:14 *205:43 0.000351734
11 *162:14 *485:10 7.71219e-06
12 *162:16 *164:26 0.00310987
13 *162:16 *601:18 8.53131e-05
14 *162:16 *609:14 0.000491363
15 *162:16 *609:20 0.000381507
16 *162:16 *634:121 5.3304e-05
17 *162:22 *634:121 0.000185364
18 *1067:DIODE *162:16 7.88828e-05
19 *114:19 *162:8 0.000263764
20 *114:33 *162:8 0.00018072
21 *156:14 *162:16 0.00160424
22 *158:20 *162:16 0.000464509
23 *158:28 *162:16 0.00119576
*RES
1 *11897:X *162:8 38.8879
2 *162:8 *162:14 35.4271
3 *162:14 *162:16 53.9814
4 *162:16 *162:22 32.61
5 *162:22 *11898:B2 23
*END

*D_NET *163 0.060955
*CONN
*I *11900:A0 I *D sky130_fd_sc_hd__mux2_1
*I *1102:DIODE I *D sky130_fd_sc_hd__diode_2
*I *1101:DIODE I *D sky130_fd_sc_hd__diode_2
*I *1103:DIODE I *D sky130_fd_sc_hd__diode_2
*I *1105:DIODE I *D sky130_fd_sc_hd__diode_2
*I *1107:DIODE I *D sky130_fd_sc_hd__diode_2
*I *1108:DIODE I *D sky130_fd_sc_hd__diode_2
*I *1110:DIODE I *D sky130_fd_sc_hd__diode_2
*I *1111:DIODE I *D sky130_fd_sc_hd__diode_2
*I *1112:DIODE I *D sky130_fd_sc_hd__diode_2
*I *1106:DIODE I *D sky130_fd_sc_hd__diode_2
*I *1104:DIODE I *D sky130_fd_sc_hd__diode_2
*I *11899:X O *D sky130_fd_sc_hd__mux2_4
*CAP
1 *11900:A0 7.36847e-05
2 *1102:DIODE 0
3 *1101:DIODE 6.27375e-05
4 *1103:DIODE 6.27375e-05
5 *1105:DIODE 5.67095e-05
6 *1107:DIODE 2.77218e-05
7 *1108:DIODE 2.32701e-05
8 *1110:DIODE 6.27375e-05
9 *1111:DIODE 4.99221e-05
10 *1112:DIODE 0.000283013
11 *1106:DIODE 0
12 *1104:DIODE 0
13 *11899:X 0.000632731
14 *163:127 6.27375e-05
15 *163:60 0.00052732
16 *163:58 0.0004511
17 *163:56 0.000414652
18 *163:54 0.000443764
19 *163:52 0.000479992
20 *163:50 0.000445434
21 *163:48 0.00026583
22 *163:46 0.000582742
23 *163:35 0.000476713
24 *163:28 0.000121376
25 *163:18 0.0226489
26 *163:16 0.0237531
27 *163:6 0.00180289
28 *1105:DIODE *613:14 1.59094e-05
29 *1107:DIODE *518:18 2.64616e-05
30 *1107:DIODE *611:28 5.3304e-05
31 *1108:DIODE *166:14 5.3304e-05
32 *1108:DIODE *615:14 5.3304e-05
33 *1111:DIODE *608:22 5.3304e-05
34 *1112:DIODE *606:28 5.27215e-06
35 *11900:A0 *833:DIODE 5.41385e-05
36 *163:6 *11899:A0 9.84794e-05
37 *163:6 *474:26 0.000168364
38 *163:6 *637:133 0.00171401
39 *163:16 *898:DIODE 0
40 *163:16 *287:26 0.000517372
41 *163:16 *304:23 0.00261434
42 *163:16 *463:26 0.00142532
43 *163:28 *174:20 2.05503e-05
44 *163:28 *233:25 1.92442e-05
45 *163:35 *164:8 5.26733e-06
46 *163:46 *164:8 2.03764e-06
47 *163:46 *235:31 0
48 *163:46 *627:76 0.000127898
49 *163:56 *612:24 0.000105116
50 *163:58 *612:24 1.01436e-05
*RES
1 *11899:X *163:6 41.7257
2 *163:6 *163:16 42.5671
3 *163:16 *163:18 76.3429
4 *163:18 *163:28 31.42
5 *163:28 *1104:DIODE 23
6 *163:28 *163:35 0.621429
7 *163:35 *1106:DIODE 23
8 *163:35 *163:46 20.3857
9 *163:46 *163:48 1.20143
10 *163:48 *163:50 2.96214
11 *163:50 *163:52 2.96214
12 *163:52 *163:54 3.31429
13 *163:54 *163:56 2.96214
14 *163:56 *163:58 2.61
15 *163:58 *163:60 2.96214
16 *163:60 *1112:DIODE 41.5836
17 *163:60 *1111:DIODE 38.6214
18 *163:58 *1110:DIODE 38.6214
19 *163:56 *1108:DIODE 38.6214
20 *163:54 *1107:DIODE 38.6214
21 *163:52 *1105:DIODE 38.6214
22 *163:50 *1103:DIODE 38.6214
23 *163:48 *163:127 15
24 *163:127 *1101:DIODE 23.6214
25 *163:127 *1102:DIODE 23
26 *163:46 *11900:A0 39.0979
*END

*D_NET *164 0.0181658
*CONN
*I *11901:B2 I *D sky130_fd_sc_hd__o221a_2
*I *11900:X O *D sky130_fd_sc_hd__mux2_1
*CAP
1 *11901:B2 0
2 *11900:X 0.000561158
3 *164:32 0.00011019
4 *164:26 0.00232542
5 *164:24 0.00262871
6 *164:14 0.00197665
7 *164:8 0.00212433
8 *164:8 *833:DIODE 4.67488e-05
9 *164:8 *627:76 2.43944e-05
10 *164:14 *11913:A1 2.93845e-05
11 *164:14 *174:20 0
12 *164:14 *209:25 0.000300203
13 *164:14 *209:38 0.000256318
14 *164:14 *210:21 0
15 *164:14 *518:18 0.000111794
16 *164:14 *608:18 0.000101755
17 *164:14 *612:18 3.41998e-06
18 *164:14 *615:10 0
19 *164:24 *669:DIODE 2.05503e-05
20 *164:24 *507:8 9.28078e-06
21 *164:24 *507:14 0.000217777
22 *164:26 *12181:A 0.000139352
23 *164:26 *182:42 0.000656261
24 *164:26 *205:60 0.000111943
25 *164:26 *485:14 0.000131951
26 *164:26 *601:18 0.00113332
27 *164:26 *609:20 0.000167108
28 *164:26 *611:12 0.000131857
29 *164:26 *632:236 0.000352415
30 *164:32 *11901:A1 5.58975e-06
31 *164:32 *203:31 0.000160915
32 *111:37 *164:14 6.17437e-06
33 *111:37 *164:26 0.00109463
34 *111:46 *164:14 0.000109046
35 *111:54 *164:14 0
36 *162:16 *164:26 0.00310987
37 *163:35 *164:8 5.26733e-06
38 *163:46 *164:8 2.03764e-06
*RES
1 *11900:X *164:8 44.815
2 *164:8 *164:14 38.9457
3 *164:14 *164:24 33.5214
4 *164:24 *164:26 62.0807
5 *164:26 *164:32 32.2579
6 *164:32 *11901:B2 23
*END

*D_NET *165 0.0640196
*CONN
*I *1116:DIODE I *D sky130_fd_sc_hd__diode_2
*I *1114:DIODE I *D sky130_fd_sc_hd__diode_2
*I *1118:DIODE I *D sky130_fd_sc_hd__diode_2
*I *11903:A0 I *D sky130_fd_sc_hd__mux2_2
*I *1113:DIODE I *D sky130_fd_sc_hd__diode_2
*I *1115:DIODE I *D sky130_fd_sc_hd__diode_2
*I *1117:DIODE I *D sky130_fd_sc_hd__diode_2
*I *1119:DIODE I *D sky130_fd_sc_hd__diode_2
*I *642:DIODE I *D sky130_fd_sc_hd__diode_2
*I *643:DIODE I *D sky130_fd_sc_hd__diode_2
*I *644:DIODE I *D sky130_fd_sc_hd__diode_2
*I *11902:X O *D sky130_fd_sc_hd__mux2_4
*CAP
1 *1116:DIODE 7.16992e-05
2 *1114:DIODE 0
3 *1118:DIODE 0.000109688
4 *11903:A0 0
5 *1113:DIODE 0
6 *1115:DIODE 0
7 *1117:DIODE 0
8 *1119:DIODE 0
9 *642:DIODE 0
10 *643:DIODE 0
11 *644:DIODE 0.000158185
12 *11902:X 0.000282522
13 *165:111 7.16992e-05
14 *165:97 0.000296033
15 *165:44 0.000346616
16 *165:42 0.000258522
17 *165:40 0.000360443
18 *165:38 0.000467342
19 *165:36 0.00032772
20 *165:32 0.000445001
21 *165:26 0.000606943
22 *165:24 0.000523165
23 *165:16 0.0228353
24 *165:14 0.0250585
25 *165:8 0.00290254
26 *644:DIODE *236:23 0
27 *644:DIODE *478:8 3.29127e-05
28 *1116:DIODE *166:8 0.000100069
29 *1118:DIODE *627:83 8.16913e-05
30 *1118:DIODE *627:90 4.95081e-05
31 *165:14 *287:26 0.00647256
32 *165:14 *301:25 0
33 *165:14 *302:23 0
34 *165:14 *306:33 0
35 *165:14 *474:26 0.0013211
36 *165:16 *311:21 0.00030663
37 *165:24 *233:25 0.000331062
38 *165:38 *236:23 0
39 *165:40 *236:23 0
40 *165:97 *627:83 0.000202177
*RES
1 *11902:X *165:8 42.5468
2 *165:8 *165:14 28.2061
3 *165:14 *165:16 76.7237
4 *165:16 *165:24 17.5363
5 *165:24 *165:26 1.55357
6 *165:26 *165:32 18.6043
7 *165:32 *165:36 17.9621
8 *165:36 *165:38 2.96214
9 *165:38 *165:40 4.72286
10 *165:40 *165:42 1.20143
11 *165:42 *165:44 2.96214
12 *165:44 *644:DIODE 40.9621
13 *165:44 *643:DIODE 38
14 *165:42 *642:DIODE 38
15 *165:40 *1119:DIODE 38
16 *165:38 *1117:DIODE 38
17 *165:36 *1115:DIODE 38
18 *165:32 *1113:DIODE 23
19 *165:26 *165:97 18.9564
20 *165:97 *11903:A0 23
21 *165:97 *1118:DIODE 25.5271
22 *165:24 *165:111 15
23 *165:111 *1114:DIODE 23
24 *165:111 *1116:DIODE 24.0979
*END

*D_NET *166 0.0260374
*CONN
*I *11904:B2 I *D sky130_fd_sc_hd__o221a_2
*I *11903:X O *D sky130_fd_sc_hd__mux2_2
*CAP
1 *11904:B2 4.72078e-05
2 *11903:X 0.000288554
3 *166:14 0.00726585
4 *166:12 0.00808485
5 *166:8 0.00115476
6 *11904:B2 *632:221 1.4638e-05
7 *166:8 *627:83 0.000522046
8 *166:14 *669:DIODE 0.000185428
9 *166:14 *11910:A1 0.000235794
10 *166:14 *11910:B2 2.44913e-05
11 *166:14 *11910:C1 0.00113131
12 *166:14 *11919:B1 6.39489e-06
13 *166:14 *11919:B2 5.40337e-05
14 *166:14 *176:22 0.000159674
15 *166:14 *507:14 0.000467211
16 *166:14 *610:12 2.13733e-05
17 *166:14 *612:10 0.000778314
18 *166:14 *612:26 0.0043573
19 *166:14 *615:14 0.000117112
20 *166:14 *630:152 6.53382e-05
21 *166:14 *632:248 0.000341517
22 *166:14 *634:148 9.8971e-06
23 *166:14 *634:167 5.47808e-05
24 *1108:DIODE *166:14 5.3304e-05
25 *1116:DIODE *166:8 0.000100069
26 *111:69 *166:14 2.31058e-05
27 *114:62 *166:14 0.000473088
*RES
1 *11903:X *166:8 43.8621
2 *166:8 *166:12 28.8786
3 *166:12 *166:14 112.106
4 *166:14 *11904:B2 23.8493
*END

*D_NET *167 0.0675093
*CONN
*I *11906:A0 I *D sky130_fd_sc_hd__mux2_2
*I *11905:X O *D sky130_fd_sc_hd__mux2_4
*CAP
1 *11906:A0 0.000517362
2 *11905:X 0
3 *167:16 0.00733948
4 *167:14 0.00682212
5 *167:12 0.00355153
6 *167:10 0.00434583
7 *167:6 0.000794296
8 *11906:A0 *11906:A1 5.3304e-05
9 *11906:A0 *627:98 0.000283338
10 *167:10 *269:47 0
11 *167:12 *169:12 0.00858587
12 *167:12 *283:23 0.000187541
13 *167:16 *175:10 0.00147011
14 *167:16 *237:11 0.00310759
15 *167:16 *332:10 7.18841e-05
16 *167:16 *354:10 0.00929206
17 *167:16 *432:14 0
18 *167:16 *518:24 0.021087
*RES
1 *11905:X *167:6 38
2 *167:6 *167:10 28.8786
3 *167:10 *167:12 108.771
4 *167:12 *167:14 15
5 *167:14 *167:16 323.764
6 *167:16 *11906:A0 46.2443
*END

*D_NET *168 0.044969
*CONN
*I *11907:B2 I *D sky130_fd_sc_hd__o221a_2
*I *11906:X O *D sky130_fd_sc_hd__mux2_2
*CAP
1 *11907:B2 0
2 *11906:X 5.43738e-05
3 *168:26 0.00126708
4 *168:22 0.0041454
5 *168:20 0.0029036
6 *168:18 0.00164686
7 *168:16 0.00222502
8 *168:10 0.00246283
9 *168:8 0.00191375
10 *168:8 *627:98 2.64616e-05
11 *168:10 *835:DIODE 8.4047e-05
12 *168:10 *567:24 0.0062213
13 *168:10 *569:22 0.00311087
14 *168:16 *353:14 1.3523e-05
15 *168:16 *354:14 2.46906e-05
16 *168:16 *569:20 0.000159815
17 *168:18 *174:14 0.00546598
18 *168:18 *227:21 0.00212014
19 *168:18 *353:14 1.10658e-05
20 *168:18 *568:22 0.000292465
21 *168:18 *569:20 0.000363103
22 *168:22 *174:14 0.00235475
23 *168:22 *210:17 0.00328821
24 *168:22 *227:21 0.00364564
25 *168:22 *228:25 0.000196151
26 *168:26 *205:37 0.000415353
27 *168:26 *205:60 4.77013e-05
28 *168:26 *233:25 0
29 *168:26 *445:8 0.000178622
30 *168:26 *603:22 0
31 *168:26 *611:8 0
32 *168:26 *634:167 2.26406e-05
33 *114:33 *168:26 0
34 *159:55 *168:26 0.00010079
35 *159:57 *168:26 6.78328e-05
36 *159:59 *168:26 1.69879e-05
37 *159:106 *168:26 0.000121976
*RES
1 *11906:X *168:8 38.6214
2 *168:8 *168:10 81.8421
3 *168:10 *168:16 24.0936
4 *168:16 *168:18 59.9368
5 *168:18 *168:20 0.497143
6 *168:20 *168:22 89.4754
7 *168:22 *168:26 38.3864
8 *168:26 *11907:B2 38
*END

*D_NET *169 0.0633849
*CONN
*I *11909:A0 I *D sky130_fd_sc_hd__mux2_2
*I *11908:X O *D sky130_fd_sc_hd__mux2_4
*CAP
1 *11909:A0 0
2 *11908:X 0
3 *169:16 0.0113013
4 *169:14 0.0113013
5 *169:12 0.00220575
6 *169:10 0.00296694
7 *169:6 0.000761196
8 *169:12 *171:12 0.00771057
9 *169:12 *173:12 2.02872e-05
10 *169:12 *312:23 0.0014421
11 *169:12 *449:60 0
12 *169:16 *836:DIODE 8.78212e-05
13 *169:16 *238:11 0.0170018
14 *167:12 *169:12 0.00858587
*RES
1 *11908:X *169:6 38
2 *169:6 *169:10 28.5264
3 *169:10 *169:12 106.389
4 *169:12 *169:14 15
5 *169:14 *169:16 279.746
6 *169:16 *11909:A0 38
*END

*D_NET *170 0.0449125
*CONN
*I *11910:B2 I *D sky130_fd_sc_hd__o221a_2
*I *11909:X O *D sky130_fd_sc_hd__mux2_2
*CAP
1 *11910:B2 8.60561e-05
2 *11909:X 0
3 *170:18 0.00113622
4 *170:12 0.00774214
5 *170:10 0.00669198
6 *170:8 0.00711459
7 *170:6 0.00711459
8 *11910:B2 *11910:A1 8.1796e-05
9 *11910:B2 *610:20 0.000488848
10 *11910:B2 *612:10 0.000272377
11 *170:8 *573:10 0
12 *170:8 *573:12 0
13 *170:8 *627:109 0
14 *170:8 *627:120 0
15 *170:12 *172:14 0.0115741
16 *170:12 *209:17 0.000465362
17 *170:12 *233:25 0.00206654
18 *170:18 *234:25 5.33841e-05
19 *170:18 *234:37 0
20 *170:18 *234:39 0
21 *161:38 *170:18 0
22 *161:42 *170:18 0
23 *161:44 *170:18 0
24 *166:14 *11910:B2 2.44913e-05
*RES
1 *11909:X *170:6 38
2 *170:6 *170:8 135.016
3 *170:8 *170:10 15
4 *170:10 *170:12 147.838
5 *170:12 *170:18 46.6957
6 *170:18 *11910:B2 28.3857
*END

*D_NET *171 0.0700142
*CONN
*I *11912:A0 I *D sky130_fd_sc_hd__mux2_2
*I *11911:X O *D sky130_fd_sc_hd__mux2_4
*CAP
1 *11912:A0 0.000482352
2 *11911:X 0
3 *171:16 0.00431662
4 *171:14 0.00383427
5 *171:12 0.00124544
6 *171:10 0.00198715
7 *171:6 0.000741716
8 *11912:A0 *11912:A1 0.00026025
9 *11912:A0 *172:8 0.000109746
10 *171:10 *901:DIODE 0
11 *171:10 *1000:DIODE 0
12 *171:10 *1010:DIODE 0
13 *171:10 *474:26 0
14 *171:12 *173:12 0.00683533
15 *171:12 *312:23 0.00107559
16 *171:16 *845:DIODE 9.62993e-05
17 *171:16 *173:16 0.0204709
18 *171:16 *175:10 0.000730927
19 *171:16 *242:11 0.0199116
20 *171:16 *462:12 0.000142219
21 *171:16 *541:16 6.31731e-05
22 *171:16 *572:8 0
23 *169:12 *171:12 0.00771057
*RES
1 *11911:X *171:6 38
2 *171:6 *171:10 28.1743
3 *171:10 *171:12 83.9964
4 *171:12 *171:14 15
5 *171:14 *171:16 273.76
6 *171:16 *11912:A0 45.7679
*END

*D_NET *172 0.0409162
*CONN
*I *11913:B2 I *D sky130_fd_sc_hd__o221a_2
*I *11912:X O *D sky130_fd_sc_hd__mux2_2
*CAP
1 *11913:B2 0
2 *11912:X 0.000477247
3 *172:20 0.00058838
4 *172:14 0.004391
5 *172:12 0.00380262
6 *172:10 0.00281428
7 *172:8 0.00329152
8 *172:10 *176:18 0.000149972
9 *172:10 *242:11 0.00108166
10 *172:10 *529:20 0
11 *172:10 *541:16 0.00572245
12 *172:10 *627:94 0.00369506
13 *172:14 *209:17 0.000400418
14 *172:14 *233:25 0.00206654
15 *172:20 *182:63 0.000187421
16 *172:20 *207:23 0.000494271
17 *11912:A0 *172:8 0.000109746
18 *11913:C1 *172:20 2.64866e-05
19 *114:39 *172:20 4.30383e-05
20 *170:12 *172:14 0.0115741
*RES
1 *11912:X *172:8 43.8621
2 *172:8 *172:10 140.298
3 *172:10 *172:12 15
4 *172:12 *172:14 126.399
5 *172:14 *172:20 43.8786
6 *172:20 *11913:B2 23
*END

*D_NET *173 0.0607238
*CONN
*I *11915:A0 I *D sky130_fd_sc_hd__mux2_2
*I *11914:X O *D sky130_fd_sc_hd__mux2_4
*CAP
1 *11915:A0 0.000229679
2 *11914:X 0
3 *173:16 0.00426499
4 *173:14 0.00403531
5 *173:12 0.00231308
6 *173:10 0.00303866
7 *173:6 0.000725581
8 *11915:A0 *11915:A1 0.000423716
9 *11915:A0 *627:148 0.000236724
10 *173:10 *903:DIODE 0
11 *173:10 *1010:DIODE 0
12 *173:10 *485:26 0
13 *173:12 *449:60 0
14 *173:16 *845:DIODE 3.70187e-05
15 *173:16 *175:10 6.7177e-06
16 *173:16 *241:11 0.0180857
17 *173:16 *443:16 0
18 *169:12 *173:12 2.02872e-05
19 *171:12 *173:12 0.00683533
20 *171:16 *173:16 0.0204709
*RES
1 *11914:X *173:6 38
2 *173:6 *173:10 27.8221
3 *173:10 *173:12 74.9443
4 *173:12 *173:14 15
5 *173:14 *173:16 262.844
6 *173:16 *11915:A0 43.3857
*END

*D_NET *174 0.0469449
*CONN
*I *11916:B2 I *D sky130_fd_sc_hd__o221a_2
*I *11915:X O *D sky130_fd_sc_hd__mux2_2
*CAP
1 *11916:B2 0.000623424
2 *11915:X 0.000556257
3 *174:20 0.00156877
4 *174:14 0.00246468
5 *174:12 0.00151934
6 *174:10 0.00280335
7 *174:8 0.00335961
8 *11916:B2 *182:84 1.30876e-05
9 *11916:B2 *608:12 2.05165e-05
10 *11916:B2 *613:14 0.000247021
11 *174:8 *845:DIODE 3.23492e-05
12 *174:8 *12122:A 0
13 *174:8 *627:148 0.000355534
14 *174:10 *353:10 0.0110732
15 *174:10 *552:16 0.00537405
16 *174:14 *227:21 0.000923765
17 *174:14 *228:21 0.00516043
18 *174:14 *228:25 0.00235475
19 *174:14 *353:14 0.000165569
20 *174:20 *627:72 0.000438165
21 *11916:C1 *11916:B2 1.1624e-05
22 *111:54 *11916:B2 3.80954e-05
23 *163:28 *174:20 2.05503e-05
24 *164:14 *174:20 0
25 *168:18 *174:14 0.00546598
26 *168:22 *174:14 0.00235475
*RES
1 *11915:X *174:8 46.2443
2 *174:8 *174:10 144.171
3 *174:10 *174:12 15
4 *174:12 *174:14 104.959
5 *174:14 *174:20 47.7521
6 *174:20 *11916:B2 32.2696
*END

*D_NET *175 0.0626987
*CONN
*I *11918:A0 I *D sky130_fd_sc_hd__mux2_2
*I *11917:X O *D sky130_fd_sc_hd__mux2_4
*CAP
1 *11918:A0 0.000196924
2 *11917:X 0
3 *175:24 0.000717142
4 *175:16 0.0010149
5 *175:10 0.00525826
6 *175:8 0.00476358
7 *175:6 0.00210485
8 *175:4 0.00210485
9 *11918:A0 *11918:A1 4.9662e-05
10 *11918:A0 *569:22 0.000166513
11 *175:6 *287:26 0.000376527
12 *175:6 *432:10 0.00476426
13 *175:10 *242:11 0.0204594
14 *175:10 *426:52 9.74235e-05
15 *175:10 *443:16 0
16 *175:10 *449:64 0
17 *175:10 *518:24 0.00174772
18 *175:10 *529:20 0.0143002
19 *175:24 *237:33 0.000873429
20 *175:24 *567:24 0.0012932
21 *175:24 *569:22 0.000202103
22 *167:16 *175:10 0.00147011
23 *171:16 *175:10 0.000730927
24 *173:16 *175:10 6.7177e-06
*RES
1 *11917:X *175:4 23
2 *175:4 *175:6 55.8871
3 *175:6 *175:8 15
4 *175:8 *175:10 291.367
5 *175:10 *175:16 35.8621
6 *175:16 *175:24 48.6221
7 *175:24 *11918:A0 41.3557
*END

*D_NET *176 0.0485916
*CONN
*I *11919:B2 I *D sky130_fd_sc_hd__o221a_2
*I *11918:X O *D sky130_fd_sc_hd__mux2_2
*CAP
1 *11919:B2 5.05089e-05
2 *11918:X 8.67941e-05
3 *176:22 0.00199727
4 *176:20 0.00194676
5 *176:18 0.00194978
6 *176:16 0.00194978
7 *176:14 0.000812485
8 *176:8 0.000899279
9 *11919:B2 *612:10 1.71761e-05
10 *176:8 *11918:A1 1.85916e-05
11 *176:14 *237:33 0.00151303
12 *176:14 *567:24 0.00151526
13 *176:18 *529:20 0.00880491
14 *176:18 *541:16 0
15 *176:18 *572:8 0
16 *176:18 *627:94 0.00724607
17 *176:22 *507:14 0.000302659
18 *176:22 *610:22 1.72202e-05
19 *176:22 *612:10 9.64943e-05
20 *176:22 *615:14 0.00940714
21 *176:22 *616:6 0.00895855
22 *176:22 *616:12 0.000582558
23 *111:69 *11919:B2 5.56356e-05
24 *166:14 *11919:B2 5.40337e-05
25 *166:14 *176:22 0.000159674
26 *172:10 *176:18 0.000149972
*RES
1 *11918:X *176:8 39.0979
2 *176:8 *176:14 40.7271
3 *176:14 *176:16 15
4 *176:16 *176:18 113.535
5 *176:18 *176:20 15
6 *176:20 *176:22 112.106
7 *176:22 *11919:B2 24.595
*END

*D_NET *177 0.0662799
*CONN
*I *11923:A I *D sky130_fd_sc_hd__clkbuf_16
*I *11922:A I *D sky130_fd_sc_hd__clkbuf_16
*I *11921:X O *D sky130_fd_sc_hd__clkbuf_16
*CAP
1 *11923:A 4.52837e-05
2 *11922:A 0.000578854
3 *11921:X 0.000274296
4 *177:35 0.00135677
5 *177:22 0.0044965
6 *177:20 0.00391765
7 *177:18 0.00142091
8 *177:16 0.0023354
9 *177:8 0.00250028
10 *177:8 *269:28 0.000275256
11 *177:8 *269:32 0.00012359
12 *177:16 *982:DIODE 9.64943e-05
13 *177:16 *984:DIODE 0.000182081
14 *177:16 *11884:A0 0.000100069
15 *177:16 *11884:A1 2.46906e-05
16 *177:16 *11887:S 1.14154e-05
17 *177:16 *263:40 2.4754e-05
18 *177:16 *269:24 0.00206521
19 *177:16 *269:28 0.00226635
20 *177:16 *637:49 2.93845e-05
21 *177:16 *637:64 2.93845e-05
22 *177:16 *637:83 0.00107334
23 *177:18 *269:18 0.0075214
24 *177:18 *269:24 0.000438017
25 *177:18 *287:26 0.00060364
26 *177:18 *637:31 0.000195995
27 *177:22 *185:18 0.0090613
28 *177:22 *202:15 0.00244224
29 *177:22 *210:13 0.0123304
30 *177:22 *330:8 0.000324179
31 *177:22 *637:27 0
32 *177:35 *265:48 0
33 *177:35 *297:36 0
34 *3:25 *177:16 1.71761e-05
35 *3:25 *177:18 0.00779168
36 *3:41 *177:16 0.00205457
37 *157:14 *177:16 0.000190284
38 *159:10 *177:35 8.10663e-05
*RES
1 *11921:X *177:8 30.1879
2 *177:8 *177:16 49.88
3 *177:16 *177:18 91.6193
4 *177:18 *177:20 15
5 *177:20 *177:22 188.189
6 *177:22 *11922:A 45.2914
7 *177:8 *177:35 37.33
8 *177:35 *11923:A 38.6214
*END

*D_NET *178 0.0856878
*CONN
*I *12134:CLKin I *D CF_SRAM_1024x32
*I *12124:CLKin I *D CF_SRAM_1024x32
*I *11920:CLK I *D sky130_fd_sc_hd__dfrtp_4
*I *11922:X O *D sky130_fd_sc_hd__clkbuf_16
*CAP
1 *12134:CLKin 0.000133861
2 *12124:CLKin 0.00227613
3 *11920:CLK 0
4 *11922:X 0
5 *178:56 7.82742e-06
6 *178:45 0.0181
7 *178:43 0.0179989
8 *178:36 7.82742e-06
9 *178:29 0.00249243
10 *178:18 0.00473365
11 *178:16 0.00573044
12 *178:4 0.00119591
13 *12124:CLKin *12124:BEN[17] 9.91798e-05
14 *12124:CLKin *12124:DI[17] 0
15 *12124:CLKin *369:10 0.000339369
16 *12134:CLKin *12134:BEN[17] 4.33731e-05
17 *12134:CLKin *228:9 4.80465e-05
18 *12134:CLKin *426:16 1.69268e-05
19 *12134:CLKin *547:64 4.80465e-05
20 *178:16 *371:18 0.00215055
21 *178:16 *371:26 0.000117995
22 *178:16 *387:10 0.00010822
23 *178:16 *417:96 6.17437e-06
24 *178:16 *513:10 0.00018199
25 *178:16 *515:18 0.00191123
26 *178:18 *360:28 0.00282298
27 *178:18 *369:20 0
28 *178:18 *369:24 0.00372497
29 *178:18 *369:28 0.000344734
30 *178:18 *371:26 0.0091597
31 *178:18 *371:34 0.00113579
32 *178:18 *387:28 0.00228394
33 *178:18 *513:10 0.000185913
34 *178:18 *517:28 0.000194087
35 *178:18 *594:10 0.000353233
36 *178:18 *630:30 1.12863e-05
37 *178:29 *387:10 0.000495467
38 *178:29 *393:12 0.000495467
39 *178:43 *387:10 3.70265e-05
40 *178:43 *393:12 4.49122e-05
41 *178:45 *227:15 0.000174611
42 *178:45 *426:32 0.00549752
43 *126:8 *178:18 0.000838229
44 *146:10 *178:18 0.000139822
*RES
1 *11922:X *178:4 23
2 *178:4 *178:16 49.6239
3 *178:16 *178:18 166.533
4 *178:18 *11920:CLK 38
5 *178:4 *178:29 21.8357
6 *178:29 *12124:CLKin 41.825
7 *12124:CLKin *178:36 0.165714
8 *178:29 *178:43 8.67321
9 *178:43 *178:45 61.0213
10 *178:45 *12134:CLKin 25.7239
11 *12134:CLKin *178:56 0.165714
*END

*D_NET *179 0.0741039
*CONN
*I *11924:A I *D sky130_fd_sc_hd__clkbuf_4
*I *12154:CLKin I *D CF_SRAM_1024x32
*I *12144:CLKin I *D CF_SRAM_1024x32
*I *11923:X O *D sky130_fd_sc_hd__clkbuf_16
*CAP
1 *11924:A 0.000401028
2 *12154:CLKin 0.00015502
3 *12144:CLKin 6.09322e-05
4 *11923:X 2.115e-05
5 *179:44 0.0114384
6 *179:24 0.00999056
7 *179:18 0.021213
8 *179:16 0.0129995
9 *179:14 0.0130236
10 *179:8 0.000446337
11 *11924:A *266:19 0
12 *11924:A *268:15 0.000581153
13 *11924:A *296:25 0.000109747
14 *12144:CLKin *12144:BEN[17] 2.31581e-05
15 *12144:CLKin *12144:DI[17] 0
16 *12154:CLKin *12154:BEN[17] 1.32547e-05
17 *179:14 *285:23 4.62763e-05
18 *179:14 *289:23 1.59585e-05
19 *179:24 *12144:BEN[17] 1.68715e-05
20 *179:24 *426:74 0.00306508
21 *179:44 *426:74 0.000386663
22 *179:44 *480:58 4.80465e-05
23 *179:44 *639:174 4.80465e-05
*RES
1 *11923:X *179:8 38.3211
2 *179:8 *179:14 16.0989
3 *179:14 *179:16 45.2443
4 *179:16 *179:18 8
5 *179:18 *179:24 41.7363
6 *179:24 *12144:CLKin 16.305
7 *179:18 *179:44 41.1252
8 *179:44 *12154:CLKin 17.2579
9 *179:8 *11924:A 46.4204
*END

*D_NET *180 0.034494
*CONN
*I *11818:C I *D sky130_fd_sc_hd__and3_4
*I *11820:B I *D sky130_fd_sc_hd__and3b_1
*I *11920:D I *D sky130_fd_sc_hd__dfrtp_4
*I *11817:Y O *D sky130_fd_sc_hd__inv_2
*CAP
1 *11818:C 0
2 *11820:B 0.000450767
3 *11920:D 0
4 *11817:Y 0.000236732
5 *180:52 0.000537523
6 *180:46 0.00086396
7 *180:36 0.00215178
8 *180:25 0.00289551
9 *180:23 0.00167539
10 *180:14 0.00117176
11 *180:10 0.000352494
12 *11820:B *11820:A_N 0.000152662
13 *11820:B *564:49 8.11489e-05
14 *180:10 *319:16 0.000502654
15 *180:14 *11874:A1 4.03402e-06
16 *180:14 *632:67 5.85822e-06
17 *180:23 *11874:A1 4.68297e-05
18 *180:23 *11874:A2 0.00021677
19 *180:23 *11874:C1 1.21972e-05
20 *180:25 *221:22 0.000788188
21 *180:25 *223:17 2.13834e-05
22 *180:25 *226:83 0.000139733
23 *180:25 *441:20 0.000271242
24 *180:25 *564:25 0.000985752
25 *180:25 *578:10 0.000146384
26 *180:25 *625:26 0.000589658
27 *180:36 *220:21 1.88972e-05
28 *180:36 *221:22 0.00139807
29 *180:36 *246:39 0.00138305
30 *180:36 *441:20 0.000362552
31 *180:36 *554:57 0.00561599
32 *180:36 *564:51 6.51717e-05
33 *180:36 *625:26 0.000934196
34 *180:36 *625:174 0.000846788
35 *180:36 *625:209 0.000216051
36 *180:36 *625:228 0.000248699
37 *180:46 *554:69 0
38 *180:46 *564:67 0.000291884
39 *180:46 *578:10 0.000205112
40 *180:52 *185:8 0.000175903
41 *180:52 *441:20 0.000291481
42 *180:52 *554:77 0.00144799
43 *180:52 *564:73 0.000391484
44 *180:52 *578:10 6.7177e-06
45 *11874:B2 *180:23 2.02872e-05
46 *112:14 *180:36 0.00282631
47 *120:18 *180:10 0.000504754
48 *145:10 *180:52 0.00145531
49 *148:10 *180:25 0.00148687
*RES
1 *11817:Y *180:10 45.4571
2 *180:10 *180:14 16.1911
3 *180:14 *11920:D 23
4 *180:14 *180:23 26.4861
5 *180:23 *180:25 28.3164
6 *180:25 *11820:B 43.3857
7 *180:25 *180:36 88.5329
8 *180:36 *180:46 36.4629
9 *180:46 *180:52 38.5936
10 *180:52 *11818:C 23
*END

*D_NET *181 0.225157
*CONN
*I *12134:R_WB I *D CF_SRAM_1024x32
*I *12154:R_WB I *D CF_SRAM_1024x32
*I *12144:R_WB I *D CF_SRAM_1024x32
*I *12124:R_WB I *D CF_SRAM_1024x32
*I *11814:Y O *D sky130_fd_sc_hd__inv_16
*CAP
1 *12134:R_WB 8.26055e-05
2 *12154:R_WB 0.000166588
3 *12144:R_WB 0.00189303
4 *12124:R_WB 0.00101398
5 *11814:Y 0.000167481
6 *181:87 0.0109615
7 *181:71 0.0129535
8 *181:61 0.00213087
9 *181:53 0.0130247
10 *181:51 0.0276822
11 *181:49 0.0276822
12 *181:47 0.0127642
13 *181:18 0.00607932
14 *181:12 0.00334757
15 *12124:R_WB *12124:AD[0] 0.000593409
16 *12124:R_WB *12124:AD[1] 2.92034e-05
17 *12124:R_WB *12124:WLOFF 0
18 *12124:R_WB *184:8 2.31116e-05
19 *12134:R_WB *12134:AD[0] 6.20317e-05
20 *12134:R_WB *12134:WLOFF 0
21 *12134:R_WB *228:9 5.43462e-05
22 *12134:R_WB *231:13 5.43462e-05
23 *12144:R_WB *12144:AD[0] 0.000242975
24 *12144:R_WB *12144:WLOFF 0
25 *12144:R_WB *524:72 0.000144638
26 *12154:R_WB *12154:AD[0] 7.27241e-05
27 *12154:R_WB *12154:WLOFF 0
28 *12154:R_WB *432:54 4.36401e-06
29 *12154:R_WB *480:58 2.11157e-05
30 *181:12 *12124:DI[10] 5.66809e-05
31 *181:12 *184:8 1.27321e-05
32 *181:12 *203:11 2.26406e-05
33 *181:18 *184:8 0.000110592
34 *181:18 *196:19 0.00148082
35 *181:18 *224:25 0.0008557
36 *181:18 *374:16 0.00400102
37 *181:18 *400:20 0.000842469
38 *181:18 *577:16 0.0104689
39 *181:47 *12124:AD[1] 0
40 *181:47 *438:38 4.81059e-05
41 *181:47 *511:20 1.58405e-05
42 *181:47 *524:20 4.80865e-05
43 *181:47 *524:36 0.00122699
44 *181:51 *185:10 0.000573591
45 *181:51 *289:27 0.000574759
46 *181:51 *291:19 0.000303139
47 *181:51 *293:19 0.00147142
48 *181:51 *308:19 0.00182914
49 *181:51 *309:19 0.00225948
50 *181:51 *310:19 0.00255384
51 *181:51 *362:76 0
52 *181:51 *430:16 0.000232926
53 *181:51 *441:20 0.000840153
54 *181:51 *452:24 0.00265062
55 *181:51 *513:52 0
56 *181:51 *515:62 0
57 *181:51 *550:18 0.000105766
58 *181:51 *578:10 0.000171422
59 *181:51 *579:42 0.000129616
60 *181:61 *524:72 0.000502985
61 *181:71 *12154:EN 0.00124008
62 *181:71 *524:72 0.0316255
63 *181:87 *226:18 0.00534919
64 *181:87 *524:36 0.031512
65 *129:10 *12124:R_WB 2.11066e-05
66 *145:10 *181:51 0.000112617
67 *149:10 *181:51 0.00065542
*RES
1 *11814:Y *181:12 46.6776
2 *181:12 *181:18 40.6811
3 *181:18 *12124:R_WB 37.2485
4 *181:18 *181:47 4.3232
5 *181:47 *181:49 8
6 *181:49 *181:51 82.1819
7 *181:51 *181:53 8
8 *181:53 *181:61 24.2787
9 *181:61 *12144:R_WB 31.1388
10 *181:53 *181:71 59.3469
11 *181:71 *12154:R_WB 25.8741
12 *181:47 *181:87 59.1752
13 *181:87 *12134:R_WB 24.8177
*END

*D_NET *182 0.0610381
*CONN
*I *11919:B1 I *D sky130_fd_sc_hd__o221a_2
*I *11916:B1 I *D sky130_fd_sc_hd__o221a_2
*I *11913:B1 I *D sky130_fd_sc_hd__o221a_2
*I *11910:B1 I *D sky130_fd_sc_hd__o221a_2
*I *11931:A I *D sky130_fd_sc_hd__buf_8
*I *11822:Y O *D sky130_fd_sc_hd__nor2_4
*CAP
1 *11919:B1 4.84706e-06
2 *11916:B1 0
3 *11913:B1 0
4 *11910:B1 0.000181891
5 *11931:A 0
6 *11822:Y 0
7 *182:84 0.000633978
8 *182:63 0.00111421
9 *182:42 0.000828932
10 *182:23 0.00119139
11 *182:19 0.00407404
12 *182:10 0.000687029
13 *182:4 0.00409542
14 *11910:B1 *11910:A1 1.28818e-05
15 *11910:B1 *206:47 0
16 *11910:B1 *206:77 6.07611e-06
17 *11910:B1 *610:20 7.80291e-06
18 *182:10 *205:31 5.25436e-05
19 *182:10 *206:39 0.000946013
20 *182:10 *575:14 0
21 *182:10 *589:14 0.000172319
22 *182:19 *204:27 0.0013155
23 *182:19 *205:31 0.00118901
24 *182:19 *206:39 0.0195227
25 *182:19 *209:17 0.0173464
26 *182:19 *230:23 0.00036432
27 *182:19 *233:25 0.000180268
28 *182:19 *441:14 0.000884819
29 *182:23 *206:47 0
30 *182:23 *382:12 0
31 *182:42 *485:14 0.000130115
32 *182:42 *611:12 0.000641972
33 *182:63 *669:DIODE 1.74874e-06
34 *182:63 *207:23 3.20613e-06
35 *182:63 *608:12 0.000793562
36 *182:63 *611:12 3.7905e-06
37 *182:84 *210:21 0.00038745
38 *182:84 *507:14 0.000134607
39 *182:84 *608:12 2.14255e-07
40 *182:84 *608:18 2.11157e-05
41 *182:84 *611:26 8.4047e-05
42 *1091:DIODE *182:42 0.000140259
43 *11822:A *182:19 0.000175903
44 *11910:A2 *11910:B1 6.33614e-05
45 *11913:C1 *182:63 9.82124e-05
46 *11916:B2 *182:84 1.30876e-05
47 *11916:C1 *182:63 7.20087e-05
48 *111:20 *11910:B1 3.00383e-05
49 *111:20 *182:23 0.000365472
50 *111:37 *182:42 6.11843e-05
51 *111:37 *182:63 1.24462e-05
52 *111:46 *182:42 7.11824e-06
53 *111:54 *182:63 9.72057e-06
54 *111:69 *11919:B1 1.4006e-05
55 *111:69 *182:84 2.33476e-05
56 *114:52 *182:63 0.000190289
57 *128:16 *182:10 9.45177e-05
58 *130:30 *182:10 0.000660306
59 *134:22 *182:10 0.000869909
60 *138:22 *182:10 3.74951e-05
61 *161:24 *182:23 3.53546e-05
62 *161:28 *182:23 0.000199701
63 *164:26 *182:42 0.000656261
64 *166:14 *11919:B1 6.39489e-06
65 *172:20 *182:63 0.000187421
*RES
1 *11822:Y *182:4 23
2 *182:4 *182:10 36.6879
3 *182:10 *11931:A 38
4 *182:4 *182:19 216.92
5 *182:19 *182:23 28.8786
6 *182:23 *11910:B1 41.1123
7 *182:23 *182:42 30.0904
8 *182:42 *11913:B1 23
9 *182:42 *182:63 43.1225
10 *182:63 *11916:B1 23
11 *182:63 *182:84 37.8062
12 *182:84 *11919:B1 38.1502
*END

*D_NET *183 0.00494794
*CONN
*I *11927:A I *D sky130_fd_sc_hd__clkbuf_16
*I *11820:X O *D sky130_fd_sc_hd__and3b_1
*CAP
1 *11927:A 0
2 *11820:X 0.000213031
3 *183:12 0.000545169
4 *183:8 0.0007582
5 *183:8 *11820:A_N 3.84903e-05
6 *183:8 *11820:C 1.32314e-05
7 *183:8 *554:14 9.58714e-05
8 *183:8 *564:49 3.7122e-06
9 *183:12 *839:DIODE 0.00016533
10 *183:12 *220:21 2.24151e-05
11 *183:12 *221:40 0.000107828
12 *183:12 *418:16 0.00163696
13 *183:12 *452:24 0.000148623
14 *183:12 *574:16 0.000780306
15 *183:12 *625:18 0.000137238
16 *183:12 *625:109 0.000281533
*RES
1 *11820:X *183:8 40.5271
2 *183:8 *183:12 36.9779
3 *183:12 *11927:A 23
*END

*D_NET *184 0.0558595
*CONN
*I *11936:A I *D sky130_fd_sc_hd__buf_8
*I *11819:X O *D sky130_fd_sc_hd__and4b_2
*CAP
1 *11936:A 0.000155914
2 *11819:X 0
3 *184:8 0.00757038
4 *184:6 0.00741447
5 *11936:A *278:23 0.000342939
6 *11936:A *637:25 0.000175903
7 *184:8 *12124:AD[1] 2.24608e-05
8 *184:8 *12124:DI[10] 1.02561e-05
9 *184:8 *196:11 0.00265499
10 *184:8 *203:11 0.000875007
11 *184:8 *220:159 0.000114074
12 *184:8 *369:74 0.000354081
13 *184:8 *374:16 0.00154854
14 *184:8 *374:26 2.33476e-05
15 *184:8 *576:16 0.000180479
16 *184:8 *596:24 0.0208221
17 *184:8 *596:34 0.00176216
18 *184:8 *607:16 0.000646587
19 *184:8 *631:226 0.00141625
20 *12124:R_WB *184:8 2.31116e-05
21 *125:6 *11936:A 8.11489e-05
22 *125:24 *184:8 0.00246861
23 *129:10 *184:8 0.00402658
24 *137:26 *184:8 0.00304683
25 *181:12 *184:8 1.27321e-05
26 *181:18 *184:8 0.000110592
*RES
1 *11819:X *184:6 38
2 *184:6 *184:8 300.875
3 *184:8 *11936:A 41.9564
*END

*D_NET *185 0.0629714
*CONN
*I *645:DIODE I *D sky130_fd_sc_hd__diode_2
*I *12023:A I *D sky130_fd_sc_hd__dlygate4sd3_1
*I *11818:X O *D sky130_fd_sc_hd__and3_4
*CAP
1 *645:DIODE 0.000216158
2 *12023:A 2.30556e-05
3 *11818:X 0.000142285
4 *185:22 0.00714765
5 *185:20 0.00690844
6 *185:18 0.00382306
7 *185:16 0.00405113
8 *185:10 0.00299939
9 *185:8 0.00291361
10 *645:DIODE *637:122 0.000189211
11 *185:8 *564:73 2.32101e-05
12 *185:10 *12036:A 2.11066e-05
13 *185:10 *396:24 0.000382703
14 *185:10 *430:28 2.11066e-05
15 *185:10 *509:34 0.000869438
16 *185:10 *509:38 0.000489653
17 *185:10 *550:18 0.000173765
18 *185:10 *578:10 0.00196678
19 *185:10 *579:36 0.00066027
20 *185:10 *579:42 0.000256039
21 *185:10 *580:28 0.000567129
22 *185:16 *201:7 0.000307294
23 *185:16 *341:14 0
24 *185:18 *202:15 0.000849256
25 *185:18 *269:14 7.83309e-05
26 *185:18 *365:74 0
27 *185:22 *986:DIODE 3.59884e-05
28 *185:22 *987:DIODE 5.25022e-05
29 *185:22 *989:DIODE 0.00010655
30 *185:22 *11890:A0 4.94227e-05
31 *185:22 *265:25 0.00308073
32 *185:22 *286:15 0.00313275
33 *185:22 *637:85 4.75206e-05
34 *185:22 *637:96 0.00022554
35 *185:22 *637:109 0.00135664
36 *185:22 *637:122 0.000168441
37 *131:10 *185:10 0
38 *145:10 *185:10 0.000131966
39 *149:10 *185:10 0.00969254
40 *149:16 *185:8 0
41 *177:22 *185:18 0.0090613
42 *180:52 *185:8 0.000175903
43 *181:51 *185:10 0.000573591
*RES
1 *11818:X *185:8 40.5271
2 *185:8 *185:10 129.381
3 *185:10 *185:16 34.4329
4 *185:16 *185:18 120.93
5 *185:18 *185:20 15
6 *185:20 *185:22 157.366
7 *185:22 *12023:A 23.4971
8 *185:22 *645:DIODE 26.9564
*END

*D_NET *186 0.0413871
*CONN
*I *11826:A1 I *D sky130_fd_sc_hd__o221a_1
*I *646:DIODE I *D sky130_fd_sc_hd__diode_2
*I *12124:DO[0] O *D CF_SRAM_1024x32
*CAP
1 *11826:A1 0
2 *646:DIODE 0.000165718
3 *12124:DO[0] 0.00139133
4 *186:29 0.000617426
5 *186:25 0.00817572
6 *186:19 0.00911535
7 *646:DIODE *590:12 8.4047e-05
8 *186:19 *12124:ScanInCC 0
9 *186:19 *12124:DI[0] 4.85338e-05
10 *186:19 *193:16 2.11066e-05
11 *186:25 *187:30 2.6385e-05
12 *186:25 *189:22 0.0038477
13 *186:25 *189:32 0.000861287
14 *186:25 *208:25 0.0126364
15 *113:18 *186:25 0.000333993
16 *113:24 *646:DIODE 4.21594e-06
17 *113:24 *186:29 0.000332257
18 *116:22 *186:25 0.0033543
19 *132:14 *186:25 0.000112764
20 *133:16 *186:19 2.11066e-05
21 *135:18 *186:25 0.000209351
22 *139:36 *186:19 2.81221e-05
*RES
1 *12124:DO[0] *186:19 36.9365
2 *186:19 *186:25 49.8264
3 *186:25 *186:29 20.2939
4 *186:29 *646:DIODE 40.8793
5 *186:29 *11826:A1 38
*END

*D_NET *187 0.0178111
*CONN
*I *11856:A1 I *D sky130_fd_sc_hd__o221a_2
*I *647:DIODE I *D sky130_fd_sc_hd__diode_2
*I *12124:DO[10] O *D CF_SRAM_1024x32
*CAP
1 *11856:A1 1.74222e-05
2 *647:DIODE 0.000341649
3 *12124:DO[10] 0.00308479
4 *187:30 0.00173316
5 *187:22 0.00445098
6 *187:4 7.90385e-06
7 *647:DIODE *620:16 0.000222671
8 *647:DIODE *622:10 2.18286e-05
9 *647:DIODE *628:37 5.43589e-05
10 *647:DIODE *631:165 0.000156196
11 *647:DIODE *631:178 0
12 *11856:A1 *633:41 2.4431e-05
13 *187:22 *12124:BEN[10] 0
14 *187:22 *12124:DI[10] 7.73389e-05
15 *187:22 *191:21 0.00079074
16 *187:22 *212:25 0.000462961
17 *187:22 *217:27 0.00584473
18 *187:22 *351:26 2.11066e-05
19 *187:22 *557:219 0
20 *187:30 *189:32 6.61067e-05
21 *187:30 *584:16 0.000247612
22 *187:30 *628:37 9.28078e-06
23 *187:30 *631:165 4.89731e-05
24 *116:22 *187:30 4.04478e-05
25 *134:28 *187:30 3.89178e-05
26 *142:20 *187:22 2.11066e-05
27 *142:30 *187:30 0
28 *186:25 *187:30 2.6385e-05
*RES
1 *12124:DO[10] *187:4 0.155357
2 *12124:DO[10] *187:22 49.253
3 *187:22 *187:30 32.3263
4 *187:30 *647:DIODE 43.2614
5 *187:30 *11856:A1 38.2848
*END

*D_NET *188 0.0136378
*CONN
*I *11859:A1 I *D sky130_fd_sc_hd__o221a_2
*I *648:DIODE I *D sky130_fd_sc_hd__diode_2
*I *12124:DO[11] O *D CF_SRAM_1024x32
*CAP
1 *11859:A1 0
2 *648:DIODE 0.000257896
3 *12124:DO[11] 0.00383509
4 *188:30 0.00148476
5 *188:22 0.00506196
6 *188:4 0
7 *648:DIODE *11825:A 0
8 *648:DIODE *588:30 1.01436e-05
9 *648:DIODE *592:8 5.09885e-05
10 *648:DIODE *620:16 0.000223704
11 *648:DIODE *632:28 0.000164978
12 *188:22 *12124:BEN[10] 0
13 *188:22 *12124:BEN[11] 0
14 *188:22 *12124:DI[11] 7.72342e-05
15 *188:22 *192:23 0.000860292
16 *188:22 *195:19 0
17 *188:22 *351:26 2.11066e-05
18 *188:22 *557:219 0
19 *188:22 *632:83 0.00118871
20 *188:30 *630:12 7.66156e-05
21 *188:30 *632:28 0.000303229
22 *136:26 *648:DIODE 0
23 *142:20 *188:22 2.11066e-05
*RES
1 *12124:DO[11] *188:4 0.156154
2 *12124:DO[11] *188:22 47.0652
3 *188:22 *188:30 22.2772
4 *188:30 *648:DIODE 42.785
5 *188:30 *11859:A1 38
*END

*D_NET *189 0.0160101
*CONN
*I *11862:A1 I *D sky130_fd_sc_hd__o221a_2
*I *649:DIODE I *D sky130_fd_sc_hd__diode_2
*I *12124:DO[12] O *D CF_SRAM_1024x32
*CAP
1 *11862:A1 0
2 *649:DIODE 0
3 *12124:DO[12] 0.00352067
4 *189:42 0.000300296
5 *189:34 0.000629461
6 *189:32 0.00138144
7 *189:22 0.00457295
8 *189:4 0
9 *189:22 *12124:BEN[11] 0
10 *189:22 *12124:DI[12] 7.72342e-05
11 *189:22 *208:25 2.48388e-05
12 *189:22 *351:26 2.11066e-05
13 *189:22 *557:191 0
14 *189:32 *571:12 0
15 *189:34 *623:6 0.000112685
16 *189:34 *633:141 5.3304e-05
17 *189:42 *12092:A 4.36379e-05
18 *189:42 *633:141 0.000132927
19 *122:36 *189:32 0
20 *124:32 *189:42 0.000159802
21 *132:14 *189:32 0.000183556
22 *142:20 *189:22 2.11066e-05
23 *186:25 *189:22 0.0038477
24 *186:25 *189:32 0.000861287
25 *187:30 *189:32 6.61067e-05
*RES
1 *12124:DO[12] *189:4 0.184545
2 *12124:DO[12] *189:22 45.669
3 *189:22 *189:32 44.2342
4 *189:32 *189:34 6.33857
5 *189:34 *189:42 34.785
6 *189:42 *649:DIODE 23
7 *189:34 *11862:A1 23
*END

*D_NET *190 0.00270834
*CONN
*I *11865:A1 I *D sky130_fd_sc_hd__o221a_2
*I *12124:DO[13] O *D CF_SRAM_1024x32
*CAP
1 *11865:A1 0.00114787
2 *12124:DO[13] 0.00114787
3 *11865:A1 *11865:B1 1.28818e-05
4 *11865:A1 *12124:BEN[12] 0
5 *11865:A1 *12124:DI[13] 0
6 *11865:A1 *628:194 0.000298503
7 *11865:A1 *633:6 4.67488e-05
8 *11865:B2 *11865:A1 5.44668e-05
*RES
1 *12124:DO[13] *11865:A1 39.6439
*END

*D_NET *191 0.00984197
*CONN
*I *11868:A1 I *D sky130_fd_sc_hd__o221a_2
*I *12124:DO[14] O *D CF_SRAM_1024x32
*CAP
1 *11868:A1 0
2 *12124:DO[14] 0.00165218
3 *191:27 0.00102765
4 *191:21 0.00267983
5 *191:21 *12124:DI[14] 2.27472e-05
6 *191:21 *12124:vpwrac 0.000492751
7 *191:21 *212:25 0.00198671
8 *191:21 *351:38 0.000111701
9 *191:21 *557:157 6.17437e-06
10 *191:21 *632:73 0
11 *191:27 *208:25 0.000108097
12 *191:27 *557:12 0
13 *191:27 *632:28 0
14 *191:27 *634:233 0.000133027
15 *116:22 *191:21 0.000494156
16 *142:24 *191:21 2.11066e-05
17 *142:30 *191:27 0.0003151
18 *187:22 *191:21 0.00079074
*RES
1 *12124:DO[14] *191:21 48.1752
2 *191:21 *191:27 42.3368
3 *191:27 *11868:A1 23
*END

*D_NET *192 0.00763579
*CONN
*I *11871:A1 I *D sky130_fd_sc_hd__o221a_2
*I *12124:DO[15] O *D CF_SRAM_1024x32
*CAP
1 *11871:A1 0
2 *12124:DO[15] 0.00175541
3 *192:31 0.00104583
4 *192:23 0.00280124
5 *192:23 *12124:BEN[14] 0
6 *192:23 *206:27 0.000135165
7 *192:31 *12124:vpwrac 0.000346286
8 *192:31 *632:8 6.6869e-05
9 *116:22 *192:31 0.000352224
10 *142:24 *192:23 2.26406e-05
11 *144:28 *192:31 0.000249834
12 *188:22 *192:23 0.000860292
*RES
1 *12124:DO[15] *192:23 49.7617
2 *192:23 *192:31 37.4025
3 *192:31 *11871:A1 23
*END

*D_NET *193 0.0411194
*CONN
*I *11874:A1 I *D sky130_fd_sc_hd__o221a_2
*I *650:DIODE I *D sky130_fd_sc_hd__diode_2
*I *12124:DO[16] O *D CF_SRAM_1024x32
*CAP
1 *11874:A1 0.000391628
2 *650:DIODE 0.000419551
3 *12124:DO[16] 9.02058e-05
4 *193:34 0.00145939
5 *193:32 0.00215447
6 *193:26 0.00225946
7 *193:24 0.00118465
8 *193:18 0.00256034
9 *193:16 0.00294975
10 *193:12 0.000903233
11 *193:4 7.82742e-06
12 *650:DIODE *319:16 0.000190254
13 *11874:A1 *11874:A2 1.21972e-05
14 *11874:A1 *11874:B1 5.28598e-05
15 *11874:A1 *11874:C1 0.000135037
16 *11874:A1 *632:67 0.000342939
17 *193:12 *12124:ScanInDR 0.000182826
18 *193:12 *12124:DI[16] 0
19 *193:16 *195:19 0.000353943
20 *193:16 *632:83 4.51403e-05
21 *193:18 *12124:BEN[0] 0.000121117
22 *193:18 *12124:BEN[1] 0.000565736
23 *193:18 *12124:BEN[2] 2.11157e-05
24 *193:18 *12124:BEN[3] 2.11157e-05
25 *193:18 *12124:BEN[4] 2.11157e-05
26 *193:18 *12124:BEN[6] 2.11157e-05
27 *193:18 *194:22 3.19892e-06
28 *193:18 *194:28 1.15883e-05
29 *193:18 *195:19 0.000250658
30 *193:18 *208:19 2.05503e-05
31 *193:18 *211:17 2.11066e-05
32 *193:18 *212:17 2.11157e-05
33 *193:18 *215:17 0.000124126
34 *193:18 *351:18 0.00215622
35 *193:24 *12124:BEN[7] 3.7122e-06
36 *193:26 *629:8 0.00326884
37 *193:34 *319:16 0.000606276
38 *193:34 *362:26 0.000244764
39 *193:34 *369:34 0.000642402
40 *11874:B2 *11874:A1 3.46206e-05
41 *123:18 *193:16 0.00289391
42 *123:18 *193:18 0.000468583
43 *123:34 *193:18 0.00189199
44 *126:8 *650:DIODE 0.000185873
45 *126:8 *193:34 0.00177711
46 *133:16 *193:16 0.000669931
47 *133:16 *193:18 0.0016223
48 *133:26 *193:18 0.00268886
49 *136:14 *193:26 0.00327111
50 *138:16 *193:24 6.08617e-05
51 *139:36 *193:16 0.00150329
52 *144:16 *193:24 0.000137361
53 *180:14 *11874:A1 4.03402e-06
54 *180:23 *11874:A1 4.68297e-05
55 *186:19 *193:16 2.11066e-05
*RES
1 *12124:DO[16] *193:4 0.165714
2 *12124:DO[16] *193:12 17.0507
3 *193:12 *193:16 38.2696
4 *193:16 *193:18 84.1311
5 *193:18 *193:24 36.3386
6 *193:24 *193:26 42.7543
7 *193:26 *193:32 45.8671
8 *193:32 *193:34 24.0907
9 *193:34 *650:DIODE 44.09
10 *193:34 *11874:A1 44.8357
*END

*D_NET *194 0.0598772
*CONN
*I *11877:A1 I *D sky130_fd_sc_hd__o221a_2
*I *651:DIODE I *D sky130_fd_sc_hd__diode_2
*I *12124:DO[17] O *D CF_SRAM_1024x32
*CAP
1 *11877:A1 0.000306652
2 *651:DIODE 0.000211175
3 *12124:DO[17] 0.00023768
4 *194:50 0.00121622
5 *194:46 0.00219785
6 *194:44 0.00243474
7 *194:36 0.00103351
8 *194:30 0.00170957
9 *194:28 0.00172932
10 *194:22 0.00173304
11 *194:20 0.00161507
12 *194:18 0.000228874
13 *194:4 8.80585e-06
14 *651:DIODE *632:101 0.000185212
15 *11877:A1 *11877:A2 3.3716e-05
16 *11877:A1 *11877:B1 6.94015e-05
17 *194:18 *12124:WLBI 0.000180212
18 *194:18 *12124:TM 4.67488e-05
19 *194:18 *12124:DI[17] 1.33439e-05
20 *194:18 *639:6 9.61662e-05
21 *194:18 *639:22 0.000181863
22 *194:22 *195:19 0.00129519
23 *194:22 *213:17 2.05503e-05
24 *194:22 *351:10 0.00592886
25 *194:22 *360:76 0.000935807
26 *194:28 *351:10 9.2467e-06
27 *194:28 *351:18 5.95172e-05
28 *194:30 *12124:BEN[5] 2.11066e-05
29 *194:30 *195:19 0.00144548
30 *194:30 *214:17 2.11157e-05
31 *194:30 *350:26 0.00840145
32 *194:30 *351:18 0.00039047
33 *194:30 *351:24 3.19892e-06
34 *194:30 *351:26 8.41755e-05
35 *194:36 *11819:D 6.70361e-05
36 *194:36 *557:136 9.6788e-06
37 *194:44 *196:39 1.56665e-05
38 *194:44 *204:19 0.000293198
39 *194:44 *576:10 3.70094e-05
40 *194:44 *576:14 0.000844796
41 *194:44 *587:32 1.52259e-05
42 *194:46 *196:39 0.00370441
43 *194:46 *198:15 0
44 *194:46 *199:25 0.000169384
45 *194:46 *625:49 0.00172026
46 *119:18 *194:22 0.000548435
47 *119:18 *194:28 9.89529e-06
48 *120:22 *194:44 0
49 *123:18 *194:18 0.000182699
50 *123:18 *194:22 0.00742144
51 *130:26 *194:30 0.00423734
52 *132:10 *194:44 0.00150316
53 *133:26 *194:22 0.000224817
54 *134:14 *194:44 0.00158322
55 *136:20 *194:44 2.13361e-05
56 *142:10 *194:30 0.00315337
57 *148:14 *11877:A1 1.47162e-05
58 *193:18 *194:22 3.19892e-06
59 *193:18 *194:28 1.15883e-05
*RES
1 *12124:DO[17] *194:4 0.186429
2 *12124:DO[17] *194:18 35.7586
3 *194:18 *194:20 15
4 *194:20 *194:22 102.266
5 *194:22 *194:28 2.44429
6 *194:28 *194:30 108.253
7 *194:30 *194:36 31.5743
8 *194:36 *194:44 46.2164
9 *194:44 *194:46 41.5943
10 *194:46 *194:50 25.3571
11 *194:50 *651:DIODE 40.9621
12 *194:50 *11877:A1 41.8529
*END

*D_NET *195 0.0714071
*CONN
*I *11880:A1 I *D sky130_fd_sc_hd__o221a_2
*I *653:DIODE I *D sky130_fd_sc_hd__diode_2
*I *12124:DO[18] O *D CF_SRAM_1024x32
*CAP
1 *11880:A1 0.000342777
2 *653:DIODE 0.000117491
3 *12124:DO[18] 0.000400961
4 *195:23 0.00634699
5 *195:19 0.0148975
6 *195:17 0.00941176
7 *653:DIODE *11880:A2 0
8 *653:DIODE *630:57 0.000143681
9 *653:DIODE *634:42 0
10 *11880:A1 *11880:A2 9.86551e-06
11 *11880:A1 *630:57 0
12 *195:17 *12124:DI[18] 0
13 *195:17 *426:32 0
14 *195:17 *639:34 0.000127918
15 *195:19 *204:19 0.0192608
16 *195:19 *206:27 0.000309589
17 *195:19 *350:26 0.0016028
18 *195:19 *351:10 0.00105063
19 *195:19 *351:18 0.000232624
20 *195:19 *351:26 0.000311873
21 *195:19 *360:76 0.000183317
22 *195:19 *557:191 0.000446853
23 *195:19 *557:213 0.000355704
24 *195:19 *560:30 0.00027148
25 *195:19 *560:54 0.000451702
26 *195:19 *560:76 0.000398357
27 *195:19 *560:154 0
28 *195:19 *587:32 0.000516328
29 *195:19 *632:83 0.000980331
30 *195:23 *352:12 0.000260231
31 *195:23 *452:20 0.00276622
32 *195:23 *594:16 0.000320471
33 *195:23 *632:107 0.000130187
34 *119:18 *195:19 0.00149244
35 *123:18 *195:19 0.000998338
36 *130:26 *195:19 0.000970146
37 *132:10 *195:19 0.000890968
38 *133:16 *195:17 0.000130551
39 *133:26 *195:19 0.000275969
40 *134:12 *195:19 0.000109432
41 *139:36 *195:19 0.000953345
42 *142:10 *195:19 0.000403337
43 *142:24 *195:19 0.00018885
44 *188:22 *195:19 0
45 *193:16 *195:19 0.000353943
46 *193:18 *195:19 0.000250658
47 *194:22 *195:19 0.00129519
48 *194:30 *195:19 0.00144548
*RES
1 *12124:DO[18] *195:17 36.2762
2 *195:17 *195:19 46.7675
3 *195:19 *195:23 20.7213
4 *195:23 *653:DIODE 48.0818
5 *195:23 *11880:A1 47.2444
*END

*D_NET *196 0.0769017
*CONN
*I *11883:A1 I *D sky130_fd_sc_hd__o221a_2
*I *654:DIODE I *D sky130_fd_sc_hd__diode_2
*I *655:DIODE I *D sky130_fd_sc_hd__diode_2
*I *12124:DO[19] O *D CF_SRAM_1024x32
*CAP
1 *11883:A1 0.000133008
2 *654:DIODE 0
3 *655:DIODE 0.000201551
4 *12124:DO[19] 0.00109491
5 *196:56 0.000133008
6 *196:43 0.00138615
7 *196:39 0.00398435
8 *196:37 0.00305283
9 *196:33 0.00174731
10 *196:19 0.00553149
11 *196:17 0.00415207
12 *196:11 0.00089269
13 *196:9 0.00187279
14 *655:DIODE *525:14 6.6869e-05
15 *655:DIODE *632:126 1.34354e-05
16 *655:DIODE *632:136 3.98859e-05
17 *11883:A1 *11883:A2 1.12349e-05
18 *11883:A1 *11883:B1 6.39489e-06
19 *11883:A1 *597:14 0.000280778
20 *11883:A1 *634:42 0.000139292
21 *11883:A1 *634:56 3.97382e-05
22 *196:9 *12124:BEN[18] 0
23 *196:9 *12124:DI[19] 0
24 *196:9 *443:51 0
25 *196:11 *374:16 0.00036509
26 *196:17 *360:74 4.38638e-05
27 *196:19 *203:11 0.0135026
28 *196:19 *224:25 0.00750624
29 *196:19 *224:38 0.000152237
30 *196:19 *400:20 0.00571748
31 *196:19 *577:16 0.000447377
32 *196:33 *575:36 0.00192747
33 *196:33 *628:188 2.91692e-05
34 *196:33 *628:194 0.00187483
35 *196:37 *575:36 1.47729e-05
36 *196:37 *596:16 5.9549e-05
37 *196:37 *628:188 0.000988611
38 *196:37 *631:212 0.000863572
39 *196:39 *199:25 0.000888513
40 *196:39 *200:15 0.00558957
41 *196:39 *576:14 0.000430566
42 *196:43 *632:126 5.33213e-05
43 *8:9 *655:DIODE 3.22879e-05
44 *111:16 *196:39 2.95212e-05
45 *113:16 *196:39 0.00108904
46 *129:10 *196:11 0.00265277
47 *150:18 *196:43 0
48 *152:22 *11883:A1 7.51453e-06
49 *181:18 *196:19 0.00148082
50 *184:8 *196:11 0.00265499
51 *194:44 *196:39 1.56665e-05
52 *194:46 *196:39 0.00370441
*RES
1 *12124:DO[19] *196:9 29.4171
2 *196:9 *196:11 35.3593
3 *196:11 *196:17 31.5743
4 *196:17 *196:19 179.914
5 *196:19 *196:33 43.614
6 *196:33 *196:37 27.9982
7 *196:37 *196:39 90.19
8 *196:39 *196:43 34.5129
9 *196:43 *655:DIODE 41.2314
10 *196:43 *196:56 15
11 *196:56 *654:DIODE 23
12 *196:56 *11883:A1 27.4743
*END

*D_NET *197 0.0380225
*CONN
*I *11829:A1 I *D sky130_fd_sc_hd__o221a_1
*I *656:DIODE I *D sky130_fd_sc_hd__diode_2
*I *12124:DO[1] O *D CF_SRAM_1024x32
*CAP
1 *11829:A1 0
2 *656:DIODE 0.000174334
3 *12124:DO[1] 0.0033406
4 *197:27 0.000573004
5 *197:23 0.00815138
6 *197:17 0.0110933
7 *656:DIODE *602:8 3.64195e-05
8 *656:DIODE *631:44 0
9 *656:DIODE *633:110 5.58975e-06
10 *197:17 *12124:BEN[0] 0
11 *197:17 *12124:DI[1] 0.000401893
12 *197:17 *205:19 2.11157e-05
13 *197:17 *560:128 0.000176468
14 *197:17 *575:38 2.11157e-05
15 *197:23 *208:25 0.000685811
16 *197:23 *211:25 0.012594
17 *197:23 *215:27 0
18 *197:23 *216:31 3.687e-05
19 *197:27 *633:110 0.000181975
20 *116:28 *197:27 4.77584e-05
21 *137:24 *197:17 0.000148185
22 *139:36 *197:17 0.000332709
*RES
1 *12124:DO[1] *197:17 48.157
2 *197:17 *197:23 45.2344
3 *197:23 *197:27 16.0682
4 *197:27 *656:DIODE 40.8793
5 *197:27 *11829:A1 38
*END

*D_NET *198 0.0736939
*CONN
*I *11886:A1 I *D sky130_fd_sc_hd__o221a_2
*I *657:DIODE I *D sky130_fd_sc_hd__diode_2
*I *12124:DO[20] O *D CF_SRAM_1024x32
*CAP
1 *11886:A1 0
2 *657:DIODE 0
3 *12124:DO[20] 0.000438804
4 *198:40 0.000250845
5 *198:23 0.00026688
6 *198:19 0.00129056
7 *198:15 0.00614044
8 *198:13 0.00486591
9 *198:11 0.00419551
10 *198:9 0.00463431
11 *198:9 *12124:BEN[19] 1.84962e-05
12 *198:9 *12124:DI[20] 0
13 *198:9 *449:35 0
14 *198:11 *199:19 0.00198357
15 *198:11 *206:11 0.000312869
16 *198:11 *350:18 2.11131e-05
17 *198:11 *382:48 0.000888728
18 *198:15 *202:19 0.00374187
19 *198:15 *441:14 0.000693954
20 *198:15 *589:14 0.000162331
21 *198:15 *625:49 0
22 *198:15 *627:35 0.000142841
23 *198:19 *227:45 0.000215791
24 *198:19 *630:88 7.8128e-05
25 *198:23 *370:6 0.00010018
26 *198:23 *595:14 9.84851e-05
27 *198:40 *370:6 0.000171296
28 *198:40 *595:14 0.00018282
29 *119:34 *198:11 2.69968e-05
30 *119:42 *198:11 0.000682268
31 *126:16 *198:15 0.00160479
32 *127:10 *198:11 3.25229e-05
33 *130:18 *198:11 0.000903258
34 *133:36 *198:11 0.000322233
35 *134:12 *198:11 1.11421e-05
36 *134:14 *198:11 0.00734349
37 *137:16 *198:11 0.00693625
38 *138:18 *198:11 0.00814739
39 *139:42 *198:11 0.0017878
40 *141:16 *198:11 0.0088937
41 *141:26 *198:11 0.00251245
42 *143:18 *198:11 4.30644e-05
43 *144:10 *198:11 0.0033259
44 *149:53 *198:19 0
45 *149:55 *198:19 0
46 *149:57 *198:19 0
47 *149:59 *198:19 0
48 *149:59 *198:40 0.000161651
49 *150:10 *198:19 6.32792e-05
50 *194:46 *198:15 0
*RES
1 *12124:DO[20] *198:9 22.0429
2 *198:9 *198:11 269.886
3 *198:11 *198:13 15
4 *198:13 *198:15 106.865
5 *198:15 *198:19 36.2736
6 *198:19 *198:23 16.0979
7 *198:23 *657:DIODE 23
8 *198:23 *198:40 35.9036
9 *198:40 *11886:A1 23
*END

*D_NET *199 0.084522
*CONN
*I *11889:A1 I *D sky130_fd_sc_hd__o221a_2
*I *658:DIODE I *D sky130_fd_sc_hd__diode_2
*I *12124:DO[21] O *D CF_SRAM_1024x32
*CAP
1 *11889:A1 0
2 *658:DIODE 5.94923e-05
3 *12124:DO[21] 0.000581856
4 *199:46 0.000282738
5 *199:27 0.00156913
6 *199:25 0.00935715
7 *199:19 0.0219642
8 *199:17 0.0144158
9 *658:DIODE *632:151 8.62783e-05
10 *199:17 *12124:BEN[20] 1.47955e-05
11 *199:17 *12124:DI[21] 0
12 *199:17 *454:24 5.58125e-05
13 *199:17 *639:74 2.11066e-05
14 *199:19 *204:19 0.00749727
15 *199:19 *350:18 0.000312212
16 *199:19 *382:48 0.00593903
17 *199:25 *200:15 0.00147484
18 *199:25 *201:15 0.00170271
19 *199:25 *203:27 0.000751981
20 *199:25 *204:27 0
21 *199:25 *207:19 0.00148202
22 *199:25 *210:17 0.00170271
23 *199:25 *441:14 0
24 *199:25 *598:18 0.000282197
25 *199:25 *598:20 0.000662117
26 *199:27 *11889:B1 1.38978e-05
27 *199:27 *585:12 0.000391751
28 *199:27 *632:151 4.77554e-05
29 *199:46 *594:30 0
30 *199:46 *604:12 2.76611e-06
31 *199:46 *630:88 1.24376e-05
32 *199:46 *630:97 0.000247812
33 *199:46 *634:73 2.44117e-05
34 *199:46 *634:90 4.77164e-06
35 *111:16 *199:25 0.00129816
36 *116:22 *199:25 0.00118684
37 *119:34 *199:19 0.000265645
38 *130:18 *199:19 0.00222676
39 *133:16 *199:17 2.31116e-05
40 *133:36 *199:19 0.000254406
41 *137:16 *199:19 0.000277518
42 *138:18 *199:19 0.00107871
43 *139:42 *199:19 0.000356787
44 *141:26 *199:19 0.000441804
45 *143:18 *199:19 0.00169817
46 *144:18 *199:19 0.0014108
47 *151:26 *199:25 8.78319e-07
48 *194:46 *199:25 0.000169384
49 *196:39 *199:25 0.000888513
50 *198:11 *199:19 0.00198357
*RES
1 *12124:DO[21] *199:17 35.4449
2 *199:17 *199:19 49.8139
3 *199:19 *199:25 37.4797
4 *199:25 *199:27 21.8018
5 *199:27 *658:DIODE 39.2014
6 *199:27 *199:46 48.8529
7 *199:46 *11889:A1 23
*END

*D_NET *200 0.0800538
*CONN
*I *11892:A1 I *D sky130_fd_sc_hd__o221a_2
*I *659:DIODE I *D sky130_fd_sc_hd__diode_2
*I *12124:DO[22] O *D CF_SRAM_1024x32
*CAP
1 *11892:A1 8.34574e-05
2 *659:DIODE 0.000171118
3 *12124:DO[22] 0.00276733
4 *200:19 0.00154522
5 *200:15 0.00306993
6 *200:13 0.00177929
7 *200:11 0.00497023
8 *200:9 0.00497023
9 *200:7 0.00276733
10 *659:DIODE *594:30 0
11 *659:DIODE *634:106 0
12 *11892:A1 *11892:A2 5.79559e-05
13 *11892:A1 *11892:B1 1.4006e-05
14 *11892:A1 *11892:C1 5.56356e-05
15 *11892:A1 *601:10 0.000108156
16 *11892:A1 *630:105 0.000357859
17 *200:7 *12065:A 0.000261206
18 *200:7 *12124:DI[22] 5.2894e-05
19 *200:7 *409:12 2.64616e-05
20 *200:7 *409:48 4.67488e-05
21 *200:11 *201:11 0.0221645
22 *200:11 *202:15 1.07603e-05
23 *200:11 *226:22 0.0122073
24 *200:11 *226:28 0.000284947
25 *200:11 *365:72 1.11421e-05
26 *200:11 *365:74 0.00296226
27 *200:11 *396:16 0.00141413
28 *200:11 *579:26 0.00152694
29 *200:15 *201:15 0.008517
30 *200:19 *11892:B1 3.87221e-06
31 *200:19 *594:30 0
32 *200:19 *597:20 2.59423e-05
33 *111:16 *200:15 9.03964e-06
34 *131:18 *200:11 0.00068855
35 *156:26 *659:DIODE 5.79559e-05
36 *158:36 *200:19 0
37 *196:39 *200:15 0.00558957
38 *199:25 *200:15 0.00147484
*RES
1 *12124:DO[22] *200:7 38.4664
2 *200:7 *200:9 15
3 *200:9 *200:11 289.959
4 *200:11 *200:13 15
5 *200:13 *200:15 93.525
6 *200:15 *200:19 35.9214
7 *200:19 *659:DIODE 40.175
8 *200:19 *11892:A1 41.9771
*END

*D_NET *201 0.0908059
*CONN
*I *11895:A1 I *D sky130_fd_sc_hd__o221a_2
*I *660:DIODE I *D sky130_fd_sc_hd__diode_2
*I *12124:DO[23] O *D CF_SRAM_1024x32
*CAP
1 *11895:A1 0
2 *660:DIODE 0
3 *12124:DO[23] 0.00241478
4 *201:38 0.000521966
5 *201:23 0.000567757
6 *201:19 0.00141289
7 *201:15 0.00299481
8 *201:13 0.00162771
9 *201:11 0.00524035
10 *201:9 0.00524035
11 *201:7 0.00241478
12 *201:7 *965:DIODE 2.64616e-05
13 *201:7 *11972:A 0.000398825
14 *201:7 *12124:DI[23] 1.04148e-05
15 *201:7 *258:23 0.000520378
16 *201:7 *258:38 2.81066e-05
17 *201:7 *502:8 0.000261206
18 *201:11 *202:15 0.0230151
19 *201:11 *365:74 0.000430037
20 *201:15 *210:17 0.0096177
21 *201:19 *227:27 0
22 *201:19 *601:16 1.0402e-05
23 *201:19 *630:113 0.000132912
24 *201:38 *601:18 6.08617e-05
25 *201:38 *606:12 0.000159299
26 *201:38 *632:193 0.000121474
27 *201:38 *634:121 0.000179473
28 *111:16 *201:15 5.00912e-05
29 *151:26 *201:15 0.000181109
30 *156:26 *201:23 5.50049e-05
31 *156:26 *201:38 0.000420115
32 *160:20 *201:19 0
33 *185:16 *201:7 0.000307294
34 *199:25 *201:15 0.00170271
35 *200:11 *201:11 0.0221645
36 *200:15 *201:15 0.008517
*RES
1 *12124:DO[23] *201:7 38.9221
2 *201:7 *201:9 15
3 *201:9 *201:11 300.875
4 *201:11 *201:13 15
5 *201:13 *201:15 106.865
6 *201:15 *201:19 37.6821
7 *201:19 *201:23 15.6214
8 *201:23 *660:DIODE 23
9 *201:23 *201:38 38.8657
10 *201:38 *11895:A1 23
*END

*D_NET *202 0.0899399
*CONN
*I *661:DIODE I *D sky130_fd_sc_hd__diode_2
*I *11898:A1 I *D sky130_fd_sc_hd__o221a_2
*I *12124:DO[24] O *D CF_SRAM_1024x32
*CAP
1 *661:DIODE 0
2 *11898:A1 0
3 *12124:DO[24] 0.00262388
4 *202:39 0.000451205
5 *202:27 0.000601469
6 *202:23 0.00156811
7 *202:19 0.00407266
8 *202:17 0.00265481
9 *202:15 0.00585296
10 *202:13 0.00585296
11 *202:11 0.00262388
12 *202:11 *11976:A 0.000964439
13 *202:11 *11983:A 0.000562237
14 *202:11 *12124:BEN[23] 0
15 *202:11 *12124:DI[24] 1.18615e-05
16 *202:11 *310:25 5.61255e-06
17 *202:15 *330:8 0.018356
18 *202:15 *365:74 0.000289502
19 *202:15 *396:16 0
20 *202:19 *441:14 0.00158547
21 *202:19 *627:35 0.0109912
22 *202:39 *12102:A 7.51453e-06
23 *202:39 *12225:A 0.000183102
24 *202:39 *441:10 4.08209e-05
25 *202:39 *608:8 1.00084e-05
26 *202:39 *632:206 2.64616e-05
27 *202:39 *634:131 5.3304e-05
28 *119:14 *202:11 0.000135037
29 *151:26 *202:23 0.00022293
30 *156:20 *202:23 0.000133316
31 *177:22 *202:15 0.00244224
32 *185:18 *202:15 0.000849256
33 *198:15 *202:19 0.00374187
34 *200:11 *202:15 1.07603e-05
35 *201:11 *202:15 0.0230151
*RES
1 *12124:DO[24] *202:11 40.3721
2 *202:11 *202:13 15
3 *202:13 *202:15 316.721
4 *202:15 *202:17 15
5 *202:17 *202:19 120.205
6 *202:19 *202:23 35.2171
7 *202:23 *202:27 16.5743
8 *202:27 *202:39 37.2086
9 *202:39 *11898:A1 23
10 *202:27 *661:DIODE 23
*END

*D_NET *203 0.102055
*CONN
*I *11901:A1 I *D sky130_fd_sc_hd__o221a_2
*I *662:DIODE I *D sky130_fd_sc_hd__diode_2
*I *12124:DO[25] O *D CF_SRAM_1024x32
*CAP
1 *11901:A1 0.000159524
2 *662:DIODE 0.000190936
3 *12124:DO[25] 0.00103237
4 *203:31 0.00168065
5 *203:27 0.00316864
6 *203:25 0.00190402
7 *203:19 0.00195776
8 *203:15 0.00279899
9 *203:11 0.00760479
10 *203:9 0.00773036
11 *662:DIODE *630:129 4.36401e-06
12 *11901:A1 *632:221 5.50106e-05
13 *11901:A1 *634:148 5.50106e-05
14 *203:9 *12124:DI[25] 0
15 *203:9 *278:23 6.75015e-05
16 *203:11 *12124:DI[10] 2.05503e-05
17 *203:11 *220:57 8.4047e-05
18 *203:11 *220:68 0.000244507
19 *203:11 *220:79 0.000188512
20 *203:11 *224:25 1.81455e-05
21 *203:11 *369:74 0.000892265
22 *203:11 *374:16 0.00157375
23 *203:11 *400:18 0.00214937
24 *203:11 *400:20 0.000976452
25 *203:11 *400:74 0.0013167
26 *203:11 *504:14 2.5343e-05
27 *203:11 *506:8 0.000429696
28 *203:11 *506:18 0.000159975
29 *203:11 *506:54 7.20415e-05
30 *203:11 *576:16 0.000364332
31 *203:11 *637:12 0.0010779
32 *203:15 *224:25 0.000303126
33 *203:15 *363:41 0.00124585
34 *203:15 *576:16 3.39444e-05
35 *203:15 *577:16 0.000227039
36 *203:15 *589:10 0.00232251
37 *203:15 *632:67 2.26406e-05
38 *203:15 *633:12 0.00144181
39 *203:19 *598:18 0.00121777
40 *203:25 *341:10 2.96051e-05
41 *203:27 *227:21 0.000172786
42 *203:27 *598:18 0.00147012
43 *203:27 *598:20 0.00913359
44 *203:31 *11885:A1 0.000470753
45 *203:31 *230:25 0.000167472
46 *203:31 *547:8 0
47 *203:31 *625:91 8.0169e-05
48 *111:16 *203:27 0.0125723
49 *123:16 *203:9 0.000135037
50 *124:22 *203:19 0.000141442
51 *125:24 *203:11 0.000867279
52 *129:10 *203:11 0.0160462
53 *155:26 *203:27 0.000524059
54 *156:14 *203:31 0.000107277
55 *164:32 *11901:A1 5.58975e-06
56 *164:32 *203:31 0.000160915
57 *181:12 *203:11 2.26406e-05
58 *184:8 *203:11 0.000875007
59 *196:19 *203:11 0.0135026
60 *199:25 *203:27 0.000751981
*RES
1 *12124:DO[25] *203:9 30.4943
2 *203:9 *203:11 283.444
3 *203:11 *203:15 37.5654
4 *203:15 *203:19 44.6836
5 *203:19 *203:25 30.8493
6 *203:25 *203:27 136.88
7 *203:27 *203:31 40.3232
8 *203:31 *662:DIODE 40.4961
9 *203:31 *11901:A1 40.8689
*END

*D_NET *204 0.115783
*CONN
*I *11904:A1 I *D sky130_fd_sc_hd__o221a_2
*I *664:DIODE I *D sky130_fd_sc_hd__diode_2
*I *12124:DO[26] O *D CF_SRAM_1024x32
*CAP
1 *11904:A1 0.000108656
2 *664:DIODE 0.000249628
3 *12124:DO[26] 0.000376058
4 *204:31 0.00130246
5 *204:27 0.0137409
6 *204:19 0.0214043
7 *204:17 0.00898366
8 *664:DIODE *601:28 9.84851e-05
9 *664:DIODE *632:236 2.31209e-05
10 *664:DIODE *634:167 0
11 *11904:A1 *634:167 2.5343e-05
12 *204:17 *12124:DI[26] 7.55265e-05
13 *204:17 *281:15 0.000123544
14 *204:17 *476:38 0.000260114
15 *204:19 *206:11 0.00297833
16 *204:19 *206:19 0.000890428
17 *204:19 *258:19 0.00025989
18 *204:19 *360:76 0.000744698
19 *204:19 *382:48 0.0105986
20 *204:19 *560:154 0
21 *204:19 *638:39 4.68613e-05
22 *204:19 *639:94 0
23 *204:19 *639:114 0
24 *204:19 *639:134 0
25 *204:27 *206:39 0.00241718
26 *204:27 *209:17 0.00106122
27 *204:27 *227:29 0.000104739
28 *204:27 *230:23 0.000977329
29 *204:27 *441:14 0.00962158
30 *204:27 *547:14 0
31 *204:31 *232:64 0
32 *204:31 *627:41 0
33 *204:31 *632:236 0.000116526
34 *119:18 *204:19 0.000726805
35 *119:42 *204:19 0.000109432
36 *123:10 *204:19 0.000127194
37 *123:18 *204:19 0.000346211
38 *130:18 *204:19 0.0022421
39 *133:8 *204:17 2.3e-05
40 *134:14 *204:19 0.00103865
41 *141:16 *204:19 0.00151467
42 *144:10 *204:19 0.000467403
43 *153:24 *204:27 0.0038942
44 *157:26 *204:31 0
45 *157:43 *204:31 9.98891e-05
46 *157:51 *204:31 0
47 *157:55 *204:31 0
48 *157:61 *664:DIODE 0
49 *157:61 *204:31 0
50 *157:65 *664:DIODE 2.76611e-06
51 *160:12 *204:31 0.000234615
52 *182:19 *204:27 0.0013155
53 *194:44 *204:19 0.000293198
54 *195:19 *204:19 0.0192608
55 *199:19 *204:19 0.00749727
56 *199:25 *204:27 0
*RES
1 *12124:DO[26] *204:17 35.6608
2 *204:17 *204:19 61.9995
3 *204:19 *204:27 43.9725
4 *204:27 *204:31 23.6393
5 *204:31 *664:DIODE 41.5318
6 *204:31 *11904:A1 39.8954
*END

*D_NET *205 0.111538
*CONN
*I *666:DIODE I *D sky130_fd_sc_hd__diode_2
*I *11907:A1 I *D sky130_fd_sc_hd__o221a_2
*I *665:DIODE I *D sky130_fd_sc_hd__diode_2
*I *12124:DO[27] O *D CF_SRAM_1024x32
*CAP
1 *666:DIODE 0
2 *11907:A1 0
3 *665:DIODE 0.000217803
4 *12124:DO[27] 0.000686707
5 *205:60 0.000250563
6 *205:43 0.000921809
7 *205:37 0.000701173
8 *205:31 0.00402759
9 *205:29 0.00430693
10 *205:25 0.000846849
11 *205:19 0.00381487
12 *205:17 0.0035508
13 *205:11 0.00367528
14 *205:9 0.00430627
15 *665:DIODE *630:152 4.30894e-05
16 *205:9 *12124:BEN[26] 8.38425e-06
17 *205:11 *251:11 0.000812408
18 *205:11 *275:13 0
19 *205:11 *278:21 0.00085359
20 *205:11 *496:36 0
21 *205:11 *506:20 0.00362225
22 *205:11 *575:38 0.00165472
23 *205:11 *607:16 0
24 *205:11 *618:14 0
25 *205:11 *618:22 0
26 *205:11 *629:8 0.00784498
27 *205:19 *575:38 0.00170971
28 *205:19 *628:194 0.00193064
29 *205:19 *629:8 0.0140182
30 *205:25 *12124:DI[15] 1.36267e-05
31 *205:25 *631:212 5.85822e-06
32 *205:25 *631:226 7.08727e-05
33 *205:29 *374:16 0.000200681
34 *205:29 *596:24 0.00101442
35 *205:29 *607:16 0.000203391
36 *205:29 *633:20 0.00144509
37 *205:31 *209:17 0.0162076
38 *205:31 *230:23 0.000530765
39 *205:31 *441:14 0.0024237
40 *205:31 *589:14 0.000223698
41 *205:31 *627:35 0.0162649
42 *205:43 *11894:A1 0.000131992
43 *205:43 *12039:A 0.000180218
44 *205:43 *233:41 0.000182863
45 *205:60 *12181:A 0.000139352
46 *205:60 *609:20 0.000352426
47 *205:60 *611:8 9.58756e-05
48 *205:60 *634:167 9.85586e-06
49 *1083:DIODE *205:43 9.67842e-05
50 *11822:A *205:31 0.000175903
51 *11865:B2 *205:19 0.0001337
52 *125:10 *205:11 0.000723432
53 *139:16 *205:11 2.11396e-05
54 *140:10 *205:19 0.00826686
55 *159:53 *205:37 0.000102335
56 *159:55 *205:37 1.58805e-05
57 *159:55 *205:43 2.33694e-05
58 *159:57 *205:43 0.000101804
59 *159:59 *665:DIODE 0.000127013
60 *159:59 *205:43 2.46036e-05
61 *162:14 *665:DIODE 3.39192e-05
62 *162:14 *205:43 0.000351734
63 *164:26 *205:60 0.000111943
64 *168:26 *205:37 0.000415353
65 *168:26 *205:60 4.77013e-05
66 *182:10 *205:31 5.25436e-05
67 *182:19 *205:31 0.00118901
68 *197:17 *205:19 2.11157e-05
*RES
1 *12124:DO[27] *205:9 25.5229
2 *205:9 *205:11 146.284
3 *205:11 *205:17 31.2014
4 *205:17 *205:19 183.611
5 *205:19 *205:25 34.4329
6 *205:25 *205:29 34.5129
7 *205:29 *205:31 205.486
8 *205:31 *205:37 35.7793
9 *205:37 *205:43 25.9993
10 *205:43 *665:DIODE 42.0186
11 *205:43 *205:60 36.9186
12 *205:60 *11907:A1 38
13 *205:37 *666:DIODE 23
*END

*D_NET *206 0.118783
*CONN
*I *668:DIODE I *D sky130_fd_sc_hd__diode_2
*I *11910:A1 I *D sky130_fd_sc_hd__o221a_2
*I *667:DIODE I *D sky130_fd_sc_hd__diode_2
*I *12124:DO[28] O *D CF_SRAM_1024x32
*CAP
1 *668:DIODE 0
2 *11910:A1 0.000140094
3 *667:DIODE 0
4 *12124:DO[28] 0.000352757
5 *206:77 0.000237194
6 *206:54 0.000383331
7 *206:47 0.00100709
8 *206:39 0.0110918
9 *206:37 0.0100908
10 *206:35 0.000161446
11 *206:27 0.00147904
12 *206:19 0.00237967
13 *206:17 0.00113533
14 *206:11 0.00414216
15 *206:9 0.00442167
16 *11910:A1 *11910:C1 6.88608e-05
17 *11910:A1 *610:20 0.000121951
18 *206:9 *12124:BEN[27] 0
19 *206:9 *12124:DI[28] 0
20 *206:9 *276:15 9.02364e-05
21 *206:11 *272:11 0.000528803
22 *206:11 *350:26 3.81927e-05
23 *206:11 *360:76 0.000426849
24 *206:19 *350:26 0.000355753
25 *206:27 *12124:BEN[15] 1.19591e-05
26 *206:27 *575:14 0
27 *206:35 *576:10 0.000188916
28 *206:35 *587:32 0.000191148
29 *206:35 *589:14 7.91752e-05
30 *206:39 *230:23 0.00010722
31 *206:39 *233:25 0.000130187
32 *206:47 *11910:C1 5.50106e-05
33 *206:47 *382:12 0.000100861
34 *206:47 *603:22 0
35 *206:47 *609:20 0
36 *206:47 *610:20 3.22467e-05
37 *206:54 *11910:C1 5.67058e-05
38 *206:54 *610:20 1.72202e-05
39 *11910:B1 *11910:A1 1.28818e-05
40 *11910:B1 *206:47 0
41 *11910:B1 *206:77 6.07611e-06
42 *11910:B2 *11910:A1 8.1796e-05
43 *119:18 *206:11 0.0159031
44 *119:42 *206:11 0.000684913
45 *119:42 *206:17 0.000119399
46 *123:10 *206:11 0.00200588
47 *126:16 *206:35 0.000221992
48 *130:26 *206:27 3.35885e-05
49 *132:10 *206:19 0.00466672
50 *134:12 *206:11 0.001135
51 *134:14 *206:19 0.00536847
52 *138:22 *206:39 0.000226923
53 *141:16 *206:11 0.015856
54 *142:24 *206:27 0.00175784
55 *144:10 *206:11 0.00333035
56 *161:44 *206:77 0
57 *161:46 *206:77 0
58 *166:14 *11910:A1 0.000235794
59 *182:10 *206:39 0.000946013
60 *182:19 *206:39 0.0195227
61 *182:23 *206:47 0
62 *192:23 *206:27 0.000135165
63 *195:19 *206:27 0.000309589
64 *198:11 *206:11 0.000312869
65 *204:19 *206:11 0.00297833
66 *204:19 *206:19 0.000890428
67 *204:27 *206:39 0.00241718
*RES
1 *12124:DO[28] *206:9 21.2557
2 *206:9 *206:11 264.604
3 *206:11 *206:17 31.9057
4 *206:17 *206:19 69.3411
5 *206:19 *206:27 41.276
6 *206:27 *206:35 35.1371
7 *206:35 *206:37 15
8 *206:37 *206:39 225.019
9 *206:39 *206:47 46.965
10 *206:47 *667:DIODE 23
11 *206:47 *206:54 0.621429
12 *206:54 *11910:A1 28.4686
13 *206:54 *206:77 32.8793
14 *206:77 *668:DIODE 23
*END

*D_NET *207 0.123959
*CONN
*I *11913:A1 I *D sky130_fd_sc_hd__o221a_2
*I *669:DIODE I *D sky130_fd_sc_hd__diode_2
*I *12124:DO[29] O *D CF_SRAM_1024x32
*CAP
1 *11913:A1 1.80182e-05
2 *669:DIODE 0.000204171
3 *12124:DO[29] 0.0028815
4 *207:23 0.00129715
5 *207:19 0.00362708
6 *207:17 0.00255212
7 *207:15 0.00632376
8 *207:13 0.00632376
9 *207:11 0.0028815
10 *669:DIODE *507:8 0
11 *669:DIODE *518:12 0
12 *669:DIODE *612:10 0.000187129
13 *207:11 *1050:DIODE 8.17328e-05
14 *207:11 *11848:A0 0.000139069
15 *207:11 *11848:A1 7.15126e-05
16 *207:11 *12124:DI[29] 9.83101e-06
17 *207:11 *312:42 0.000123838
18 *207:11 *312:49 8.17328e-05
19 *207:11 *312:56 8.17328e-05
20 *207:15 *209:13 0.0281155
21 *207:15 *352:16 9.17773e-05
22 *207:15 *540:18 0.0240585
23 *207:15 *637:27 0.00363641
24 *207:19 *210:17 0.0187969
25 *207:19 *227:21 0.00164677
26 *207:19 *228:25 0.000762411
27 *207:23 *209:25 0
28 *207:23 *463:16 0.000110915
29 *207:23 *611:20 4.08641e-05
30 *111:16 *207:19 0.0174479
31 *111:46 *11913:A1 5.50106e-05
32 *129:8 *207:11 9.39417e-05
33 *164:14 *11913:A1 2.93845e-05
34 *164:24 *669:DIODE 2.05503e-05
35 *166:14 *669:DIODE 0.000185428
36 *172:20 *207:23 0.000494271
37 *182:63 *669:DIODE 1.74874e-06
38 *182:63 *207:23 3.20613e-06
39 *199:25 *207:19 0.00148202
*RES
1 *12124:DO[29] *207:11 42.6714
2 *207:11 *207:13 15
3 *207:13 *207:15 367.078
4 *207:15 *207:17 15
5 *207:17 *207:19 205.009
6 *207:19 *207:23 36.6257
7 *207:23 *669:DIODE 42.3086
8 *207:23 *11913:A1 38.6214
*END

*D_NET *208 0.0392751
*CONN
*I *11832:A1 I *D sky130_fd_sc_hd__o221a_1
*I *670:DIODE I *D sky130_fd_sc_hd__diode_2
*I *12124:DO[2] O *D CF_SRAM_1024x32
*CAP
1 *11832:A1 0
2 *670:DIODE 0.000126919
3 *12124:DO[2] 0.001291
4 *208:29 0.000642432
5 *208:25 0.00507789
6 *208:19 0.00585339
7 *670:DIODE *523:8 1.44663e-05
8 *670:DIODE *588:16 3.22051e-05
9 *670:DIODE *614:8 5.45887e-05
10 *208:19 *12124:BEN[2] 0
11 *208:19 *12124:DI[2] 8.23322e-05
12 *208:25 *211:25 2.20376e-05
13 *208:25 *215:27 0.00966772
14 *208:29 *11847:A2 0.000168558
15 *208:29 *215:42 0.000239435
16 *208:29 *523:8 5.90856e-07
17 *61:15 *670:DIODE 0.000159725
18 *61:15 *208:29 0.00013063
19 *118:24 *208:29 0.000141751
20 *128:24 *208:29 0.000358913
21 *133:22 *208:19 6.17437e-06
22 *135:18 *208:25 0.0016278
23 *142:30 *208:25 0.00010083
24 *186:25 *208:25 0.0126364
25 *189:22 *208:25 2.48388e-05
26 *191:27 *208:25 0.000108097
27 *193:18 *208:19 2.05503e-05
28 *197:23 *208:25 0.000685811
*RES
1 *12124:DO[2] *208:19 36.161
2 *208:19 *208:25 43.2893
3 *208:25 *208:29 20.9982
4 *208:29 *670:DIODE 40.8793
5 *208:29 *11832:A1 38
*END

*D_NET *209 0.126411
*CONN
*I *11916:A1 I *D sky130_fd_sc_hd__o221a_2
*I *671:DIODE I *D sky130_fd_sc_hd__diode_2
*I *12124:DO[30] O *D CF_SRAM_1024x32
*CAP
1 *11916:A1 0
2 *671:DIODE 0
3 *12124:DO[30] 0.00310772
4 *209:38 0.000241194
5 *209:25 0.0012528
6 *209:17 0.0045235
7 *209:15 0.00351189
8 *209:13 0.00677694
9 *209:11 0.00677694
10 *209:9 0.00310772
11 *209:9 *12124:DI[30] 2.50821e-05
12 *209:13 *210:13 0.029092
13 *209:13 *540:18 0.000229638
14 *209:13 *637:27 0.000467919
15 *209:17 *230:23 0.000530765
16 *209:17 *233:25 0.000371505
17 *209:17 *441:14 0.00102153
18 *209:25 *210:21 0
19 *209:25 *518:12 3.39192e-05
20 *209:25 *518:18 0.000257636
21 *209:38 *210:21 9.23819e-06
22 *209:38 *518:18 0.000266428
23 *209:38 *608:18 3.80506e-05
24 *209:38 *613:10 0.000158796
25 *111:46 *209:25 2.02872e-05
26 *111:54 *209:38 2.60049e-05
27 *111:69 *209:38 5.56216e-05
28 *114:62 *209:25 0.00013231
29 *149:18 *209:13 0.000222988
30 *164:14 *209:25 0.000300203
31 *164:14 *209:38 0.000256318
32 *170:12 *209:17 0.000465362
33 *172:14 *209:17 0.000400418
34 *182:19 *209:17 0.0173464
35 *204:27 *209:17 0.00106122
36 *205:31 *209:17 0.0162076
37 *207:15 *209:13 0.0281155
38 *207:23 *209:25 0
*RES
1 *12124:DO[30] *209:9 41.6564
2 *209:9 *209:11 15
3 *209:11 *209:13 386.446
4 *209:13 *209:15 15
5 *209:15 *209:17 208.821
6 *209:17 *209:25 48.415
7 *209:25 *671:DIODE 23
8 *209:25 *209:38 36.67
9 *209:38 *11916:A1 23
*END

*D_NET *210 0.127402
*CONN
*I *672:DIODE I *D sky130_fd_sc_hd__diode_2
*I *11919:A1 I *D sky130_fd_sc_hd__o221a_2
*I *673:DIODE I *D sky130_fd_sc_hd__diode_2
*I *12124:DO[31] O *D CF_SRAM_1024x32
*CAP
1 *672:DIODE 1.80182e-05
2 *11919:A1 0
3 *673:DIODE 0
4 *12124:DO[31] 0.00307501
5 *210:40 0.000388007
6 *210:27 0.000652384
7 *210:21 0.00162272
8 *210:17 0.00535068
9 *210:15 0.00401036
10 *210:13 0.00696285
11 *210:11 0.00696285
12 *210:9 0.00307501
13 *672:DIODE *610:22 2.93845e-05
14 *672:DIODE *612:10 5.50106e-05
15 *210:9 *12124:BEN[30] 0
16 *210:9 *12124:DI[31] 2.71067e-05
17 *210:13 *330:8 0.00205309
18 *210:13 *637:27 0.000246867
19 *210:17 *227:21 0.00356244
20 *210:17 *228:25 0.000291207
21 *210:27 *608:18 0
22 *210:27 *609:34 5.56203e-05
23 *210:40 *608:18 3.4937e-05
24 *210:40 *612:18 6.07397e-05
25 *111:16 *210:17 4.21158e-05
26 *111:54 *210:21 0.000240435
27 *111:69 *210:21 0
28 *149:18 *210:13 0.0133606
29 *164:14 *210:21 0
30 *168:22 *210:17 0.00328821
31 *177:22 *210:13 0.0123304
32 *182:84 *210:21 0.00038745
33 *199:25 *210:17 0.00170271
34 *201:15 *210:17 0.0096177
35 *207:19 *210:17 0.0187969
36 *209:13 *210:13 0.029092
37 *209:25 *210:21 0
38 *209:38 *210:21 9.23819e-06
*RES
1 *12124:DO[31] *210:9 41.1593
2 *210:9 *210:11 15
3 *210:11 *210:13 391.024
4 *210:13 *210:15 15
5 *210:15 *210:17 214.061
6 *210:17 *210:21 39.0907
7 *210:21 *210:27 18.48
8 *210:27 *673:DIODE 23
9 *210:27 *210:40 35.2614
10 *210:40 *11919:A1 23
11 *210:21 *672:DIODE 38.6214
*END

*D_NET *211 0.0319623
*CONN
*I *11835:A1 I *D sky130_fd_sc_hd__o221a_1
*I *675:DIODE I *D sky130_fd_sc_hd__diode_2
*I *12124:DO[3] O *D CF_SRAM_1024x32
*CAP
1 *11835:A1 0
2 *675:DIODE 0.000292414
3 *12124:DO[3] 0.00217689
4 *211:27 0.000884538
5 *211:25 0.00650488
6 *211:17 0.00808965
7 *675:DIODE *11835:A2 4.77164e-06
8 *675:DIODE *523:8 7.58917e-05
9 *675:DIODE *588:16 0.000128401
10 *211:17 *12124:BEN[2] 0
11 *211:17 *12124:BEN[3] 3.96923e-05
12 *211:17 *12124:DI[3] 3.06338e-05
13 *211:27 *11835:A2 5.08422e-06
14 *211:27 *215:27 0.000283245
15 *211:27 *523:8 0.000154839
16 *211:27 *544:8 6.51822e-05
17 *211:27 *628:120 0.000156487
18 *28:13 *675:DIODE 0
19 *120:28 *211:27 0.000262989
20 *128:24 *211:27 0.000169598
21 *193:18 *211:17 2.11066e-05
22 *197:23 *211:25 0.012594
23 *208:25 *211:25 2.20376e-05
*RES
1 *12124:DO[3] *211:17 39.2756
2 *211:17 *211:25 46.4771
3 *211:25 *211:27 15.8154
4 *211:27 *675:DIODE 42.785
5 *211:27 *11835:A1 38
*END

*D_NET *212 0.0279119
*CONN
*I *11838:A1 I *D sky130_fd_sc_hd__o221a_1
*I *676:DIODE I *D sky130_fd_sc_hd__diode_2
*I *12124:DO[4] O *D CF_SRAM_1024x32
*CAP
1 *11838:A1 2.38327e-05
2 *676:DIODE 0.000235057
3 *12124:DO[4] 0.00121032
4 *212:27 0.000497915
5 *212:25 0.00992831
6 *212:17 0.0108996
7 *676:DIODE *11838:A2 3.8696e-05
8 *676:DIODE *519:10 0.000230818
9 *676:DIODE *583:14 0.000132028
10 *676:DIODE *588:30 7.25499e-05
11 *676:DIODE *624:10 0
12 *11838:A1 *363:28 1.83408e-05
13 *11838:A1 *621:8 2.93431e-05
14 *212:17 *12124:BEN[3] 0
15 *212:17 *12124:DI[4] 0
16 *212:25 *215:27 0
17 *212:25 *217:27 0.00079288
18 *212:27 *11838:A2 2.51382e-05
19 *212:27 *583:14 0.00013415
20 *212:27 *620:10 0.000109343
21 *212:27 *633:47 0.000359247
22 *31:9 *676:DIODE 9.84794e-05
23 *122:36 *212:27 1.77147e-05
24 *135:18 *212:25 0.000292751
25 *136:26 *212:25 0.000146939
26 *144:28 *212:25 0.000147694
27 *187:22 *212:25 0.000462961
28 *191:21 *212:25 0.00198671
29 *193:18 *212:17 2.11157e-05
*RES
1 *12124:DO[4] *212:17 35.4146
2 *212:17 *212:25 47.0333
3 *212:25 *212:27 5.95536
4 *212:27 *676:DIODE 43.9036
5 *212:27 *11838:A1 38.6214
*END

*D_NET *213 0.0313381
*CONN
*I *11841:A1 I *D sky130_fd_sc_hd__o221a_1
*I *677:DIODE I *D sky130_fd_sc_hd__diode_2
*I *12124:DO[5] O *D CF_SRAM_1024x32
*CAP
1 *11841:A1 0.000250151
2 *677:DIODE 1.4206e-05
3 *12124:DO[5] 0.00500604
4 *213:25 0.0102942
5 *213:17 0.0150359
6 *677:DIODE *628:53 9.85586e-06
7 *11841:A1 *11841:B1 0.000110507
8 *11841:A1 *628:47 0.00010328
9 *11841:A1 *628:53 4.01388e-05
10 *213:17 *12124:BEN[4] 0
11 *213:17 *12124:DI[5] 0.000158177
12 *213:17 *560:82 0
13 *213:25 *214:27 5.09592e-05
14 *213:25 *633:77 2.59282e-05
15 *213:25 *633:79 1.27516e-05
16 *213:25 *633:81 4.6698e-05
17 *213:25 *633:85 8.65033e-05
18 *132:18 *677:DIODE 9.85586e-06
19 *132:18 *11841:A1 4.19174e-05
20 *133:26 *213:17 2.05503e-05
21 *194:22 *213:17 2.05503e-05
*RES
1 *12124:DO[5] *213:17 45.185
2 *213:17 *213:25 46.716
3 *213:25 *677:DIODE 38.3211
4 *213:25 *11841:A1 43.3754
*END

*D_NET *214 0.02714
*CONN
*I *11844:A1 I *D sky130_fd_sc_hd__o221a_2
*I *678:DIODE I *D sky130_fd_sc_hd__diode_2
*I *12124:DO[6] O *D CF_SRAM_1024x32
*CAP
1 *11844:A1 1.80182e-05
2 *678:DIODE 0.000299146
3 *12124:DO[6] 0.0034421
4 *214:27 0.00560945
5 *214:17 0.00873438
6 *678:DIODE *496:8 2.93747e-05
7 *678:DIODE *496:14 4.48835e-05
8 *678:DIODE *588:16 2.93845e-05
9 *678:DIODE *633:104 1.05441e-05
10 *11844:A1 *628:69 5.50106e-05
11 *11844:A1 *631:36 2.93845e-05
12 *214:17 *12124:BEN[5] 0
13 *214:17 *12124:DI[6] 0
14 *214:17 *351:18 2.11157e-05
15 *214:27 *216:31 0.00836508
16 *214:27 *633:104 0.000376294
17 *142:6 *214:17 3.7122e-06
18 *194:30 *214:17 2.11157e-05
19 *213:25 *214:27 5.09592e-05
*RES
1 *12124:DO[6] *214:17 43.1362
2 *214:17 *214:27 45.99
3 *214:27 *678:DIODE 42.3086
4 *214:27 *11844:A1 38.6214
*END

*D_NET *215 0.0318789
*CONN
*I *11847:A1 I *D sky130_fd_sc_hd__o221a_2
*I *679:DIODE I *D sky130_fd_sc_hd__diode_2
*I *12124:DO[7] O *D CF_SRAM_1024x32
*CAP
1 *11847:A1 0
2 *679:DIODE 0
3 *12124:DO[7] 0.00108028
4 *215:42 0.000241167
5 *215:29 0.000241167
6 *215:27 0.00465126
7 *215:17 0.00573154
8 *215:17 *12124:BEN[6] 0.000125247
9 *215:17 *12124:DI[7] 0
10 *215:27 *217:27 0.00752342
11 *215:42 *11992:A 0.000224649
12 *118:24 *215:42 0.00010858
13 *123:34 *215:17 2.81221e-05
14 *128:24 *215:27 0.000128399
15 *135:18 *215:27 4.09472e-05
16 *135:34 *215:17 0.00143962
17 *193:18 *215:17 0.000124126
18 *197:23 *215:27 0
19 *208:25 *215:27 0.00966772
20 *208:29 *215:42 0.000239435
21 *211:27 *215:27 0.000283245
22 *212:25 *215:27 0
*RES
1 *12124:DO[7] *215:17 38.62
2 *215:17 *215:27 46.7617
3 *215:27 *215:29 15
4 *215:29 *679:DIODE 23
5 *215:29 *215:42 35.8414
6 *215:42 *11847:A1 23
*END

*D_NET *216 0.0237438
*CONN
*I *11850:A1 I *D sky130_fd_sc_hd__o221a_2
*I *680:DIODE I *D sky130_fd_sc_hd__diode_2
*I *12124:DO[8] O *D CF_SRAM_1024x32
*CAP
1 *11850:A1 0.00012544
2 *680:DIODE 0.000610551
3 *12124:DO[8] 0.00319456
4 *216:31 0.0043558
5 *216:21 0.00681437
6 *11850:A1 *633:126 0.000175903
7 *216:21 *12124:BEN[8] 0
8 *216:21 *12124:DI[8] 5.70419e-05
9 *216:21 *351:18 8.21456e-06
10 *216:21 *560:30 0
11 *120:28 *680:DIODE 0
12 *197:23 *216:31 3.687e-05
13 *214:27 *216:31 0.00836508
*RES
1 *12124:DO[8] *216:21 41.4544
2 *216:21 *216:31 35.9416
3 *216:31 *680:DIODE 44.6907
4 *216:31 *11850:A1 40.0507
*END

*D_NET *217 0.0253231
*CONN
*I *11853:A1 I *D sky130_fd_sc_hd__o221a_2
*I *681:DIODE I *D sky130_fd_sc_hd__diode_2
*I *12124:DO[9] O *D CF_SRAM_1024x32
*CAP
1 *11853:A1 0
2 *681:DIODE 0.000291551
3 *12124:DO[9] 0.00117121
4 *217:27 0.00393609
5 *217:17 0.00481575
6 *681:DIODE *436:12 2.15628e-05
7 *681:DIODE *571:12 4.49946e-05
8 *681:DIODE *617:24 6.92122e-05
9 *217:17 *12124:BEN[9] 0
10 *217:17 *12124:DI[9] 4.06849e-05
11 *217:17 *351:18 8.21456e-06
12 *217:27 *436:12 0.000105177
13 *217:27 *557:12 0.000101418
14 *217:27 *633:77 0
15 *31:9 *681:DIODE 0.000119486
16 *109:12 *681:DIODE 6.32694e-05
17 *109:12 *217:27 0.000373397
18 *187:22 *217:27 0.00584473
19 *212:25 *217:27 0.00079288
20 *215:27 *217:27 0.00752342
*RES
1 *12124:DO[9] *217:17 36.2318
2 *217:17 *217:27 42.3052
3 *217:27 *681:DIODE 42.785
4 *217:27 *11853:A1 38
*END

*D_NET *218 0.0733313
*CONN
*I *686:DIODE I *D sky130_fd_sc_hd__diode_2
*I *683:DIODE I *D sky130_fd_sc_hd__diode_2
*I *11824:A1 I *D sky130_fd_sc_hd__mux2_2
*I *682:DIODE I *D sky130_fd_sc_hd__diode_2
*I *684:DIODE I *D sky130_fd_sc_hd__diode_2
*I *687:DIODE I *D sky130_fd_sc_hd__diode_2
*I *688:DIODE I *D sky130_fd_sc_hd__diode_2
*I *12134:DO[0] O *D CF_SRAM_1024x32
*CAP
1 *686:DIODE 0
2 *683:DIODE 0
3 *11824:A1 9.69395e-05
4 *682:DIODE 0
5 *684:DIODE 0
6 *687:DIODE 0
7 *688:DIODE 7.95557e-05
8 *12134:DO[0] 0.00262813
9 *218:49 0.000141692
10 *218:47 9.6129e-05
11 *218:45 0.000236452
12 *218:43 0.000514559
13 *218:39 0.000288534
14 *218:37 0.000588479
15 *218:21 0.0114574
16 *218:19 0.0109423
17 *218:17 0.00262813
18 *688:DIODE *11926:A 5.3304e-05
19 *218:17 *12134:ScanInCC 0
20 *218:17 *12134:DI[0] 3.02187e-05
21 *218:17 *225:42 2.50931e-05
22 *218:17 *228:13 2.50931e-05
23 *218:17 *230:17 0.00493008
24 *218:17 *438:44 0.000188149
25 *218:17 *502:38 9.10417e-05
26 *218:21 *229:23 0.00705704
27 *218:21 *245:15 0.0236449
28 *218:21 *246:15 0.00520804
29 *218:21 *395:34 0
30 *218:37 *226:22 0.000683204
31 *218:37 *396:16 0.000685843
32 *218:37 *578:10 0.00011794
33 *218:37 *625:209 0.000119084
34 *218:37 *625:228 9.72057e-06
35 *218:45 *389:16 9.5877e-05
36 *11824:A0 *11824:A1 4.65721e-05
37 *11824:A0 *218:37 9.58083e-05
38 *11824:A0 *218:39 4.67488e-05
39 *11824:A0 *218:43 9.72792e-05
40 *113:8 *688:DIODE 0.000135037
41 *113:8 *218:45 0.000124306
42 *113:8 *218:47 4.08664e-05
43 *113:8 *218:49 8.17328e-05
*RES
1 *12134:DO[0] *218:17 45.1919
2 *218:17 *218:19 8
3 *218:19 *218:21 58.3165
4 *218:21 *218:37 38.8982
5 *218:37 *218:39 1.09786
6 *218:39 *218:43 3.02429
7 *218:43 *218:45 3.48
8 *218:45 *218:47 0.621429
9 *218:47 *218:49 1.09786
10 *218:49 *688:DIODE 24.5743
11 *218:49 *687:DIODE 23
12 *218:47 *684:DIODE 23
13 *218:45 *682:DIODE 23
14 *218:43 *11824:A1 24.4707
15 *218:39 *683:DIODE 23
16 *218:37 *686:DIODE 23
*END

*D_NET *219 0.0747044
*CONN
*I *699:DIODE I *D sky130_fd_sc_hd__diode_2
*I *697:DIODE I *D sky130_fd_sc_hd__diode_2
*I *694:DIODE I *D sky130_fd_sc_hd__diode_2
*I *692:DIODE I *D sky130_fd_sc_hd__diode_2
*I *690:DIODE I *D sky130_fd_sc_hd__diode_2
*I *11855:A1 I *D sky130_fd_sc_hd__mux2_1
*I *689:DIODE I *D sky130_fd_sc_hd__diode_2
*I *691:DIODE I *D sky130_fd_sc_hd__diode_2
*I *693:DIODE I *D sky130_fd_sc_hd__diode_2
*I *695:DIODE I *D sky130_fd_sc_hd__diode_2
*I *698:DIODE I *D sky130_fd_sc_hd__diode_2
*I *700:DIODE I *D sky130_fd_sc_hd__diode_2
*I *12134:DO[10] O *D CF_SRAM_1024x32
*CAP
1 *699:DIODE 0
2 *697:DIODE 0
3 *694:DIODE 0
4 *692:DIODE 0
5 *690:DIODE 0
6 *11855:A1 2.07933e-05
7 *689:DIODE 0
8 *691:DIODE 0
9 *693:DIODE 0
10 *695:DIODE 0
11 *698:DIODE 0
12 *700:DIODE 5.5555e-05
13 *12134:DO[10] 0.000872491
14 *219:49 0.000108395
15 *219:47 0.00010568
16 *219:45 0.000104811
17 *219:43 8.92725e-05
18 *219:41 0.000223791
19 *219:39 0.000397919
20 *219:37 0.000279043
21 *219:35 0.000176813
22 *219:33 0.000176813
23 *219:31 0.000131382
24 *219:29 4.29755e-05
25 *219:27 0.00357242
26 *219:15 0.0127036
27 *219:11 0.0100036
28 *11855:A1 *11855:S 1.12349e-05
29 *219:11 *12134:BEN[9] 0
30 *219:11 *12134:BEN[8] 0.000367044
31 *219:11 *12134:DI[9] 4.80427e-05
32 *219:11 *12134:DI[10] 0
33 *219:11 *12134:DI[8] 2.11157e-05
34 *219:11 *228:13 0.000286108
35 *219:11 *248:13 4.80465e-05
36 *219:11 *249:16 4.80465e-05
37 *219:11 *382:86 0
38 *219:11 *382:88 0.00207847
39 *219:11 *557:112 0.000113747
40 *219:11 *560:411 2.79482e-05
41 *219:15 *248:27 0.00138524
42 *219:15 *393:32 0
43 *219:15 *560:405 0.0218899
44 *219:27 *245:27 0.00801161
45 *219:27 *362:10 2.31209e-05
46 *219:27 *393:32 0.0103428
47 *219:39 *11855:S 2.64616e-05
48 *219:41 *11855:S 6.47425e-05
49 *116:14 *219:27 4.07923e-06
50 *122:14 *219:41 3.22051e-05
51 *122:14 *219:43 4.96303e-05
52 *122:14 *219:45 6.17437e-06
53 *133:40 *700:DIODE 1.85916e-05
54 *133:40 *219:45 1.61361e-05
55 *133:40 *219:47 1.85916e-05
56 *133:40 *219:49 1.85916e-05
57 *134:6 *700:DIODE 9.41704e-05
58 *134:6 *219:41 4.44329e-05
59 *134:6 *219:43 8.40645e-05
60 *134:6 *219:45 8.17328e-05
61 *134:6 *219:47 8.17328e-05
62 *134:6 *219:49 8.17328e-05
63 *153:16 *219:27 0.000213429
*RES
1 *12134:DO[10] *219:11 46.3614
2 *219:11 *219:15 49.2291
3 *219:15 *219:27 44.9421
4 *219:27 *219:29 15
5 *219:29 *219:31 0.621429
6 *219:31 *219:33 1.09786
7 *219:33 *219:35 1.09786
8 *219:35 *219:37 1.09786
9 *219:37 *219:39 2.52714
10 *219:39 *219:41 3.00357
11 *219:41 *219:43 1.09786
12 *219:43 *219:45 1.09786
13 *219:45 *219:47 1.09786
14 *219:47 *219:49 1.09786
15 *219:49 *700:DIODE 24.0979
16 *219:49 *698:DIODE 23
17 *219:47 *695:DIODE 23
18 *219:45 *693:DIODE 23
19 *219:43 *691:DIODE 23
20 *219:41 *689:DIODE 23
21 *219:39 *11855:A1 23.4971
22 *219:37 *690:DIODE 23
23 *219:35 *692:DIODE 23
24 *219:33 *694:DIODE 23
25 *219:31 *697:DIODE 23
26 *219:29 *699:DIODE 23
*END

*D_NET *220 0.0597449
*CONN
*I *712:DIODE I *D sky130_fd_sc_hd__diode_2
*I *709:DIODE I *D sky130_fd_sc_hd__diode_2
*I *708:DIODE I *D sky130_fd_sc_hd__diode_2
*I *711:DIODE I *D sky130_fd_sc_hd__diode_2
*I *706:DIODE I *D sky130_fd_sc_hd__diode_2
*I *705:DIODE I *D sky130_fd_sc_hd__diode_2
*I *702:DIODE I *D sky130_fd_sc_hd__diode_2
*I *11858:A1 I *D sky130_fd_sc_hd__mux2_1
*I *701:DIODE I *D sky130_fd_sc_hd__diode_2
*I *703:DIODE I *D sky130_fd_sc_hd__diode_2
*I *704:DIODE I *D sky130_fd_sc_hd__diode_2
*I *710:DIODE I *D sky130_fd_sc_hd__diode_2
*I *12134:DO[11] O *D CF_SRAM_1024x32
*CAP
1 *712:DIODE 0
2 *709:DIODE 0
3 *708:DIODE 0
4 *711:DIODE 0
5 *706:DIODE 0
6 *705:DIODE 9.13215e-05
7 *702:DIODE 0
8 *11858:A1 0.000295767
9 *701:DIODE 0
10 *703:DIODE 0.000101771
11 *704:DIODE 5.5555e-05
12 *710:DIODE 0.000107719
13 *12134:DO[11] 0.000156015
14 *220:159 0.000223523
15 *220:135 0.000413354
16 *220:133 0.000152313
17 *220:131 0.000155706
18 *220:129 0.000297322
19 *220:127 0.000729573
20 *220:90 0.000341207
21 *220:81 0.000147211
22 *220:79 0.000606473
23 *220:68 0.00021296
24 *220:57 0.00187143
25 *220:51 0.00230317
26 *220:45 0.000961682
27 *220:29 0.000612799
28 *220:21 0.000796152
29 *220:13 0.0205852
30 *220:11 0.0202207
31 *710:DIODE *12124:DI[7] 6.74969e-06
32 *220:11 *12134:DI[11] 4.07552e-05
33 *220:11 *228:13 0.000266294
34 *220:11 *557:100 0.000128052
35 *220:13 *371:54 0
36 *220:13 *382:20 0
37 *220:13 *382:74 0
38 *220:21 *221:28 6.17437e-06
39 *220:21 *246:39 5.61255e-06
40 *220:21 *430:16 0.000104065
41 *220:21 *554:57 0.000314805
42 *220:21 *574:16 0.000611331
43 *220:21 *625:18 0.000135007
44 *220:21 *625:26 0.000638725
45 *220:21 *625:109 0.00026308
46 *220:29 *843:DIODE 5.3304e-05
47 *220:29 *11831:S 9.41704e-05
48 *220:29 *240:46 9.65021e-05
49 *220:29 *407:16 0.000636939
50 *220:45 *841:DIODE 9.41704e-05
51 *220:45 *11834:S 1.24376e-05
52 *220:45 *240:31 0.000210634
53 *220:45 *240:62 4.08664e-05
54 *220:45 *240:64 8.17328e-05
55 *220:45 *418:16 0.000207473
56 *220:45 *625:170 0.000230139
57 *220:127 *319:34 2.05503e-05
58 *220:127 *382:46 0.000219093
59 *220:127 *577:16 0.000221745
60 *220:159 *12124:DI[6] 3.82058e-06
61 *11849:A0 *703:DIODE 6.17437e-06
62 *11849:A0 *11858:A1 0.000116096
63 *11849:A0 *220:90 2.64616e-05
64 *122:22 *220:57 1.94613e-05
65 *123:34 *220:127 8.43956e-05
66 *125:20 *705:DIODE 2.64616e-05
67 *125:20 *220:159 6.17437e-06
68 *125:24 *220:57 8.62783e-05
69 *125:24 *220:68 0.000234364
70 *125:24 *220:79 0.000181934
71 *129:10 *220:159 0.000111852
72 *133:40 *704:DIODE 1.85916e-05
73 *134:6 *704:DIODE 9.41704e-05
74 *135:34 *11858:A1 3.27248e-05
75 *135:34 *220:127 0.000330729
76 *136:12 *703:DIODE 1.61361e-05
77 *147:10 *220:29 0.000641402
78 *147:10 *220:51 0.00085596
79 *180:36 *220:21 1.88972e-05
80 *183:12 *220:21 2.24151e-05
81 *184:8 *220:159 0.000114074
82 *203:11 *220:57 8.4047e-05
83 *203:11 *220:68 0.000244507
84 *203:11 *220:79 0.000188512
*RES
1 *12134:DO[11] *220:11 27.93
2 *220:11 *220:13 59.5616
3 *220:13 *220:21 38.8775
4 *220:21 *220:29 40.1707
5 *220:29 *220:45 38.4307
6 *220:45 *220:51 41.4136
7 *220:51 *220:57 33.0214
8 *220:57 *710:DIODE 39.0979
9 *220:57 *220:68 3.31429
10 *220:68 *704:DIODE 39.0979
11 *220:68 *220:79 2.61
12 *220:79 *220:81 15
13 *220:81 *703:DIODE 24.0979
14 *220:81 *220:90 0.621429
15 *220:90 *701:DIODE 23
16 *220:90 *11858:A1 26.48
17 *220:81 *702:DIODE 23
18 *220:79 *220:127 48.7696
19 *220:127 *220:129 2.05071
20 *220:129 *220:131 1.09786
21 *220:131 *220:133 0.621429
22 *220:133 *220:135 1.09786
23 *220:135 *705:DIODE 24.0979
24 *220:135 *706:DIODE 23
25 *220:135 *220:159 34.35
26 *220:159 *711:DIODE 23
27 *220:133 *708:DIODE 23
28 *220:131 *709:DIODE 23
29 *220:129 *712:DIODE 23
*END

*D_NET *221 0.0689315
*CONN
*I *720:DIODE I *D sky130_fd_sc_hd__diode_2
*I *717:DIODE I *D sky130_fd_sc_hd__diode_2
*I *11861:A1 I *D sky130_fd_sc_hd__mux2_2
*I *713:DIODE I *D sky130_fd_sc_hd__diode_2
*I *714:DIODE I *D sky130_fd_sc_hd__diode_2
*I *716:DIODE I *D sky130_fd_sc_hd__diode_2
*I *719:DIODE I *D sky130_fd_sc_hd__diode_2
*I *715:DIODE I *D sky130_fd_sc_hd__diode_2
*I *12134:DO[12] O *D CF_SRAM_1024x32
*CAP
1 *720:DIODE 0
2 *717:DIODE 0
3 *11861:A1 0
4 *713:DIODE 0
5 *714:DIODE 0
6 *716:DIODE 0
7 *719:DIODE 7.23497e-05
8 *715:DIODE 0
9 *12134:DO[12] 0.000143083
10 *221:98 0.000259162
11 *221:73 0.000141984
12 *221:71 0.000202064
13 *221:69 0.000494331
14 *221:67 0.000322315
15 *221:58 0.000320477
16 *221:56 0.000183297
17 *221:54 0.00121517
18 *221:46 0.0026209
19 *221:40 0.00269426
20 *221:28 0.00130752
21 *221:22 0.000554605
22 *221:18 0.0154416
23 *221:16 0.0151314
24 *221:4 0
25 *221:16 *12134:DI[12] 4.09133e-05
26 *221:16 *228:13 2.19246e-05
27 *221:16 *557:84 4.80465e-05
28 *221:18 *369:52 0.0166042
29 *221:22 *441:20 0.000131084
30 *221:22 *564:51 0.00134711
31 *221:22 *578:10 0.000431902
32 *221:28 *246:39 6.70361e-05
33 *221:40 *788:DIODE 0.000145564
34 *221:40 *839:DIODE 0.000295755
35 *221:40 *229:25 4.45778e-05
36 *221:40 *229:27 0.000110379
37 *221:40 *240:27 0.000117408
38 *221:40 *240:29 0.000217102
39 *221:40 *240:31 0.000338259
40 *221:40 *245:27 8.09411e-05
41 *221:40 *248:27 2.98653e-05
42 *221:40 *248:59 0.000226952
43 *221:40 *418:16 0.00014434
44 *221:40 *554:57 0.00202058
45 *221:40 *625:109 3.70094e-05
46 *221:40 *625:170 0.000115947
47 *221:46 *365:20 0.000102288
48 *221:54 *746:DIODE 6.74969e-06
49 *221:54 *225:76 6.50721e-06
50 *221:54 *554:57 0.000296947
51 *221:67 *11861:S 2.18409e-05
52 *221:69 *11861:S 2.93845e-05
53 *221:98 *319:34 0.000192077
54 *11861:A0 *719:DIODE 9.41704e-05
55 *11861:A0 *221:69 4.08664e-05
56 *11861:A0 *221:71 0.000163466
57 *11861:A0 *221:73 8.17328e-05
58 *115:10 *221:54 0.000296947
59 *147:10 *221:46 0.00157688
60 *180:25 *221:22 0.000788188
61 *180:36 *221:22 0.00139807
62 *183:12 *221:40 0.000107828
63 *220:21 *221:28 6.17437e-06
*RES
1 *12134:DO[12] *221:4 0.184545
2 *12134:DO[12] *221:16 25.7239
3 *221:16 *221:18 59.3899
4 *221:18 *221:22 36.1404
5 *221:22 *221:28 31.5743
6 *221:28 *221:40 47.943
7 *221:40 *221:46 39.5775
8 *221:46 *221:54 44.645
9 *221:54 *221:56 1.09786
10 *221:56 *221:58 1.09786
11 *221:58 *715:DIODE 23
12 *221:58 *221:67 3.60429
13 *221:67 *221:69 1.57429
14 *221:69 *221:71 2.05071
15 *221:71 *221:73 1.09786
16 *221:73 *719:DIODE 24.0979
17 *221:73 *716:DIODE 23
18 *221:71 *714:DIODE 23
19 *221:69 *221:98 33.7079
20 *221:98 *713:DIODE 23
21 *221:67 *11861:A1 23
22 *221:56 *717:DIODE 23
23 *221:54 *720:DIODE 23
*END

*D_NET *222 0.0655773
*CONN
*I *733:DIODE I *D sky130_fd_sc_hd__diode_2
*I *732:DIODE I *D sky130_fd_sc_hd__diode_2
*I *730:DIODE I *D sky130_fd_sc_hd__diode_2
*I *727:DIODE I *D sky130_fd_sc_hd__diode_2
*I *725:DIODE I *D sky130_fd_sc_hd__diode_2
*I *11864:A1 I *D sky130_fd_sc_hd__mux2_1
*I *721:DIODE I *D sky130_fd_sc_hd__diode_2
*I *722:DIODE I *D sky130_fd_sc_hd__diode_2
*I *724:DIODE I *D sky130_fd_sc_hd__diode_2
*I *726:DIODE I *D sky130_fd_sc_hd__diode_2
*I *728:DIODE I *D sky130_fd_sc_hd__diode_2
*I *731:DIODE I *D sky130_fd_sc_hd__diode_2
*I *723:DIODE I *D sky130_fd_sc_hd__diode_2
*I *12134:DO[13] O *D CF_SRAM_1024x32
*CAP
1 *733:DIODE 0.000100477
2 *732:DIODE 0
3 *730:DIODE 0
4 *727:DIODE 0
5 *725:DIODE 0
6 *11864:A1 2.0995e-05
7 *721:DIODE 0
8 *722:DIODE 0
9 *724:DIODE 0
10 *726:DIODE 0
11 *728:DIODE 0
12 *731:DIODE 5.5555e-05
13 *723:DIODE 0
14 *12134:DO[13] 0.000128533
15 *222:89 0.000136745
16 *222:54 0.000108395
17 *222:52 0.00010568
18 *222:50 0.00010568
19 *222:48 0.00016104
20 *222:46 0.000292995
21 *222:44 0.000239626
22 *222:35 0.00025756
23 *222:33 0.000170646
24 *222:31 0.000185568
25 *222:29 0.000153026
26 *222:27 0.0001516
27 *222:25 0.00424958
28 *222:13 0.0230496
29 *222:11 0.0189286
30 *11864:A1 *11864:S 1.14154e-05
31 *222:11 *12134:DI[13] 1.90461e-05
32 *222:11 *228:17 0.000379668
33 *222:11 *231:13 0.000379668
34 *222:13 *365:44 0
35 *222:13 *369:52 0
36 *222:25 *240:27 0.00426968
37 *222:25 *243:15 0.000544314
38 *222:25 *371:26 2.21614e-05
39 *222:25 *393:16 2.05503e-05
40 *222:25 *409:72 0.00198135
41 *222:25 *581:16 0.00822492
42 *222:44 *11864:S 2.93845e-05
43 *222:44 *395:16 4.08664e-05
44 *222:44 *402:18 3.17516e-05
45 *222:46 *11864:S 2.64616e-05
46 *222:46 *395:16 8.17328e-05
47 *222:46 *402:18 1.21972e-05
48 *222:48 *395:16 9.41704e-05
49 *222:48 *402:18 3.7122e-06
50 *222:89 *11864:S 0.000108681
51 *222:89 *12124:DI[3] 9.82009e-05
52 *222:89 *319:34 0.000108681
53 *11864:A0 *731:DIODE 1.85916e-05
54 *11864:A0 *222:48 3.22722e-05
55 *11864:A0 *222:50 1.85916e-05
56 *11864:A0 *222:52 1.85916e-05
57 *11864:A0 *222:54 1.85916e-05
58 *140:8 *731:DIODE 9.41704e-05
59 *140:8 *222:48 4.08664e-05
60 *140:8 *222:50 8.17328e-05
61 *140:8 *222:52 8.17328e-05
62 *140:8 *222:54 8.17328e-05
*RES
1 *12134:DO[13] *222:11 28.9036
2 *222:11 *222:13 56.9427
3 *222:13 *222:25 47.7197
4 *222:25 *222:27 15
5 *222:27 *222:29 0.621429
6 *222:29 *222:31 1.09786
7 *222:31 *222:33 1.09786
8 *222:33 *222:35 1.09786
9 *222:35 *723:DIODE 23
10 *222:35 *222:44 3.02429
11 *222:44 *222:46 1.09786
12 *222:46 *222:48 2.05071
13 *222:48 *222:50 1.09786
14 *222:50 *222:52 1.09786
15 *222:52 *222:54 1.09786
16 *222:54 *731:DIODE 24.0979
17 *222:54 *728:DIODE 23
18 *222:52 *726:DIODE 23
19 *222:50 *724:DIODE 23
20 *222:48 *722:DIODE 23
21 *222:46 *222:89 32.6514
22 *222:89 *721:DIODE 23
23 *222:44 *11864:A1 23.4971
24 *222:33 *725:DIODE 23
25 *222:31 *727:DIODE 23
26 *222:29 *730:DIODE 23
27 *222:27 *732:DIODE 23
28 *222:27 *733:DIODE 24.0979
*END

*D_NET *223 0.0703568
*CONN
*I *738:DIODE I *D sky130_fd_sc_hd__diode_2
*I *741:DIODE I *D sky130_fd_sc_hd__diode_2
*I *739:DIODE I *D sky130_fd_sc_hd__diode_2
*I *11867:A1 I *D sky130_fd_sc_hd__mux2_2
*I *735:DIODE I *D sky130_fd_sc_hd__diode_2
*I *737:DIODE I *D sky130_fd_sc_hd__diode_2
*I *736:DIODE I *D sky130_fd_sc_hd__diode_2
*I *734:DIODE I *D sky130_fd_sc_hd__diode_2
*I *12134:DO[14] O *D CF_SRAM_1024x32
*CAP
1 *738:DIODE 0
2 *741:DIODE 9.37077e-05
3 *739:DIODE 0
4 *11867:A1 3.62681e-05
5 *735:DIODE 0
6 *737:DIODE 3.73312e-05
7 *736:DIODE 0
8 *734:DIODE 0.00051619
9 *12134:DO[14] 7.87127e-05
10 *223:92 0.000147511
11 *223:71 0.000249452
12 *223:69 0.000414255
13 *223:60 0.000273146
14 *223:58 0.000237935
15 *223:45 0.00172468
16 *223:39 0.00148663
17 *223:33 0.0013821
18 *223:25 0.00151428
19 *223:17 0.00130274
20 *223:13 0.0157909
21 *223:11 0.0150541
22 *734:DIODE *12124:DI[6] 3.41069e-05
23 *223:11 *12134:DI[14] 2.33963e-05
24 *223:11 *228:17 4.82774e-05
25 *223:11 *231:13 4.82774e-05
26 *223:13 *362:54 0.0166325
27 *223:17 *430:16 0.000397229
28 *223:17 *574:16 0.00271743
29 *223:17 *625:26 0.000854387
30 *223:33 *360:12 0.000391505
31 *223:33 *362:26 0.000221933
32 *223:33 *369:28 0.000698027
33 *223:45 *319:34 0.00208332
34 *223:45 *382:46 0.000265727
35 *223:45 *586:20 0.000152641
36 *223:58 *12124:DI[6] 7.17297e-05
37 *223:58 *395:18 1.23172e-05
38 *223:58 *586:20 7.02841e-05
39 *223:69 *11867:S 0.000138607
40 *11843:A0 *223:39 6.97772e-05
41 *11867:A0 *737:DIODE 9.67842e-05
42 *11867:A0 *223:71 0.00021677
43 *120:16 *223:45 0.000836061
44 *120:18 *223:33 3.82343e-05
45 *122:14 *223:45 0.000545447
46 *122:14 *223:58 0.000209729
47 *124:12 *223:45 0.000466533
48 *124:14 *223:45 0.000471931
49 *142:6 *737:DIODE 3.3577e-05
50 *142:6 *223:71 2.43944e-05
51 *147:10 *223:25 0.00030643
52 *148:10 *223:17 0.00181812
53 *180:25 *223:17 2.13834e-05
*RES
1 *12134:DO[14] *223:11 24.6986
2 *223:11 *223:13 59.4757
3 *223:13 *223:17 44.2396
4 *223:17 *223:25 37.4986
5 *223:25 *223:33 47.4207
6 *223:33 *223:39 33.9564
7 *223:39 *223:45 38.0107
8 *223:45 *734:DIODE 43.3857
9 *223:45 *223:58 17.9621
10 *223:58 *223:60 1.09786
11 *223:60 *736:DIODE 23
12 *223:60 *223:69 3.25214
13 *223:69 *223:71 3.48
14 *223:71 *737:DIODE 24.0979
15 *223:71 *735:DIODE 23
16 *223:69 *11867:A1 23.4971
17 *223:58 *223:92 0.621429
18 *223:92 *739:DIODE 23
19 *223:92 *741:DIODE 24.0979
20 *223:58 *738:DIODE 23
*END

*D_NET *224 0.0751327
*CONN
*I *11870:A1 I *D sky130_fd_sc_hd__mux2_2
*I *742:DIODE I *D sky130_fd_sc_hd__diode_2
*I *743:DIODE I *D sky130_fd_sc_hd__diode_2
*I *12134:DO[15] O *D CF_SRAM_1024x32
*CAP
1 *11870:A1 0.000180618
2 *742:DIODE 0.000137747
3 *743:DIODE 5.145e-05
4 *12134:DO[15] 8.54207e-05
5 *224:38 0.000455098
6 *224:25 0.00597438
7 *224:23 0.00683683
8 *224:19 0.00166085
9 *224:13 0.0162391
10 *224:11 0.0157143
11 *11870:A1 *400:28 5.85822e-06
12 *224:11 *12134:DI[15] 2.14654e-05
13 *224:11 *228:17 4.97265e-05
14 *224:11 *231:13 4.97265e-05
15 *224:13 *12134:DI[15] 0.00183299
16 *224:13 *360:38 0.0141458
17 *224:19 *362:52 2.05503e-05
18 *224:19 *627:31 2.87359e-05
19 *224:19 *632:48 0.00124822
20 *224:19 *632:67 4.92689e-05
21 *224:19 *634:10 0.000173613
22 *224:19 *634:16 0.000563566
23 *224:23 *12124:DI[13] 0.000189081
24 *224:23 *634:8 5.3304e-05
25 *224:25 *577:16 0.000415852
26 *11870:A0 *742:DIODE 6.70361e-05
27 *11870:A0 *11870:A1 4.67488e-05
28 *181:18 *224:25 0.0008557
29 *196:19 *224:25 0.00750624
30 *196:19 *224:38 0.000152237
31 *203:11 *224:25 1.81455e-05
32 *203:15 *224:25 0.000303126
*RES
1 *12134:DO[15] *224:11 24.7193
2 *224:11 *224:13 60.7637
3 *224:13 *224:19 41.6325
4 *224:19 *224:23 26.5793
5 *224:23 *224:25 105.084
6 *224:25 *743:DIODE 38.6214
7 *224:25 *224:38 17.2579
8 *224:38 *742:DIODE 24.5743
9 *224:38 *11870:A1 25.0507
*END

*D_NET *225 0.0582893
*CONN
*I *11873:A1 I *D sky130_fd_sc_hd__mux2_1
*I *744:DIODE I *D sky130_fd_sc_hd__diode_2
*I *745:DIODE I *D sky130_fd_sc_hd__diode_2
*I *747:DIODE I *D sky130_fd_sc_hd__diode_2
*I *749:DIODE I *D sky130_fd_sc_hd__diode_2
*I *754:DIODE I *D sky130_fd_sc_hd__diode_2
*I *756:DIODE I *D sky130_fd_sc_hd__diode_2
*I *755:DIODE I *D sky130_fd_sc_hd__diode_2
*I *750:DIODE I *D sky130_fd_sc_hd__diode_2
*I *746:DIODE I *D sky130_fd_sc_hd__diode_2
*I *748:DIODE I *D sky130_fd_sc_hd__diode_2
*I *753:DIODE I *D sky130_fd_sc_hd__diode_2
*I *12134:DO[16] O *D CF_SRAM_1024x32
*CAP
1 *11873:A1 0
2 *744:DIODE 0
3 *745:DIODE 0
4 *747:DIODE 0
5 *749:DIODE 0
6 *754:DIODE 0
7 *756:DIODE 4.92883e-05
8 *755:DIODE 0
9 *750:DIODE 0
10 *746:DIODE 0.000107719
11 *748:DIODE 0.000110836
12 *753:DIODE 0
13 *12134:DO[16] 0.000742035
14 *225:107 0.000185234
15 *225:105 0.000209319
16 *225:103 0.000146747
17 *225:101 0.000146747
18 *225:99 0.000281535
19 *225:97 0.000305068
20 *225:76 0.000204833
21 *225:74 0.000146681
22 *225:70 0.000287764
23 *225:54 0.000892845
24 *225:44 0.0205106
25 *225:42 0.0206399
26 *225:30 0.00104077
27 *225:18 0.00100501
28 *225:4 7.82742e-06
29 *756:DIODE *626:64 5.68958e-05
30 *225:18 *12134:AD[0] 4.80465e-05
31 *225:18 *12134:AD[2] 0.000102785
32 *225:18 *12134:ScanInDR 0.000221084
33 *225:18 *12134:AD[6] 9.12438e-05
34 *225:18 *12134:AD[7] 2.41963e-05
35 *225:18 *12134:DI[16] 2.35771e-05
36 *225:18 *226:16 0.000556027
37 *225:18 *228:9 0.000573997
38 *225:18 *228:13 8.45333e-05
39 *225:18 *382:88 0.00195987
40 *225:30 *12134:AD[6] 0.00011794
41 *225:30 *12134:AD[9] 0.00011693
42 *225:30 *12134:ScanInCC 0
43 *225:42 *12134:AD[3] 1.68067e-05
44 *225:42 *12134:AD[6] 7.23207e-05
45 *225:42 *12134:BEN[0] 0.000873853
46 *225:42 *12134:DI[0] 1.8464e-05
47 *225:42 *12134:DI[1] 1.97898e-05
48 *225:42 *12134:DI[2] 2.11157e-05
49 *225:42 *228:13 0.00129467
50 *225:42 *229:11 2.6419e-05
51 *225:42 *240:13 2.11157e-05
52 *225:42 *382:88 0.000455289
53 *225:42 *560:485 0.00061325
54 *225:44 *243:15 0
55 *225:44 *415:24 0
56 *225:54 *226:22 0.00123259
57 *225:54 *396:16 0.00123523
58 *225:70 *418:16 0.000299077
59 *225:74 *418:16 0.000111852
60 *225:99 *626:64 0.000101436
61 *225:101 *626:64 4.67488e-05
62 *225:103 *626:64 4.67488e-05
63 *225:105 *626:64 4.67488e-05
64 *225:107 *626:64 9.01952e-05
65 *115:10 *225:70 0.000309221
66 *115:10 *225:74 0.000111852
67 *145:18 *225:97 0.000135037
68 *145:18 *225:99 5.3304e-05
69 *218:17 *225:42 2.50931e-05
70 *221:54 *746:DIODE 6.74969e-06
71 *221:54 *225:76 6.50721e-06
*RES
1 *12134:DO[16] *225:4 0.165714
2 *12134:DO[16] *225:18 45.5536
3 *225:18 *225:30 35.4064
4 *225:30 *225:42 42.9554
5 *225:42 *225:44 59.0464
6 *225:44 *225:54 44.0975
7 *225:54 *753:DIODE 23
8 *225:54 *748:DIODE 24.0979
9 *225:54 *225:70 19.3707
10 *225:70 *225:74 16.5536
11 *225:74 *225:76 1.09786
12 *225:76 *746:DIODE 24.0979
13 *225:76 *750:DIODE 23
14 *225:74 *755:DIODE 23
15 *225:70 *225:97 16.5743
16 *225:97 *225:99 3.00357
17 *225:99 *225:101 1.09786
18 *225:101 *225:103 1.09786
19 *225:103 *225:105 1.09786
20 *225:105 *225:107 2.05071
21 *225:107 *756:DIODE 24.0979
22 *225:107 *754:DIODE 23
23 *225:105 *749:DIODE 23
24 *225:103 *747:DIODE 23
25 *225:101 *745:DIODE 23
26 *225:99 *744:DIODE 23
27 *225:97 *11873:A1 23
*END

*D_NET *226 0.0755323
*CONN
*I *766:DIODE I *D sky130_fd_sc_hd__diode_2
*I *762:DIODE I *D sky130_fd_sc_hd__diode_2
*I *768:DIODE I *D sky130_fd_sc_hd__diode_2
*I *765:DIODE I *D sky130_fd_sc_hd__diode_2
*I *760:DIODE I *D sky130_fd_sc_hd__diode_2
*I *757:DIODE I *D sky130_fd_sc_hd__diode_2
*I *758:DIODE I *D sky130_fd_sc_hd__diode_2
*I *759:DIODE I *D sky130_fd_sc_hd__diode_2
*I *761:DIODE I *D sky130_fd_sc_hd__diode_2
*I *764:DIODE I *D sky130_fd_sc_hd__diode_2
*I *767:DIODE I *D sky130_fd_sc_hd__diode_2
*I *769:DIODE I *D sky130_fd_sc_hd__diode_2
*I *11876:A1 I *D sky130_fd_sc_hd__mux2_1
*I *12134:DO[17] O *D CF_SRAM_1024x32
*CAP
1 *766:DIODE 0
2 *762:DIODE 0.000110836
3 *768:DIODE 0
4 *765:DIODE 0
5 *760:DIODE 0
6 *757:DIODE 0.000110836
7 *758:DIODE 0
8 *759:DIODE 0
9 *761:DIODE 0
10 *764:DIODE 0
11 *767:DIODE 0
12 *769:DIODE 9.52473e-05
13 *11876:A1 0
14 *12134:DO[17] 0.000591241
15 *226:113 0.000436889
16 *226:87 0.000203416
17 *226:85 0.000197711
18 *226:83 0.000448176
19 *226:47 0.000254161
20 *226:45 0.000226261
21 *226:43 0.000136558
22 *226:41 0.000158719
23 *226:39 0.000274
24 *226:30 0.000434106
25 *226:28 0.00081618
26 *226:22 0.00322823
27 *226:20 0.00267866
28 *226:18 0.017183
29 *226:16 0.0177654
30 *226:4 8.80585e-06
31 *226:16 *12134:WLBI 0.000180218
32 *226:16 *228:9 0.00139894
33 *226:16 *382:88 0.000256585
34 *226:16 *426:16 0
35 *226:16 *426:30 0
36 *226:16 *547:52 0.000101616
37 *226:16 *547:64 0.000221004
38 *226:18 *524:36 0
39 *226:22 *244:27 0.000634685
40 *226:22 *246:27 0.00119382
41 *226:22 *396:16 0.00336192
42 *226:28 *396:16 0.000148697
43 *226:30 *11876:S 5.13142e-05
44 *226:30 *625:26 0.000259337
45 *226:39 *11876:S 3.02431e-05
46 *226:83 *625:26 0
47 *131:18 *226:22 0.00188259
48 *180:25 *226:83 0.000139733
49 *181:87 *226:18 0.00534919
50 *200:11 *226:22 0.0122073
51 *200:11 *226:28 0.000284947
52 *218:37 *226:22 0.000683204
53 *225:18 *226:16 0.000556027
54 *225:54 *226:22 0.00123259
*RES
1 *12134:DO[17] *226:4 0.186429
2 *12134:DO[17] *226:16 43.6832
3 *226:16 *226:18 58.9605
4 *226:18 *226:20 8
5 *226:20 *226:22 158.081
6 *226:22 *226:28 21.67
7 *226:28 *226:30 4.43286
8 *226:30 *11876:A1 23
9 *226:30 *226:39 2.54786
10 *226:39 *226:41 1.09786
11 *226:41 *226:43 1.09786
12 *226:43 *226:45 1.09786
13 *226:45 *226:47 2.05071
14 *226:47 *769:DIODE 24.0979
15 *226:47 *767:DIODE 23
16 *226:45 *764:DIODE 23
17 *226:43 *761:DIODE 23
18 *226:41 *759:DIODE 23
19 *226:39 *758:DIODE 23
20 *226:28 *226:83 4.785
21 *226:83 *226:85 1.09786
22 *226:85 *226:87 1.09786
23 *226:87 *757:DIODE 24.0979
24 *226:87 *760:DIODE 23
25 *226:85 *765:DIODE 23
26 *226:83 *768:DIODE 23
27 *226:22 *226:113 19.9093
28 *226:113 *762:DIODE 24.0979
29 *226:113 *766:DIODE 23
*END

*D_NET *227 0.0916864
*CONN
*I *777:DIODE I *D sky130_fd_sc_hd__diode_2
*I *776:DIODE I *D sky130_fd_sc_hd__diode_2
*I *775:DIODE I *D sky130_fd_sc_hd__diode_2
*I *772:DIODE I *D sky130_fd_sc_hd__diode_2
*I *770:DIODE I *D sky130_fd_sc_hd__diode_2
*I *11879:A1 I *D sky130_fd_sc_hd__mux2_1
*I *778:DIODE I *D sky130_fd_sc_hd__diode_2
*I *779:DIODE I *D sky130_fd_sc_hd__diode_2
*I *771:DIODE I *D sky130_fd_sc_hd__diode_2
*I *773:DIODE I *D sky130_fd_sc_hd__diode_2
*I *12134:DO[18] O *D CF_SRAM_1024x32
*CAP
1 *777:DIODE 0
2 *776:DIODE 0
3 *775:DIODE 0
4 *772:DIODE 6.94565e-05
5 *770:DIODE 0
6 *11879:A1 0
7 *778:DIODE 0
8 *779:DIODE 0
9 *771:DIODE 0
10 *773:DIODE 7.66392e-05
11 *12134:DO[18] 0.000455867
12 *227:82 0.000195521
13 *227:75 0.000357822
14 *227:45 0.000195704
15 *227:39 0.000192749
16 *227:37 0.000174392
17 *227:35 0.000434856
18 *227:33 0.000169643
19 *227:31 0.000164286
20 *227:29 0.00162734
21 *227:27 0.00206195
22 *227:21 0.0116738
23 *227:17 0.0197952
24 *227:15 0.00910888
25 *772:DIODE *625:76 3.18142e-05
26 *773:DIODE *625:63 9.75779e-05
27 *227:15 *12134:DI[18] 0
28 *227:15 *228:9 0.000294756
29 *227:15 *231:13 0.000294756
30 *227:17 *230:17 0.0184176
31 *227:17 *233:17 0
32 *227:21 *228:21 0.000537347
33 *227:21 *230:23 0
34 *227:21 *231:17 0.000152932
35 *227:21 *231:21 0.000928342
36 *227:21 *232:25 0
37 *227:21 *234:25 0
38 *227:21 *235:25 0.00672748
39 *227:21 *441:14 0
40 *227:21 *547:14 4.59554e-06
41 *227:21 *598:20 0.000152556
42 *227:29 *584:18 0.00091877
43 *227:29 *584:22 0.000256008
44 *227:31 *584:18 7.40718e-05
45 *227:33 *584:18 4.93812e-05
46 *227:35 *584:18 7.25499e-05
47 *227:37 *584:18 7.1349e-05
48 *227:39 *584:18 5.41385e-05
49 *227:75 *625:63 0.000146197
50 *227:82 *625:63 8.88657e-05
51 *227:82 *625:76 3.18142e-05
52 *111:16 *227:21 0.000195323
53 *149:49 *227:75 8.62783e-05
54 *150:10 *227:45 1.01436e-05
55 *151:26 *227:21 0.000398482
56 *153:24 *227:29 0.000103405
57 *155:26 *227:21 0.00158394
58 *157:26 *227:21 0.000416138
59 *159:28 *227:21 0.000169109
60 *168:18 *227:21 0.00212014
61 *168:22 *227:21 0.00364564
62 *174:14 *227:21 0.000923765
63 *178:45 *227:15 0.000174611
64 *198:19 *227:45 0.000215791
65 *201:19 *227:27 0
66 *203:27 *227:21 0.000172786
67 *204:27 *227:29 0.000104739
68 *207:19 *227:21 0.00164677
69 *210:17 *227:21 0.00356244
*RES
1 *12134:DO[18] *227:15 36.9601
2 *227:15 *227:17 43.3403
3 *227:17 *227:21 46.8248
4 *227:21 *227:27 31.7725
5 *227:27 *227:29 24.9193
6 *227:29 *227:31 1.57429
7 *227:31 *227:33 1.09786
8 *227:33 *227:35 1.57429
9 *227:35 *227:37 1.57429
10 *227:37 *227:39 1.09786
11 *227:39 *227:45 32.9621
12 *227:45 *773:DIODE 24.0979
13 *227:45 *771:DIODE 23
14 *227:39 *779:DIODE 23
15 *227:37 *778:DIODE 23
16 *227:35 *227:75 34.5364
17 *227:75 *11879:A1 23
18 *227:75 *227:82 2.05071
19 *227:82 *770:DIODE 23
20 *227:82 *772:DIODE 24.0979
21 *227:33 *775:DIODE 23
22 *227:31 *776:DIODE 23
23 *227:29 *777:DIODE 23
*END

*D_NET *228 0.0776657
*CONN
*I *784:DIODE I *D sky130_fd_sc_hd__diode_2
*I *783:DIODE I *D sky130_fd_sc_hd__diode_2
*I *782:DIODE I *D sky130_fd_sc_hd__diode_2
*I *781:DIODE I *D sky130_fd_sc_hd__diode_2
*I *786:DIODE I *D sky130_fd_sc_hd__diode_2
*I *787:DIODE I *D sky130_fd_sc_hd__diode_2
*I *780:DIODE I *D sky130_fd_sc_hd__diode_2
*I *11882:A1 I *D sky130_fd_sc_hd__mux2_1
*I *12134:DO[19] O *D CF_SRAM_1024x32
*CAP
1 *784:DIODE 0
2 *783:DIODE 0
3 *782:DIODE 0
4 *781:DIODE 0
5 *786:DIODE 0
6 *787:DIODE 7.23497e-05
7 *780:DIODE 0.000141887
8 *11882:A1 0
9 *12134:DO[19] 9.56642e-05
10 *228:59 0.000158676
11 *228:57 0.000134563
12 *228:43 0.00022595
13 *228:37 0.00019029
14 *228:35 9.80126e-05
15 *228:33 0.00144219
16 *228:31 0.00207163
17 *228:25 0.00235623
18 *228:23 0.00171115
19 *228:21 0.000836081
20 *228:19 0.000811698
21 *228:17 0.00126817
22 *228:13 0.00442883
23 *228:11 0.00318802
24 *228:9 0.00147508
25 *228:7 0.00154339
26 *780:DIODE *625:76 5.56279e-05
27 *780:DIODE *625:91 4.7587e-05
28 *787:DIODE *584:22 9.41704e-05
29 *228:7 *443:24 0
30 *228:7 *443:38 0
31 *228:9 *12134:AD[0] 4.80465e-05
32 *228:9 *12134:AD[1] 1.54809e-05
33 *228:9 *12134:AD[2] 9.92606e-05
34 *228:9 *12134:AD[4] 2.11157e-05
35 *228:9 *12134:AD[5] 1.54809e-05
36 *228:9 *12134:DI[16] 4.9002e-05
37 *228:9 *231:13 0.00201145
38 *228:9 *426:30 2.11066e-05
39 *228:9 *432:32 2.11066e-05
40 *228:9 *547:64 0.000205399
41 *228:9 *547:76 0.000408018
42 *228:9 *547:88 0.00019139
43 *228:13 *12134:BEN[8] 0.000859596
44 *228:13 *12134:AD[3] 1.68067e-05
45 *228:13 *12134:AD[6] 1.82348e-05
46 *228:13 *12134:AD[7] 2.41963e-05
47 *228:13 *12134:AD[8] 0.000106886
48 *228:13 *12134:AD[9] 3.649e-05
49 *228:13 *12134:DI[3] 2.24415e-05
50 *228:13 *12134:DI[12] 2.19246e-05
51 *228:13 *12134:DI[0] 1.8464e-05
52 *228:13 *12134:DI[4] 9.52761e-05
53 *228:13 *12134:DI[11] 8.22421e-06
54 *228:13 *12134:DI[5] 0.000124453
55 *228:13 *12134:DI[1] 1.97898e-05
56 *228:13 *12134:DI[6] 2.6419e-05
57 *228:13 *12134:DI[2] 2.11157e-05
58 *228:13 *12134:DI[7] 8.22421e-06
59 *228:13 *12134:DI[8] 8.22421e-06
60 *228:13 *229:11 2.6419e-05
61 *228:13 *231:13 0.0114659
62 *228:13 *243:13 8.22421e-06
63 *228:13 *244:11 8.16105e-05
64 *228:13 *245:13 0.000205345
65 *228:13 *246:13 8.22421e-06
66 *228:13 *247:13 2.19246e-05
67 *228:13 *248:13 2.19246e-05
68 *228:13 *557:84 0.00017564
69 *228:13 *557:100 0.000203325
70 *228:13 *557:112 0.000878447
71 *228:13 *560:411 9.94886e-05
72 *228:13 *560:425 0.000235622
73 *228:13 *560:437 0.000285665
74 *228:13 *560:449 0.000132934
75 *228:13 *560:461 0.000230766
76 *228:13 *560:473 0.0002756
77 *228:13 *560:485 3.802e-05
78 *228:17 *12134:DI[14] 4.80465e-05
79 *228:17 *12134:DI[15] 2.64099e-05
80 *228:17 *12134:DI[13] 4.67227e-05
81 *228:17 *231:13 0.0014903
82 *228:17 *552:16 0
83 *228:17 *557:38 3.48578e-05
84 *228:17 *557:50 0.000423233
85 *228:17 *557:62 0.000328556
86 *228:17 *557:72 0.000384692
87 *228:17 *557:84 0.000134619
88 *228:21 *231:17 0.00119314
89 *228:21 *353:14 0.00207013
90 *228:25 *231:21 0.0103663
91 *228:25 *235:25 0.000702537
92 *228:31 *231:25 0
93 *228:33 *231:64 2.31797e-05
94 *228:33 *231:66 3.80755e-05
95 *228:33 *584:22 0.000446275
96 *228:35 *584:22 0.000101762
97 *228:37 *584:22 9.65021e-05
98 *228:43 *441:10 0.000110184
99 *228:57 *584:22 0.000100061
100 *228:59 *584:22 0.000188934
101 *874:DIODE *228:33 3.53115e-05
102 *12134:CLKin *228:9 4.80465e-05
103 *12134:R_WB *228:9 5.43462e-05
104 *111:16 *228:25 0.00351325
105 *153:119 *228:33 5.99365e-05
106 *153:126 *228:33 3.16799e-05
107 *155:33 *228:33 1.32939e-05
108 *155:37 *228:33 0.000143059
109 *155:41 *228:31 0
110 *168:22 *228:25 0.000196151
111 *174:14 *228:21 0.00516043
112 *174:14 *228:25 0.00235475
113 *207:19 *228:25 0.000762411
114 *210:17 *228:25 0.000291207
115 *218:17 *228:13 2.50931e-05
116 *219:11 *228:13 0.000286108
117 *220:11 *228:13 0.000266294
118 *221:16 *228:13 2.19246e-05
119 *222:11 *228:17 0.000379668
120 *223:11 *228:17 4.82774e-05
121 *224:11 *228:17 4.97265e-05
122 *225:18 *228:9 0.000573997
123 *225:18 *228:13 8.45333e-05
124 *225:42 *228:13 0.00129467
125 *226:16 *228:9 0.00139894
126 *227:15 *228:9 0.000294756
127 *227:21 *228:21 0.000537347
*RES
1 *12134:DO[19] *228:7 16.5018
2 *228:7 *228:9 58.6836
3 *228:9 *228:11 0.621429
4 *228:11 *228:13 150.22
5 *228:13 *228:17 46.5554
6 *228:17 *228:19 15
7 *228:19 *228:21 56.1254
8 *228:21 *228:23 0.497143
9 *228:23 *228:25 114.726
10 *228:25 *228:31 41.4136
11 *228:31 *228:33 26.825
12 *228:33 *228:35 1.09786
13 *228:35 *228:37 1.09786
14 *228:37 *228:43 31.5536
15 *228:43 *11882:A1 23
16 *228:43 *780:DIODE 25.0507
17 *228:37 *228:57 1.09786
18 *228:57 *228:59 2.05071
19 *228:59 *787:DIODE 24.0979
20 *228:59 *786:DIODE 23
21 *228:57 *781:DIODE 23
22 *228:37 *782:DIODE 23
23 *228:35 *783:DIODE 23
24 *228:33 *784:DIODE 23
*END

*D_NET *229 0.0609674
*CONN
*I *11828:A1 I *D sky130_fd_sc_hd__mux2_2
*I *789:DIODE I *D sky130_fd_sc_hd__diode_2
*I *788:DIODE I *D sky130_fd_sc_hd__diode_2
*I *12134:DO[1] O *D CF_SRAM_1024x32
*CAP
1 *11828:A1 8.81957e-05
2 *789:DIODE 0.000228728
3 *788:DIODE 0.000313459
4 *12134:DO[1] 0.000117108
5 *229:27 0.000596404
6 *229:25 0.000488852
7 *229:23 0.00674798
8 *229:13 0.0178476
9 *229:11 0.0115632
10 *788:DIODE *248:31 6.74969e-06
11 *788:DIODE *248:39 6.74969e-06
12 *788:DIODE *418:16 0.0001797
13 *789:DIODE *848:DIODE 0.000175903
14 *789:DIODE *248:46 1.85916e-05
15 *789:DIODE *248:59 2.66596e-05
16 *11828:A1 *625:178 4.08664e-05
17 *11828:A1 *625:180 5.3304e-05
18 *229:11 *12134:BEN[0] 0
19 *229:11 *12134:DI[1] 3.02187e-05
20 *229:13 *424:40 0.0127955
21 *229:23 *245:27 2.03036e-06
22 *229:23 *395:34 0
23 *229:25 *248:59 4.15283e-06
24 *229:25 *248:76 5.77024e-06
25 *229:25 *418:16 0.00103482
26 *229:25 *452:24 0.000113929
27 *229:27 *418:16 9.7937e-05
28 *115:10 *229:25 0.000972614
29 *218:21 *229:23 0.00705704
30 *221:40 *788:DIODE 0.000145564
31 *221:40 *229:25 4.45778e-05
32 *221:40 *229:27 0.000110379
33 *225:42 *229:11 2.6419e-05
34 *228:13 *229:11 2.6419e-05
*RES
1 *12134:DO[1] *229:11 24.9057
2 *229:11 *229:13 45.6941
3 *229:13 *229:23 47.5443
4 *229:23 *229:25 14.0546
5 *229:25 *229:27 1.55357
6 *229:27 *788:DIODE 42.6607
7 *229:27 *789:DIODE 41.48
8 *229:25 *11828:A1 39.0979
*END

*D_NET *230 0.085003
*CONN
*I *790:DIODE I *D sky130_fd_sc_hd__diode_2
*I *11885:A1 I *D sky130_fd_sc_hd__mux2_1
*I *12134:DO[20] O *D CF_SRAM_1024x32
*CAP
1 *790:DIODE 0
2 *11885:A1 0.00027414
3 *12134:DO[20] 0.00043041
4 *230:25 0.000406371
5 *230:23 0.00615277
6 *230:17 0.015
7 *230:15 0.00940987
8 *230:15 *12134:DI[20] 2.14654e-05
9 *230:15 *231:13 0.000418799
10 *230:15 *443:40 0
11 *230:15 *547:88 4.35681e-06
12 *230:15 *547:100 0.000142471
13 *230:17 *233:17 0
14 *230:23 *232:25 0.0127955
15 *230:23 *233:25 0.0126985
16 *230:23 *474:14 0.000120255
17 *230:23 *627:35 0.00024288
18 *230:25 *547:8 0
19 *114:19 *11885:A1 9.81686e-05
20 *153:24 *11885:A1 2.75733e-06
21 *153:24 *230:25 2.82419e-06
22 *153:26 *11885:A1 5.67005e-05
23 *153:28 *11885:A1 5.90591e-05
24 *156:8 *11885:A1 9.65021e-05
25 *156:14 *11885:A1 1.68817e-05
26 *159:28 *230:23 5.59957e-05
27 *182:19 *230:23 0.00036432
28 *203:31 *11885:A1 0.000470753
29 *203:31 *230:25 0.000167472
30 *204:27 *230:23 0.000977329
31 *205:31 *230:23 0.000530765
32 *206:39 *230:23 0.00010722
33 *209:17 *230:23 0.000530765
34 *218:17 *230:17 0.00493008
35 *227:17 *230:17 0.0184176
36 *227:21 *230:23 0
*RES
1 *12134:DO[20] *230:15 38.2384
2 *230:15 *230:17 48.2907
3 *230:17 *230:23 48.2989
4 *230:23 *230:25 2.43393
5 *230:25 *11885:A1 45.5814
6 *230:25 *790:DIODE 38
*END

*D_NET *231 0.0689886
*CONN
*I *795:DIODE I *D sky130_fd_sc_hd__diode_2
*I *794:DIODE I *D sky130_fd_sc_hd__diode_2
*I *793:DIODE I *D sky130_fd_sc_hd__diode_2
*I *792:DIODE I *D sky130_fd_sc_hd__diode_2
*I *797:DIODE I *D sky130_fd_sc_hd__diode_2
*I *798:DIODE I *D sky130_fd_sc_hd__diode_2
*I *799:DIODE I *D sky130_fd_sc_hd__diode_2
*I *800:DIODE I *D sky130_fd_sc_hd__diode_2
*I *791:DIODE I *D sky130_fd_sc_hd__diode_2
*I *11888:A1 I *D sky130_fd_sc_hd__mux2_1
*I *12134:DO[21] O *D CF_SRAM_1024x32
*CAP
1 *795:DIODE 0
2 *794:DIODE 0
3 *793:DIODE 0
4 *792:DIODE 0
5 *797:DIODE 0
6 *798:DIODE 0
7 *799:DIODE 6.20076e-05
8 *800:DIODE 0.000201607
9 *791:DIODE 0
10 *11888:A1 0.000203264
11 *12134:DO[21] 0.000249678
12 *231:68 0.000123228
13 *231:66 0.000192348
14 *231:64 0.000207708
15 *231:62 0.000159542
16 *231:60 0.000170953
17 *231:58 8.79913e-05
18 *231:29 0.000377082
19 *231:27 0.000539403
20 *231:25 0.000782984
21 *231:21 0.00392853
22 *231:19 0.00333301
23 *231:17 0.0018314
24 *231:15 0.00180792
25 *231:13 0.0109483
26 *231:11 0.011198
27 *800:DIODE *385:16 5.3206e-05
28 *231:11 *12134:DI[21] 0
29 *231:11 *232:13 0.00025661
30 *231:11 *547:116 0.000147694
31 *231:13 *12134:AD[1] 1.54809e-05
32 *231:13 *12134:AD[4] 2.11157e-05
33 *231:13 *12134:AD[5] 1.54809e-05
34 *231:13 *12134:DI[15] 2.64099e-05
35 *231:13 *12134:DI[16] 4.9002e-05
36 *231:13 *12134:DI[20] 2.5747e-05
37 *231:13 *426:30 2.11066e-05
38 *231:13 *432:32 2.11066e-05
39 *231:13 *443:38 2.11066e-05
40 *231:13 *547:88 0
41 *231:13 *547:100 0
42 *231:13 *547:116 0
43 *231:17 *353:14 9.80711e-05
44 *231:17 *354:14 0.00180562
45 *231:21 *235:25 0.000617941
46 *1029:DIODE *800:DIODE 5.67058e-05
47 *12134:R_WB *231:13 5.43462e-05
48 *114:19 *11888:A1 0.000187084
49 *155:37 *799:DIODE 0.00010018
50 *155:37 *231:66 4.17736e-05
51 *155:37 *231:68 8.6949e-05
52 *155:41 *231:27 0
53 *155:41 *231:29 0
54 *155:43 *231:29 0
55 *155:56 *11888:A1 0
56 *155:56 *231:29 0
57 *157:26 *231:25 0
58 *158:20 *11888:A1 0
59 *222:11 *231:13 0.000379668
60 *223:11 *231:13 4.82774e-05
61 *224:11 *231:13 4.97265e-05
62 *227:15 *231:13 0.000294756
63 *227:21 *231:17 0.000152932
64 *227:21 *231:21 0.000928342
65 *228:9 *231:13 0.00201145
66 *228:13 *231:13 0.0114659
67 *228:17 *231:13 0.0014903
68 *228:21 *231:17 0.00119314
69 *228:25 *231:21 0.0103663
70 *228:31 *231:25 0
71 *228:33 *231:64 2.31797e-05
72 *228:33 *231:66 3.80755e-05
73 *230:15 *231:13 0.000418799
*RES
1 *12134:DO[21] *231:11 21.6389
2 *231:11 *231:13 272.175
3 *231:13 *231:15 15
4 *231:15 *231:17 55.1725
5 *231:17 *231:19 0.497143
6 *231:19 *231:21 112.82
7 *231:21 *231:25 25.3571
8 *231:25 *231:27 2.96214
9 *231:27 *231:29 2.96214
10 *231:29 *11888:A1 41.6043
11 *231:29 *791:DIODE 38
12 *231:27 *800:DIODE 41.0036
13 *231:25 *231:58 15
14 *231:58 *231:60 1.09786
15 *231:60 *231:62 1.09786
16 *231:62 *231:64 1.09786
17 *231:64 *231:66 2.05071
18 *231:66 *231:68 1.09786
19 *231:68 *799:DIODE 24.0979
20 *231:68 *798:DIODE 23
21 *231:66 *797:DIODE 23
22 *231:64 *792:DIODE 23
23 *231:62 *793:DIODE 23
24 *231:60 *794:DIODE 23
25 *231:58 *795:DIODE 23
*END

*D_NET *232 0.078908
*CONN
*I *805:DIODE I *D sky130_fd_sc_hd__diode_2
*I *804:DIODE I *D sky130_fd_sc_hd__diode_2
*I *803:DIODE I *D sky130_fd_sc_hd__diode_2
*I *802:DIODE I *D sky130_fd_sc_hd__diode_2
*I *810:DIODE I *D sky130_fd_sc_hd__diode_2
*I *11891:A1 I *D sky130_fd_sc_hd__mux2_1
*I *801:DIODE I *D sky130_fd_sc_hd__diode_2
*I *806:DIODE I *D sky130_fd_sc_hd__diode_2
*I *808:DIODE I *D sky130_fd_sc_hd__diode_2
*I *809:DIODE I *D sky130_fd_sc_hd__diode_2
*I *12134:DO[22] O *D CF_SRAM_1024x32
*CAP
1 *805:DIODE 0
2 *804:DIODE 0
3 *803:DIODE 0
4 *802:DIODE 0
5 *810:DIODE 0
6 *11891:A1 3.51722e-05
7 *801:DIODE 2.47128e-05
8 *806:DIODE 0
9 *808:DIODE 0
10 *809:DIODE 8.07593e-05
11 *12134:DO[22] 0.00205102
12 *232:64 0.000230587
13 *232:60 0.000302277
14 *232:39 0.00015332
15 *232:37 0.000177137
16 *232:35 0.000275922
17 *232:33 0.000100991
18 *232:31 0.000133781
19 *232:29 0.000137062
20 *232:27 6.45013e-05
21 *232:25 0.00395944
22 *232:17 0.0138959
23 *232:15 0.00993642
24 *232:13 0.00205102
25 *232:13 *12134:DI[22] 0
26 *232:13 *12134:DI[20] 0
27 *232:13 *454:24 0
28 *232:13 *547:116 0.000160421
29 *232:13 *547:132 0.000261836
30 *232:17 *235:17 0.0210634
31 *232:17 *449:20 0.000572194
32 *232:25 *234:25 0.00865537
33 *232:25 *627:41 5.51255e-05
34 *232:60 *627:41 0
35 *232:64 *627:41 0
36 *1069:DIODE *232:29 8.6949e-05
37 *1069:DIODE *232:31 8.43466e-05
38 *1069:DIODE *232:33 8.6949e-05
39 *1069:DIODE *232:35 4.2573e-05
40 *1069:DIODE *232:37 9.67842e-05
41 *114:19 *801:DIODE 0.000145154
42 *114:19 *11891:A1 0.000128727
43 *157:37 *809:DIODE 9.5877e-05
44 *157:37 *232:37 4.17736e-05
45 *157:37 *232:39 8.43466e-05
46 *157:43 *232:60 9.3813e-05
47 *157:43 *232:64 6.07611e-06
48 *157:51 *232:64 0.000119931
49 *159:28 *232:25 8.28847e-05
50 *160:6 *801:DIODE 0.000141954
51 *160:6 *11891:A1 0.000139357
52 *204:31 *232:64 0
53 *227:21 *232:25 0
54 *230:23 *232:25 0.0127955
55 *231:11 *232:13 0.00025661
*RES
1 *12134:DO[22] *232:13 42.8702
2 *232:13 *232:15 8
3 *232:15 *232:17 50.5755
4 *232:17 *232:25 43.1939
5 *232:25 *232:27 15
6 *232:27 *232:29 1.09786
7 *232:29 *232:31 1.09786
8 *232:31 *232:33 1.09786
9 *232:33 *232:35 0.621429
10 *232:35 *232:37 1.57429
11 *232:37 *232:39 1.09786
12 *232:39 *809:DIODE 24.0979
13 *232:39 *808:DIODE 23
14 *232:37 *806:DIODE 23
15 *232:35 *232:60 17.9621
16 *232:60 *232:64 18.6664
17 *232:64 *801:DIODE 24.5743
18 *232:64 *11891:A1 24.5743
19 *232:60 *810:DIODE 38
20 *232:33 *802:DIODE 23
21 *232:31 *803:DIODE 23
22 *232:29 *804:DIODE 23
23 *232:27 *805:DIODE 23
*END

*D_NET *233 0.072983
*CONN
*I *815:DIODE I *D sky130_fd_sc_hd__diode_2
*I *814:DIODE I *D sky130_fd_sc_hd__diode_2
*I *813:DIODE I *D sky130_fd_sc_hd__diode_2
*I *812:DIODE I *D sky130_fd_sc_hd__diode_2
*I *816:DIODE I *D sky130_fd_sc_hd__diode_2
*I *817:DIODE I *D sky130_fd_sc_hd__diode_2
*I *811:DIODE I *D sky130_fd_sc_hd__diode_2
*I *11894:A1 I *D sky130_fd_sc_hd__mux2_1
*I *12134:DO[23] O *D CF_SRAM_1024x32
*CAP
1 *815:DIODE 0
2 *814:DIODE 0
3 *813:DIODE 0
4 *812:DIODE 0
5 *816:DIODE 0
6 *817:DIODE 4.1343e-05
7 *811:DIODE 0
8 *11894:A1 0.000291518
9 *12134:DO[23] 0.000735797
10 *233:41 0.000467814
11 *233:37 0.000376455
12 *233:33 0.000244587
13 *233:31 0.000164323
14 *233:29 0.000160386
15 *233:27 8.18334e-05
16 *233:25 0.00669569
17 *233:17 0.0250962
18 *233:15 0.0191363
19 *233:15 *12134:BEN[23] 0.000259508
20 *233:15 *12134:DI[23] 3.09646e-05
21 *233:15 *462:32 0
22 *233:25 *382:12 4.16753e-06
23 *159:49 *817:DIODE 9.84794e-05
24 *159:49 *233:37 5.3304e-05
25 *159:53 *233:41 0.000181654
26 *159:55 *11894:A1 0.000129902
27 *159:55 *233:41 0.000221184
28 *161:24 *233:25 6.70779e-05
29 *162:8 *11894:A1 0.000265767
30 *163:28 *233:25 1.92442e-05
31 *165:24 *233:25 0.000331062
32 *168:26 *233:25 0
33 *170:12 *233:25 0.00206654
34 *172:14 *233:25 0.00206654
35 *182:19 *233:25 0.000180268
36 *205:43 *11894:A1 0.000131992
37 *205:43 *233:41 0.000182863
38 *206:39 *233:25 0.000130187
39 *209:17 *233:25 0.000371505
40 *227:17 *233:17 0
41 *230:17 *233:17 0
42 *230:23 *233:25 0.0126985
*RES
1 *12134:DO[23] *233:15 37.2181
2 *233:15 *233:17 54.8912
3 *233:17 *233:25 41.6136
4 *233:25 *233:27 15
5 *233:27 *233:29 1.09786
6 *233:29 *233:31 1.09786
7 *233:31 *233:33 1.09786
8 *233:33 *233:37 2.54786
9 *233:37 *233:41 20.4271
10 *233:41 *11894:A1 42.9093
11 *233:41 *811:DIODE 38
12 *233:37 *817:DIODE 24.0979
13 *233:37 *816:DIODE 23
14 *233:33 *812:DIODE 23
15 *233:31 *813:DIODE 23
16 *233:29 *814:DIODE 23
17 *233:27 *815:DIODE 23
*END

*D_NET *234 0.0584809
*CONN
*I *823:DIODE I *D sky130_fd_sc_hd__diode_2
*I *822:DIODE I *D sky130_fd_sc_hd__diode_2
*I *821:DIODE I *D sky130_fd_sc_hd__diode_2
*I *820:DIODE I *D sky130_fd_sc_hd__diode_2
*I *824:DIODE I *D sky130_fd_sc_hd__diode_2
*I *825:DIODE I *D sky130_fd_sc_hd__diode_2
*I *826:DIODE I *D sky130_fd_sc_hd__diode_2
*I *828:DIODE I *D sky130_fd_sc_hd__diode_2
*I *831:DIODE I *D sky130_fd_sc_hd__diode_2
*I *830:DIODE I *D sky130_fd_sc_hd__diode_2
*I *827:DIODE I *D sky130_fd_sc_hd__diode_2
*I *819:DIODE I *D sky130_fd_sc_hd__diode_2
*I *11897:A1 I *D sky130_fd_sc_hd__mux2_1
*I *12134:DO[24] O *D CF_SRAM_1024x32
*CAP
1 *823:DIODE 0
2 *822:DIODE 0
3 *821:DIODE 0
4 *820:DIODE 0
5 *824:DIODE 0
6 *825:DIODE 0
7 *826:DIODE 0
8 *828:DIODE 0
9 *831:DIODE 8.36653e-05
10 *830:DIODE 4.32727e-05
11 *827:DIODE 0
12 *819:DIODE 0.000141964
13 *11897:A1 0.000108886
14 *12134:DO[24] 0.00241037
15 *234:81 0.000180767
16 *234:79 0.000179791
17 *234:77 0.000169409
18 *234:75 0.000244194
19 *234:61 4.32727e-05
20 *234:39 0.000341555
21 *234:37 0.000219192
22 *234:33 0.000352641
23 *234:31 0.0001279
24 *234:29 0.000125722
25 *234:27 6.45013e-05
26 *234:25 0.00391782
27 *234:17 0.0204269
28 *234:15 0.0189195
29 *11897:A1 *627:61 9.61729e-05
30 *234:15 *12134:DI[24] 4.47484e-05
31 *234:15 *313:23 3.2336e-05
32 *234:15 *458:12 0.000166509
33 *234:15 *462:32 0
34 *234:15 *467:28 0
35 *234:15 *467:32 0
36 *234:17 *313:19 0.000181531
37 *111:20 *11897:A1 3.86268e-05
38 *111:20 *234:25 0
39 *111:20 *234:37 0.000105062
40 *111:20 *234:39 0.000106516
41 *114:39 *819:DIODE 0.000181131
42 *161:32 *830:DIODE 5.50106e-05
43 *161:38 *11897:A1 8.25833e-05
44 *161:38 *234:39 0.000169674
45 *161:102 *830:DIODE 1.32314e-05
46 *161:128 *234:29 8.6949e-05
47 *161:128 *234:31 8.6949e-05
48 *161:128 *234:33 8.60475e-05
49 *161:128 *234:75 0.000137651
50 *170:18 *234:25 5.33841e-05
51 *170:18 *234:37 0
52 *170:18 *234:39 0
53 *227:21 *234:25 0
54 *232:25 *234:25 0.00865537
*RES
1 *12134:DO[24] *234:15 43.0951
2 *234:15 *234:17 56.4144
3 *234:17 *234:25 36.0844
4 *234:25 *234:27 15
5 *234:27 *234:29 1.09786
6 *234:29 *234:31 1.09786
7 *234:31 *234:33 1.09786
8 *234:33 *234:37 17.9621
9 *234:37 *234:39 2.96214
10 *234:39 *11897:A1 40.2993
11 *234:39 *819:DIODE 40.0507
12 *234:37 *234:61 15
13 *234:61 *827:DIODE 23
14 *234:61 *830:DIODE 23.6214
15 *234:33 *234:75 2.05071
16 *234:75 *234:77 1.09786
17 *234:77 *234:79 1.09786
18 *234:79 *234:81 1.09786
19 *234:81 *831:DIODE 24.0979
20 *234:81 *828:DIODE 23
21 *234:79 *826:DIODE 23
22 *234:77 *825:DIODE 23
23 *234:75 *824:DIODE 23
24 *234:33 *820:DIODE 23
25 *234:31 *821:DIODE 23
26 *234:29 *822:DIODE 23
27 *234:27 *823:DIODE 23
*END

*D_NET *235 0.0679402
*CONN
*I *832:DIODE I *D sky130_fd_sc_hd__diode_2
*I *11900:A1 I *D sky130_fd_sc_hd__mux2_1
*I *833:DIODE I *D sky130_fd_sc_hd__diode_2
*I *12134:DO[25] O *D CF_SRAM_1024x32
*CAP
1 *832:DIODE 0
2 *11900:A1 0
3 *833:DIODE 0.000138969
4 *12134:DO[25] 0.00111392
5 *235:31 0.000297978
6 *235:25 0.0035997
7 *235:17 0.0153325
8 *235:15 0.0130057
9 *833:DIODE *627:76 0.000305425
10 *235:15 *12134:BEN[25] 0.000376051
11 *235:15 *12134:DI[25] 8.57025e-05
12 *235:15 *471:102 0
13 *235:15 *550:35 0.00235793
14 *235:17 *449:20 0.00188513
15 *235:31 *627:76 5.67058e-05
16 *235:31 *627:83 0.000172197
17 *11900:A0 *833:DIODE 5.41385e-05
18 *163:46 *235:31 0
19 *164:8 *833:DIODE 4.67488e-05
20 *227:21 *235:25 0.00672748
21 *228:25 *235:25 0.000702537
22 *231:21 *235:25 0.000617941
23 *232:17 *235:17 0.0210634
*RES
1 *12134:DO[25] *235:15 41.2441
2 *235:15 *235:17 57.3029
3 *235:17 *235:25 38.1123
4 *235:25 *235:31 18.7286
5 *235:31 *833:DIODE 26.48
6 *235:31 *11900:A1 23
7 *235:25 *832:DIODE 38
*END

*D_NET *236 0.0745917
*CONN
*I *11903:A1 I *D sky130_fd_sc_hd__mux2_2
*I *834:DIODE I *D sky130_fd_sc_hd__diode_2
*I *12134:DO[26] O *D CF_SRAM_1024x32
*CAP
1 *11903:A1 7.51705e-05
2 *834:DIODE 0
3 *12134:DO[26] 0.000827333
4 *236:23 0.00135509
5 *236:17 0.00143026
6 *236:15 0.00411682
7 *236:13 0.00411682
8 *236:11 0.00612396
9 *236:9 0.00695129
10 *236:9 *12134:DI[26] 1.63191e-05
11 *236:9 *476:20 5.53318e-05
12 *236:11 *239:11 0.000391665
13 *236:11 *239:21 0.0010274
14 *236:11 *443:18 0.00588362
15 *236:11 *462:12 0.00295845
16 *236:11 *471:26 0.000685546
17 *236:11 *471:30 0.0104556
18 *236:11 *484:12 0.000251603
19 *236:11 *563:18 0.000415405
20 *236:11 *568:24 0.0121082
21 *236:11 *570:16 0.000155779
22 *236:11 *572:8 0.0146361
23 *236:23 *477:10 0.000233359
24 *236:23 *478:8 0
25 *236:23 *611:36 0.000320512
26 *644:DIODE *236:23 0
27 *165:38 *236:23 0
28 *165:40 *236:23 0
*RES
1 *12134:DO[26] *236:9 27.18
2 *236:9 *236:11 344.893
3 *236:11 *236:13 15
4 *236:13 *236:15 51.5993
5 *236:15 *236:17 15
6 *236:17 *236:23 39.1529
7 *236:23 *834:DIODE 23
8 *236:17 *11903:A1 39.2014
*END

*D_NET *237 0.0417076
*CONN
*I *11906:A1 I *D sky130_fd_sc_hd__mux2_2
*I *835:DIODE I *D sky130_fd_sc_hd__diode_2
*I *12134:DO[27] O *D CF_SRAM_1024x32
*CAP
1 *11906:A1 0.000122413
2 *835:DIODE 0.000198122
3 *12134:DO[27] 0.000431339
4 *237:33 0.00111889
5 *237:31 0.000798356
6 *237:29 0.00183757
7 *237:23 0.00267208
8 *237:11 0.00541511
9 *237:9 0.00501193
10 *835:DIODE *567:24 6.57654e-05
11 *835:DIODE *569:22 0.000216721
12 *11906:A1 *627:98 2.98648e-05
13 *237:9 *12134:BEN[26] 0
14 *237:9 *12134:DI[27] 0
15 *237:9 *480:22 0
16 *237:11 *332:10 0.00016056
17 *237:11 *353:10 0.00386951
18 *237:11 *354:10 1.35751e-05
19 *237:11 *382:88 0
20 *237:11 *426:10 0.00022529
21 *237:11 *432:14 0.00371156
22 *237:11 *627:150 0.0047435
23 *237:29 *569:22 0.00235023
24 *237:33 *567:24 0.000221217
25 *237:33 *569:22 0.00286261
26 *11906:A0 *11906:A1 5.3304e-05
27 *167:16 *237:11 0.00310759
28 *168:10 *835:DIODE 8.4047e-05
29 *175:24 *237:33 0.000873429
30 *176:14 *237:33 0.00151303
*RES
1 *12134:DO[27] *237:9 21.7114
2 *237:9 *237:11 189.95
3 *237:11 *237:23 41.2893
4 *237:23 *237:29 47.5836
5 *237:29 *237:31 15
6 *237:31 *237:33 37.8243
7 *237:33 *835:DIODE 42.06
8 *237:33 *11906:A1 39.5743
*END

*D_NET *238 0.0454544
*CONN
*I *11909:A1 I *D sky130_fd_sc_hd__mux2_2
*I *836:DIODE I *D sky130_fd_sc_hd__diode_2
*I *12134:DO[28] O *D CF_SRAM_1024x32
*CAP
1 *11909:A1 5.69933e-05
2 *836:DIODE 0.000148975
3 *12134:DO[28] 0.00141231
4 *238:11 0.00596138
5 *238:9 0.00716772
6 *836:DIODE *627:120 5.3738e-05
7 *836:DIODE *627:131 4.26144e-05
8 *11909:A1 *11909:S 3.7122e-06
9 *238:9 *12109:A 2.75712e-05
10 *238:9 *12134:DI[28] 3.18796e-05
11 *238:9 *454:8 0
12 *238:9 *484:18 0.000226584
13 *238:11 *467:8 0.0127637
14 *238:11 *627:131 0.000163624
15 *238:11 *627:144 0.000304019
16 *169:16 *836:DIODE 8.78212e-05
17 *169:16 *238:11 0.0170018
*RES
1 *12134:DO[28] *238:9 34.8443
2 *238:9 *238:11 226.573
3 *238:11 *836:DIODE 40.9621
4 *238:11 *11909:A1 38.6214
*END

*D_NET *239 0.0424624
*CONN
*I *11912:A1 I *D sky130_fd_sc_hd__mux2_2
*I *837:DIODE I *D sky130_fd_sc_hd__diode_2
*I *12134:DO[29] O *D CF_SRAM_1024x32
*CAP
1 *11912:A1 0.000326098
2 *837:DIODE 0.000184014
3 *12134:DO[29] 0.00076611
4 *239:23 0.00137921
5 *239:21 0.00140221
6 *239:11 0.00471784
7 *239:9 0.00495084
8 *837:DIODE *567:24 0.000221184
9 *837:DIODE *569:22 0.000105154
10 *239:9 *12134:DI[29] 3.99477e-05
11 *239:9 *489:14 0.000207617
12 *239:11 *443:18 0.00091014
13 *239:11 *462:56 0.00480628
14 *239:11 *471:30 0.0104556
15 *239:11 *484:14 0.00453016
16 *239:21 *484:12 0.000977234
17 *239:21 *484:14 1.62615e-05
18 *239:23 *471:18 0.0017016
19 *239:23 *480:14 0.000923637
20 *239:23 *489:10 6.48049e-05
21 *239:23 *567:24 0.00139257
22 *239:23 *569:22 0.000480777
23 *239:23 *570:16 0.000223776
24 *11912:A0 *11912:A1 0.00026025
25 *236:11 *239:11 0.000391665
26 *236:11 *239:21 0.0010274
*RES
1 *12134:DO[29] *239:9 28.195
2 *239:9 *239:11 182.027
3 *239:11 *239:21 46.3746
4 *239:21 *239:23 36.7679
5 *239:23 *837:DIODE 42.06
6 *239:23 *11912:A1 41.9564
*END

*D_NET *240 0.0637937
*CONN
*I *838:DIODE I *D sky130_fd_sc_hd__diode_2
*I *844:DIODE I *D sky130_fd_sc_hd__diode_2
*I *842:DIODE I *D sky130_fd_sc_hd__diode_2
*I *841:DIODE I *D sky130_fd_sc_hd__diode_2
*I *11831:A1 I *D sky130_fd_sc_hd__mux2_2
*I *843:DIODE I *D sky130_fd_sc_hd__diode_2
*I *839:DIODE I *D sky130_fd_sc_hd__diode_2
*I *12134:DO[2] O *D CF_SRAM_1024x32
*CAP
1 *838:DIODE 6.27375e-05
2 *844:DIODE 0
3 *842:DIODE 0
4 *841:DIODE 8.81957e-05
5 *11831:A1 0
6 *843:DIODE 0.000702272
7 *839:DIODE 0.000171163
8 *12134:DO[2] 0.000163263
9 *240:64 0.000173677
10 *240:62 0.000132688
11 *240:46 0.000819003
12 *240:31 0.000499421
13 *240:29 0.000335467
14 *240:27 0.00379267
15 *240:15 0.017817
16 *240:13 0.0143271
17 *839:DIODE *418:16 6.42902e-05
18 *843:DIODE *11831:S 4.05745e-05
19 *843:DIODE *11846:S 6.09861e-05
20 *843:DIODE *247:42 0.000175872
21 *240:13 *12134:BEN[1] 0
22 *240:13 *12134:DI[2] 2.80448e-05
23 *240:13 *560:485 2.11157e-05
24 *240:15 *415:24 0.0159583
25 *240:27 *389:36 0.00140065
26 *240:27 *560:405 0
27 *240:27 *581:16 0.000552349
28 *240:27 *625:170 0.000110773
29 *240:29 *625:170 0.000206959
30 *240:31 *418:16 2.49312e-05
31 *240:31 *625:170 5.94125e-05
32 *118:8 *843:DIODE 2.80924e-06
33 *183:12 *839:DIODE 0.00016533
34 *220:29 *843:DIODE 5.3304e-05
35 *220:29 *240:46 9.65021e-05
36 *220:45 *841:DIODE 9.41704e-05
37 *220:45 *240:31 0.000210634
38 *220:45 *240:62 4.08664e-05
39 *220:45 *240:64 8.17328e-05
40 *221:40 *839:DIODE 0.000295755
41 *221:40 *240:27 0.000117408
42 *221:40 *240:29 0.000217102
43 *221:40 *240:31 0.000338259
44 *222:25 *240:27 0.00426968
45 *225:42 *240:13 2.11157e-05
*RES
1 *12134:DO[2] *240:13 25.5479
2 *240:13 *240:15 56.9427
3 *240:15 *240:27 40.9448
4 *240:27 *240:29 2.96214
5 *240:29 *240:31 4.72286
6 *240:31 *839:DIODE 42.64
7 *240:31 *240:46 16.5743
8 *240:46 *843:DIODE 31.2443
9 *240:46 *11831:A1 23
10 *240:29 *240:62 15.6214
11 *240:62 *240:64 1.09786
12 *240:64 *841:DIODE 24.0979
13 *240:64 *842:DIODE 23
14 *240:62 *844:DIODE 23
15 *240:27 *838:DIODE 38.6214
*END

*D_NET *241 0.0453258
*CONN
*I *11915:A1 I *D sky130_fd_sc_hd__mux2_2
*I *845:DIODE I *D sky130_fd_sc_hd__diode_2
*I *12134:DO[30] O *D CF_SRAM_1024x32
*CAP
1 *11915:A1 0.000441815
2 *845:DIODE 0.000301756
3 *12134:DO[30] 0.000728978
4 *241:11 0.00390742
5 *241:9 0.00389283
6 *845:DIODE *12122:A 8.04554e-05
7 *845:DIODE *462:12 0.000219891
8 *11915:A1 *627:148 2.43944e-05
9 *241:9 *12134:BEN[29] 0
10 *241:9 *12134:DI[30] 0
11 *241:9 *493:14 0
12 *241:11 *443:16 0
13 *241:11 *443:18 0.000938545
14 *241:11 *462:12 0.0121382
15 *241:11 *462:54 0.000165853
16 *241:11 *529:28 0.00381055
17 *11915:A0 *11915:A1 0.000423716
18 *171:16 *845:DIODE 9.62993e-05
19 *173:16 *845:DIODE 3.70187e-05
20 *173:16 *241:11 0.0180857
21 *174:8 *845:DIODE 3.23492e-05
*RES
1 *12134:DO[30] *241:9 26.1857
2 *241:9 *241:11 231.855
3 *241:11 *845:DIODE 43.9657
4 *241:11 *11915:A1 43.8621
*END

*D_NET *242 0.0537177
*CONN
*I *846:DIODE I *D sky130_fd_sc_hd__diode_2
*I *11918:A1 I *D sky130_fd_sc_hd__mux2_2
*I *12134:DO[31] O *D CF_SRAM_1024x32
*CAP
1 *846:DIODE 0.000336792
2 *11918:A1 0.000648106
3 *12134:DO[31] 0.000572983
4 *242:15 0.00115017
5 *242:11 0.0041136
6 *242:9 0.00452131
7 *242:9 *12134:DI[31] 0
8 *242:11 *529:20 0.000853848
9 *242:11 *541:16 0
10 *11918:A0 *11918:A1 4.9662e-05
11 *171:16 *242:11 0.0199116
12 *172:10 *242:11 0.00108166
13 *175:10 *242:11 0.0204594
14 *176:8 *11918:A1 1.85916e-05
*RES
1 *12134:DO[31] *242:9 24.0729
2 *242:9 *242:11 283.268
3 *242:11 *242:15 17.5271
4 *242:15 *11918:A1 30.54
5 *242:15 *846:DIODE 26.48
*END

*D_NET *243 0.0611168
*CONN
*I *847:DIODE I *D sky130_fd_sc_hd__diode_2
*I *11834:A1 I *D sky130_fd_sc_hd__mux2_2
*I *12134:DO[3] O *D CF_SRAM_1024x32
*CAP
1 *847:DIODE 0
2 *11834:A1 0.000289426
3 *12134:DO[3] 0.000156453
4 *243:27 0.00342105
5 *243:15 0.0182734
6 *243:13 0.0152983
7 *11834:A1 *362:10 0.00022372
8 *11834:A1 *560:20 0.000224204
9 *243:13 *12134:DI[3] 2.761e-05
10 *243:13 *560:473 2.11157e-05
11 *243:15 *409:72 0.000300776
12 *243:15 *409:74 0.015516
13 *243:27 *12124:DI[8] 2.81221e-05
14 *243:27 *247:31 0.000708413
15 *243:27 *362:10 2.26406e-05
16 *243:27 *389:36 0.000765551
17 *243:27 *441:20 0.00443851
18 *243:27 *560:20 1.29852e-05
19 *243:27 *564:51 0.00026427
20 *243:27 *578:10 0.000362998
21 *11834:A0 *11834:A1 6.99492e-05
22 *145:18 *243:27 0.000138759
23 *222:25 *243:15 0.000544314
24 *225:44 *243:15 0
25 *228:13 *243:13 8.22421e-06
*RES
1 *12134:DO[3] *243:13 25.5686
2 *243:13 *243:15 59.3469
3 *243:15 *243:27 36.5571
4 *243:27 *11834:A1 43.4893
5 *243:27 *847:DIODE 38
*END

*D_NET *244 0.0585816
*CONN
*I *11837:A1 I *D sky130_fd_sc_hd__mux2_2
*I *12134:DO[4] O *D CF_SRAM_1024x32
*CAP
1 *11837:A1 0
2 *12134:DO[4] 0.00014797
3 *244:27 0.000775241
4 *244:13 0.0283464
5 *244:11 0.0277191
6 *244:11 *12134:DI[4] 2.85672e-05
7 *244:11 *560:461 3.48207e-05
8 *244:27 *396:16 0.000637388
9 *244:27 *625:236 0.000175903
10 *226:22 *244:27 0.000634685
11 *228:13 *244:11 8.16105e-05
*RES
1 *12134:DO[4] *244:11 25.6721
2 *244:11 *244:13 58.9605
3 *244:13 *244:27 40.4311
4 *244:27 *11837:A1 23
*END

*D_NET *245 0.0650193
*CONN
*I *11840:A1 I *D sky130_fd_sc_hd__mux2_2
*I *848:DIODE I *D sky130_fd_sc_hd__diode_2
*I *12134:DO[5] O *D CF_SRAM_1024x32
*CAP
1 *11840:A1 0.000307474
2 *848:DIODE 0.000164743
3 *12134:DO[5] 0.000321732
4 *245:27 0.00527456
5 *245:15 0.0151611
6 *245:13 0.0106805
7 *11840:A1 *11849:S 5.50049e-05
8 *11840:A1 *625:180 0.000204332
9 *245:13 *12134:DI[5] 0.0001543
10 *245:13 *560:437 4.80427e-05
11 *245:13 *560:449 0.000397635
12 *245:15 *246:15 0
13 *245:27 *246:27 0
14 *789:DIODE *848:DIODE 0.000175903
15 *147:10 *11840:A1 8.4047e-05
16 *147:10 *245:27 4.51403e-05
17 *218:21 *245:15 0.0236449
18 *219:27 *245:27 0.00801161
19 *221:40 *245:27 8.09411e-05
20 *228:13 *245:13 0.000205345
21 *229:23 *245:27 2.03036e-06
*RES
1 *12134:DO[5] *245:13 31.9693
2 *245:13 *245:15 45.0931
3 *245:15 *245:27 42.7332
4 *245:27 *848:DIODE 40.0507
5 *245:27 *11840:A1 42.205
*END

*D_NET *246 0.0578234
*CONN
*I *855:DIODE I *D sky130_fd_sc_hd__diode_2
*I *853:DIODE I *D sky130_fd_sc_hd__diode_2
*I *850:DIODE I *D sky130_fd_sc_hd__diode_2
*I *11843:A1 I *D sky130_fd_sc_hd__mux2_2
*I *849:DIODE I *D sky130_fd_sc_hd__diode_2
*I *852:DIODE I *D sky130_fd_sc_hd__diode_2
*I *854:DIODE I *D sky130_fd_sc_hd__diode_2
*I *12134:DO[6] O *D CF_SRAM_1024x32
*CAP
1 *855:DIODE 0
2 *853:DIODE 0
3 *850:DIODE 0
4 *11843:A1 0
5 *849:DIODE 0
6 *852:DIODE 0
7 *854:DIODE 8.1669e-05
8 *12134:DO[6] 0.000159982
9 *246:49 0.000155907
10 *246:47 0.000346053
11 *246:45 0.000429289
12 *246:43 0.000242955
13 *246:41 0.000170962
14 *246:39 0.000828243
15 *246:33 0.000902183
16 *246:27 0.0012346
17 *246:15 0.0130224
18 *246:13 0.0121072
19 *246:13 *12134:DI[6] 2.63057e-05
20 *246:13 *560:437 2.11157e-05
21 *246:15 *395:34 0.016202
22 *246:27 *341:10 0.000449171
23 *246:27 *395:34 0
24 *246:27 *396:16 0.00119646
25 *246:33 *625:170 6.17437e-06
26 *246:39 *11843:S 4.08664e-05
27 *246:39 *564:51 0.00138082
28 *246:39 *625:109 0.000257636
29 *246:41 *11843:S 8.17328e-05
30 *246:43 *11843:S 8.17328e-05
31 *246:45 *11843:S 0.000137651
32 *11843:A0 *854:DIODE 9.65021e-05
33 *11843:A0 *246:47 0.000212707
34 *11843:A0 *246:49 8.53029e-05
35 *180:36 *246:39 0.00138305
36 *218:21 *246:15 0.00520804
37 *220:21 *246:39 5.61255e-06
38 *221:28 *246:39 6.70361e-05
39 *226:22 *246:27 0.00119382
40 *228:13 *246:13 8.22421e-06
41 *245:15 *246:15 0
42 *245:27 *246:27 0
*RES
1 *12134:DO[6] *246:13 25.6307
2 *246:13 *246:15 57.8443
3 *246:15 *246:27 46.5006
4 *246:27 *246:33 32.0507
5 *246:33 *246:39 38.49
6 *246:39 *246:41 1.09786
7 *246:41 *246:43 1.09786
8 *246:43 *246:45 2.05071
9 *246:45 *246:47 3.48
10 *246:47 *246:49 1.09786
11 *246:49 *854:DIODE 24.0979
12 *246:49 *852:DIODE 23
13 *246:47 *849:DIODE 23
14 *246:45 *11843:A1 23
15 *246:43 *850:DIODE 23
16 *246:41 *853:DIODE 23
17 *246:39 *855:DIODE 23
*END

*D_NET *247 0.057139
*CONN
*I *856:DIODE I *D sky130_fd_sc_hd__diode_2
*I *857:DIODE I *D sky130_fd_sc_hd__diode_2
*I *858:DIODE I *D sky130_fd_sc_hd__diode_2
*I *859:DIODE I *D sky130_fd_sc_hd__diode_2
*I *860:DIODE I *D sky130_fd_sc_hd__diode_2
*I *861:DIODE I *D sky130_fd_sc_hd__diode_2
*I *11846:A1 I *D sky130_fd_sc_hd__mux2_2
*I *12134:DO[7] O *D CF_SRAM_1024x32
*CAP
1 *856:DIODE 0
2 *857:DIODE 0
3 *858:DIODE 0
4 *859:DIODE 0
5 *860:DIODE 0
6 *861:DIODE 6.71548e-05
7 *11846:A1 0
8 *12134:DO[7] 0.000149166
9 *247:50 0.000128155
10 *247:48 0.000122
11 *247:46 0.000122
12 *247:44 0.000113806
13 *247:42 0.000283553
14 *247:33 0.000230747
15 *247:31 0.00638531
16 *247:17 0.0164279
17 *247:13 0.0101918
18 *247:13 *12134:DI[7] 5.97865e-05
19 *247:13 *560:425 4.80465e-05
20 *247:17 *393:32 0.0112331
21 *247:31 *362:10 0.000479904
22 *247:31 *389:36 0.00919906
23 *247:42 *11831:S 0
24 *843:DIODE *247:42 0.000175872
25 *118:8 *247:42 1.21972e-05
26 *127:18 *861:DIODE 9.41704e-05
27 *127:18 *247:42 0.000385173
28 *127:18 *247:44 9.65021e-05
29 *127:18 *247:46 9.41704e-05
30 *127:18 *247:48 9.41704e-05
31 *127:18 *247:50 9.41704e-05
32 *153:16 *247:31 0.000120703
33 *228:13 *247:13 2.19246e-05
34 *243:27 *247:31 0.000708413
*RES
1 *12134:DO[7] *247:13 25.9414
2 *247:13 *247:17 48.1128
3 *247:17 *247:31 46.0732
4 *247:31 *247:33 15
5 *247:33 *11846:A1 23
6 *247:33 *247:42 5.40643
7 *247:42 *247:44 1.09786
8 *247:44 *247:46 1.09786
9 *247:46 *247:48 1.09786
10 *247:48 *247:50 1.09786
11 *247:50 *861:DIODE 24.0979
12 *247:50 *860:DIODE 23
13 *247:48 *859:DIODE 23
14 *247:46 *858:DIODE 23
15 *247:44 *857:DIODE 23
16 *247:42 *856:DIODE 23
*END

*D_NET *248 0.056346
*CONN
*I *866:DIODE I *D sky130_fd_sc_hd__diode_2
*I *868:DIODE I *D sky130_fd_sc_hd__diode_2
*I *867:DIODE I *D sky130_fd_sc_hd__diode_2
*I *869:DIODE I *D sky130_fd_sc_hd__diode_2
*I *11849:A1 I *D sky130_fd_sc_hd__mux2_2
*I *864:DIODE I *D sky130_fd_sc_hd__diode_2
*I *865:DIODE I *D sky130_fd_sc_hd__diode_2
*I *12134:DO[8] O *D CF_SRAM_1024x32
*CAP
1 *866:DIODE 0
2 *868:DIODE 0
3 *867:DIODE 0
4 *869:DIODE 6.27375e-05
5 *11849:A1 0
6 *864:DIODE 0
7 *865:DIODE 0
8 *12134:DO[8] 0.000148188
9 *248:76 0.000350656
10 *248:65 0.000521142
11 *248:59 0.00116635
12 *248:46 0.000459927
13 *248:39 0.0004168
14 *248:31 0.000412944
15 *248:29 9.87849e-05
16 *248:27 0.00487487
17 *248:19 0.0150119
18 *248:13 0.0102852
19 *248:13 *12134:DI[8] 5.97865e-05
20 *248:19 *389:36 0.0108166
21 *248:19 *560:405 0
22 *248:27 *393:32 0.00185684
23 *248:27 *418:16 7.23805e-05
24 *248:27 *560:405 0.00512785
25 *248:59 *554:57 0.000241796
26 *248:65 *11849:S 0.000466906
27 *248:65 *625:178 0.000135037
28 *248:65 *625:180 0.000382849
29 *248:76 *554:57 0.00037403
30 *248:76 *625:228 6.17437e-06
31 *788:DIODE *248:31 6.74969e-06
32 *788:DIODE *248:39 6.74969e-06
33 *789:DIODE *248:46 1.85916e-05
34 *789:DIODE *248:59 2.66596e-05
35 *11828:A0 *248:65 0.000135037
36 *11840:A0 *248:65 0.000424672
37 *115:10 *248:76 0.000346234
38 *116:14 *248:65 9.02364e-05
39 *147:10 *248:39 0.000219469
40 *155:16 *248:19 0
41 *219:11 *248:13 4.80465e-05
42 *219:15 *248:27 0.00138524
43 *221:40 *248:27 2.98653e-05
44 *221:40 *248:59 0.000226952
45 *228:13 *248:13 2.19246e-05
46 *229:25 *248:59 4.15283e-06
47 *229:25 *248:76 5.77024e-06
*RES
1 *12134:DO[8] *248:13 25.9207
2 *248:13 *248:19 47.7656
3 *248:19 *248:27 38.3334
4 *248:27 *248:29 15
5 *248:29 *248:31 1.09786
6 *248:31 *248:39 34.5364
7 *248:39 *865:DIODE 23
8 *248:39 *248:46 1.09786
9 *248:46 *864:DIODE 23
10 *248:46 *248:59 21.3386
11 *248:59 *248:65 27.0764
12 *248:65 *11849:A1 23
13 *248:59 *248:76 21.6493
14 *248:76 *869:DIODE 23.6214
15 *248:76 *867:DIODE 23
16 *248:31 *868:DIODE 23
17 *248:29 *866:DIODE 23
*END

*D_NET *249 0.0491493
*CONN
*I *878:DIODE I *D sky130_fd_sc_hd__diode_2
*I *876:DIODE I *D sky130_fd_sc_hd__diode_2
*I *873:DIODE I *D sky130_fd_sc_hd__diode_2
*I *871:DIODE I *D sky130_fd_sc_hd__diode_2
*I *11852:A1 I *D sky130_fd_sc_hd__mux2_1
*I *870:DIODE I *D sky130_fd_sc_hd__diode_2
*I *872:DIODE I *D sky130_fd_sc_hd__diode_2
*I *875:DIODE I *D sky130_fd_sc_hd__diode_2
*I *877:DIODE I *D sky130_fd_sc_hd__diode_2
*I *879:DIODE I *D sky130_fd_sc_hd__diode_2
*I *12134:DO[9] O *D CF_SRAM_1024x32
*CAP
1 *878:DIODE 0
2 *876:DIODE 0
3 *873:DIODE 0
4 *871:DIODE 0
5 *11852:A1 0
6 *870:DIODE 0
7 *872:DIODE 0
8 *875:DIODE 0
9 *877:DIODE 0
10 *879:DIODE 5.5555e-05
11 *12134:DO[9] 0.000160045
12 *249:48 0.000108395
13 *249:46 0.00010568
14 *249:44 0.00010568
15 *249:42 0.000255578
16 *249:40 0.000382786
17 *249:38 0.000253422
18 *249:36 0.000146747
19 *249:34 0.00010784
20 *249:32 3.44663e-05
21 *249:30 0.0047184
22 *249:18 0.0171569
23 *249:16 0.0125903
24 *249:4 8.31664e-06
25 *879:DIODE *12124:DI[9] 1.85916e-05
26 *249:16 *12134:BEN[8] 4.80465e-05
27 *249:16 *12134:DI[9] 5.6061e-05
28 *249:18 *387:50 0.00826477
29 *249:30 *362:10 2.31209e-05
30 *249:30 *387:48 0.000841603
31 *249:30 *387:50 0.00294084
32 *249:34 *11852:S 2.64616e-05
33 *249:36 *11852:S 4.67488e-05
34 *249:38 *11852:S 4.67488e-05
35 *249:40 *11852:S 9.61399e-05
36 *249:40 *12124:DI[9] 1.23353e-05
37 *249:42 *12124:DI[9] 5.36411e-05
38 *249:44 *12124:DI[9] 1.85916e-05
39 *249:46 *12124:DI[9] 1.85916e-05
40 *249:48 *12124:DI[9] 1.85916e-05
41 *132:6 *879:DIODE 9.41704e-05
42 *132:6 *249:42 4.08664e-05
43 *132:6 *249:44 8.17328e-05
44 *132:6 *249:46 8.17328e-05
45 *132:6 *249:48 8.17328e-05
46 *219:11 *249:16 4.80465e-05
*RES
1 *12134:DO[9] *249:4 0.176071
2 *12134:DO[9] *249:16 25.7239
3 *249:16 *249:18 45.0931
4 *249:18 *249:30 40.7384
5 *249:30 *249:32 15
6 *249:32 *249:34 0.621429
7 *249:34 *249:36 1.09786
8 *249:36 *249:38 1.09786
9 *249:38 *249:40 3.00357
10 *249:40 *249:42 3.00357
11 *249:42 *249:44 1.09786
12 *249:44 *249:46 1.09786
13 *249:46 *249:48 1.09786
14 *249:48 *879:DIODE 24.0979
15 *249:48 *877:DIODE 23
16 *249:46 *875:DIODE 23
17 *249:44 *872:DIODE 23
18 *249:42 *870:DIODE 23
19 *249:40 *11852:A1 23
20 *249:38 *871:DIODE 23
21 *249:36 *873:DIODE 23
22 *249:34 *876:DIODE 23
23 *249:32 *878:DIODE 23
*END

*D_NET *250 0.0572223
*CONN
*I *11823:A1 I *D sky130_fd_sc_hd__mux2_2
*I *880:DIODE I *D sky130_fd_sc_hd__diode_2
*I *12144:DO[0] O *D CF_SRAM_1024x32
*CAP
1 *11823:A1 0
2 *880:DIODE 0
3 *12144:DO[0] 0.000930266
4 *250:30 0.00029926
5 *250:15 0.000956359
6 *250:11 0.0121003
7 *250:9 0.0123734
8 *250:9 *12144:ScanInCC 0
9 *250:9 *12144:DI[0] 0
10 *250:11 *257:11 0.0184476
11 *250:11 *257:19 0.00235033
12 *250:11 *312:27 0.00250008
13 *250:11 *312:29 0.00021289
14 *250:11 *312:33 0.000274291
15 *250:11 *369:74 0.00120669
16 *250:11 *438:82 0
17 *250:11 *504:18 0.00145211
18 *250:11 *506:54 0.00169367
19 *250:15 *1044:DIODE 0.00021677
20 *250:15 *261:15 0.00083923
21 *250:30 *282:41 2.64616e-05
22 *250:30 *389:52 0.000286388
23 *250:30 *517:56 0.000286388
24 *129:10 *250:11 0.000642221
25 *135:12 *250:11 0.00012758
*RES
1 *12144:DO[0] *250:9 30.1398
2 *250:9 *250:11 303.34
3 *250:11 *250:15 26.1029
4 *250:15 *880:DIODE 23
5 *250:15 *250:30 36.2143
6 *250:30 *11823:A1 23
*END

*D_NET *251 0.0314935
*CONN
*I *11854:A1 I *D sky130_fd_sc_hd__mux2_2
*I *881:DIODE I *D sky130_fd_sc_hd__diode_2
*I *12144:DO[10] O *D CF_SRAM_1024x32
*CAP
1 *11854:A1 9.33825e-05
2 *881:DIODE 0
3 *12144:DO[10] 0.000649815
4 *251:21 5.86039e-05
5 *251:15 0.000351984
6 *251:11 0.00478391
7 *251:9 0.00523372
8 *11854:A1 *283:45 3.7122e-06
9 *251:9 *12144:DI[10] 9.52259e-05
10 *251:11 *12144:BEN[15] 2.11157e-05
11 *251:11 *253:11 0.0031183
12 *251:11 *259:11 0.00198957
13 *251:11 *275:13 0.000336285
14 *251:11 *277:11 0.0135876
15 *251:11 *278:21 0.000154526
16 *251:15 *279:19 3.68044e-05
17 *251:21 *275:13 0
18 *251:21 *635:69 8.27131e-05
19 *133:8 *11854:A1 1.61361e-05
20 *133:8 *251:15 6.76646e-05
21 *205:11 *251:11 0.000812408
*RES
1 *12144:DO[10] *251:9 25.0982
2 *251:9 *251:11 193.824
3 *251:11 *251:15 18.48
4 *251:15 *251:21 31.2014
5 *251:21 *881:DIODE 23
6 *251:15 *11854:A1 24.0979
*END

*D_NET *252 0.0320256
*CONN
*I *11857:A1 I *D sky130_fd_sc_hd__mux2_2
*I *882:DIODE I *D sky130_fd_sc_hd__diode_2
*I *12144:DO[11] O *D CF_SRAM_1024x32
*CAP
1 *11857:A1 0.000180552
2 *882:DIODE 0.00016511
3 *12144:DO[11] 0.000739282
4 *252:14 0.00373703
5 *252:12 0.00412233
6 *252:4 8.31664e-06
7 *882:DIODE *261:11 0.000224204
8 *882:DIODE *635:100 6.63698e-05
9 *882:DIODE *635:109 7.75329e-06
10 *11857:A1 *284:66 3.7122e-06
11 *252:12 *12144:DI[11] 0.000300803
12 *252:14 *11848:A1 0.000358979
13 *252:14 *261:11 0.0111866
14 *252:14 *280:11 0.0109033
15 *252:14 *635:109 2.1199e-05
*RES
1 *12144:DO[11] *252:4 0.176071
2 *12144:DO[11] *252:12 26.5793
3 *252:12 *252:14 150.51
4 *252:14 *882:DIODE 42.06
5 *252:14 *11857:A1 40.0507
*END

*D_NET *253 0.0222332
*CONN
*I *883:DIODE I *D sky130_fd_sc_hd__diode_2
*I *11860:A1 I *D sky130_fd_sc_hd__mux2_2
*I *12144:DO[12] O *D CF_SRAM_1024x32
*CAP
1 *883:DIODE 0
2 *11860:A1 0
3 *12144:DO[12] 0.00051455
4 *253:27 0.000176839
5 *253:19 0.000333198
6 *253:15 0.0031301
7 *253:13 0.00297374
8 *253:11 0.00203865
9 *253:9 0.0025532
10 *253:9 *12144:DI[12] 0.000275486
11 *253:9 *355:14 0.000175903
12 *253:11 *12144:BEN[15] 2.11157e-05
13 *253:11 *259:11 0.00651746
14 *253:15 *287:26 0.000294671
15 *253:27 *285:41 5.50106e-05
16 *253:27 *286:19 5.50106e-05
17 *137:10 *253:27 0
18 *251:11 *253:11 0.0031183
*RES
1 *12144:DO[12] *253:9 24.1039
2 *253:9 *253:11 86.0679
3 *253:11 *253:13 15
4 *253:13 *253:15 50.4082
5 *253:15 *253:19 2.5375
6 *253:19 *253:27 33.2314
7 *253:27 *11860:A1 23
8 *253:19 *883:DIODE 23
*END

*D_NET *254 0.0146362
*CONN
*I *11863:A1 I *D sky130_fd_sc_hd__mux2_2
*I *12144:DO[13] O *D CF_SRAM_1024x32
*CAP
1 *11863:A1 0
2 *12144:DO[13] 0.00299908
3 *254:30 0.00424121
4 *254:20 0.00724029
5 *254:4 0
6 *254:20 *12144:DI[13] 3.77997e-05
7 *254:20 *281:11 2.11066e-05
8 *254:20 *557:425 0
9 *254:30 *256:28 9.67453e-05
*RES
1 *12144:DO[13] *254:4 0.156154
2 *12144:DO[13] *254:20 41.0187
3 *254:20 *254:30 45.1039
4 *254:30 *11863:A1 38
*END

*D_NET *255 0.0179211
*CONN
*I *11866:A1 I *D sky130_fd_sc_hd__mux2_2
*I *12144:DO[14] O *D CF_SRAM_1024x32
*CAP
1 *11866:A1 0
2 *12144:DO[14] 4.79972e-05
3 *255:13 0.00275875
4 *255:11 0.00275875
5 *255:9 0.00232164
6 *255:7 0.00236964
7 *255:7 *12144:BEN[13] 0
8 *255:7 *12144:DI[14] 2.33645e-05
9 *255:9 *281:11 0.00504121
10 *255:9 *638:156 0.000783568
11 *255:13 *11866:A0 0.000152787
12 *255:13 *287:26 0.000657801
13 *255:13 *635:122 0.00100561
*RES
1 *12144:DO[14] *255:7 16.0254
2 *255:7 *255:9 66.0371
3 *255:9 *255:11 15
4 *255:11 *255:13 42.0707
5 *255:13 *11866:A1 23
*END

*D_NET *256 0.0163382
*CONN
*I *11869:A1 I *D sky130_fd_sc_hd__mux2_4
*I *12144:DO[15] O *D CF_SRAM_1024x32
*CAP
1 *11869:A1 0
2 *12144:DO[15] 0.0030692
3 *256:32 0.00138495
4 *256:28 0.00414783
5 *256:22 0.00583207
6 *256:4 0
7 *256:22 *12144:BEN[14] 0
8 *256:22 *12144:DI[15] 0
9 *256:22 *272:11 2.11066e-05
10 *256:22 *278:11 2.11066e-05
11 *256:22 *360:92 2.81221e-05
12 *256:22 *557:263 0
13 *256:28 *285:23 0.00173703
14 *256:32 *288:32 0
15 *143:10 *256:32 0
16 *254:30 *256:28 9.67453e-05
*RES
1 *12144:DO[15] *256:4 0.225556
2 *12144:DO[15] *256:22 43.6845
3 *256:22 *256:28 24.8573
4 *256:28 *256:32 40.3232
5 *256:32 *11869:A1 23
*END

*D_NET *257 0.0641439
*CONN
*I *11872:A1 I *D sky130_fd_sc_hd__mux2_2
*I *884:DIODE I *D sky130_fd_sc_hd__diode_2
*I *12144:DO[16] O *D CF_SRAM_1024x32
*CAP
1 *11872:A1 0.000353687
2 *884:DIODE 0
3 *12144:DO[16] 0.000487752
4 *257:31 0.000367586
5 *257:23 0.00171993
6 *257:19 0.00211413
7 *257:11 0.00863619
8 *257:9 0.00800847
9 *11872:A1 *957:DIODE 2.02872e-05
10 *11872:A1 *289:46 6.70361e-05
11 *11872:A1 *289:48 4.67488e-05
12 *11872:A1 *289:50 4.67488e-05
13 *257:9 *12144:ScanInDR 0.000612062
14 *257:9 *12144:DI[16] 0.000763873
15 *257:11 *12144:AD[2] 2.15048e-05
16 *257:11 *12144:AD[4] 1.09886e-05
17 *257:11 *12144:DI[12] 8.21456e-06
18 *257:11 *273:11 0.00196921
19 *257:11 *280:11 0
20 *257:11 *284:30 0.000424461
21 *257:11 *355:8 0.0118089
22 *257:11 *369:74 0.00113324
23 *257:11 *504:18 0.000973382
24 *257:11 *635:118 0.000176799
25 *257:19 *284:30 0.00193756
26 *257:19 *369:74 0.000104065
27 *257:23 *957:DIODE 2.64616e-05
28 *257:23 *276:23 9.41704e-05
29 *257:31 *371:70 0.000213311
30 *257:31 *417:16 4.46015e-05
31 *257:31 *636:47 0.000112294
32 *257:31 *636:66 0.000113135
33 *129:10 *257:19 0.000929144
34 *250:11 *257:11 0.0184476
35 *250:11 *257:19 0.00235033
*RES
1 *12144:DO[16] *257:9 30.4321
2 *257:9 *257:11 281.352
3 *257:11 *257:19 43.5932
4 *257:19 *257:23 25.6264
5 *257:23 *257:31 35.9657
6 *257:31 *884:DIODE 23
7 *257:23 *11872:A1 26.9564
*END

*D_NET *258 0.0729045
*CONN
*I *11875:A1 I *D sky130_fd_sc_hd__mux2_2
*I *886:DIODE I *D sky130_fd_sc_hd__diode_2
*I *12144:DO[17] O *D CF_SRAM_1024x32
*CAP
1 *11875:A1 0
2 *886:DIODE 0
3 *12144:DO[17] 0.00031273
4 *258:38 0.000391232
5 *258:23 0.00246277
6 *258:19 0.00288404
7 *258:17 0.00105772
8 *258:11 0.00778927
9 *258:9 0.00785679
10 *258:9 *12144:WLBI 0
11 *258:9 *12144:DI[17] 8.82386e-05
12 *258:9 *339:8 0.000521102
13 *258:9 *426:85 1.3523e-05
14 *258:11 *259:11 0.00124393
15 *258:11 *264:11 0.00768455
16 *258:11 *266:11 7.76364e-06
17 *258:11 *267:11 0
18 *258:11 *270:11 0.0188535
19 *258:11 *271:11 0
20 *258:11 *272:11 0
21 *258:11 *355:16 0.00365183
22 *258:17 *278:17 0.000172885
23 *258:19 *12124:DI[25] 2.11157e-05
24 *258:19 *279:17 0.00143227
25 *258:19 *281:15 0.000403873
26 *258:19 *360:76 0.00395204
27 *258:23 *11972:A 0.000213782
28 *258:23 *502:8 0.000132311
29 *258:38 *290:76 5.3304e-05
30 *117:14 *258:38 5.21191e-05
31 *123:6 *258:17 0
32 *123:18 *258:19 0.00173898
33 *137:16 *258:11 3.72639e-05
34 *139:16 *258:11 0.00441144
35 *143:18 *258:11 0.00443726
36 *147:10 *258:38 0.000218416
37 *201:7 *258:23 0.000520378
38 *201:7 *258:38 2.81066e-05
39 *204:19 *258:19 0.00025989
*RES
1 *12144:DO[17] *258:9 22.7886
2 *258:9 *258:11 338.906
3 *258:11 *258:17 33.9564
4 *258:17 *258:19 51.2057
5 *258:19 *258:23 41.825
6 *258:23 *886:DIODE 23
7 *258:23 *258:38 36.09
8 *258:38 *11875:A1 23
*END

*D_NET *259 0.0600601
*CONN
*I *887:DIODE I *D sky130_fd_sc_hd__diode_2
*I *11878:A1 I *D sky130_fd_sc_hd__mux2_4
*I *12144:DO[18] O *D CF_SRAM_1024x32
*CAP
1 *887:DIODE 4.53694e-05
2 *11878:A1 0
3 *12144:DO[18] 0.000512144
4 *259:33 0.000256869
5 *259:23 0.000806544
6 *259:17 0.00189965
7 *259:11 0.0111162
8 *259:9 0.010233
9 *887:DIODE *293:25 4.19304e-05
10 *259:9 *12144:DI[18] 0
11 *259:11 *270:11 0.0195436
12 *259:11 *277:11 0
13 *259:11 *636:89 0
14 *259:17 *277:15 0
15 *259:17 *278:17 6.17437e-06
16 *259:17 *309:72 2.13952e-05
17 *259:23 *293:25 0.000218772
18 *259:23 *417:10 0.000308883
19 *259:23 *509:68 0.00041834
20 *259:23 *636:47 5.20172e-05
21 *259:33 *970:DIODE 5.25011e-05
22 *259:33 *11878:A0 9.95589e-06
23 *259:33 *11878:S 0.000247463
24 *259:33 *291:25 1.21972e-05
25 *259:33 *389:52 9.9437e-05
26 *259:33 *517:56 9.9437e-05
27 *139:16 *259:11 0.00430732
28 *251:11 *259:11 0.00198957
29 *253:11 *259:11 0.00651746
30 *258:11 *259:11 0.00124393
*RES
1 *12144:DO[18] *259:9 24.0729
2 *259:9 *259:11 346.654
3 *259:11 *259:17 45.8671
4 *259:17 *259:23 24.7357
5 *259:23 *259:33 34.93
6 *259:33 *11878:A1 23
7 *259:23 *887:DIODE 23.6214
*END

*D_NET *260 0.0594337
*CONN
*I *888:DIODE I *D sky130_fd_sc_hd__diode_2
*I *11881:A1 I *D sky130_fd_sc_hd__mux2_4
*I *12144:DO[19] O *D CF_SRAM_1024x32
*CAP
1 *888:DIODE 0
2 *11881:A1 0.000211231
3 *12144:DO[19] 0.00265867
4 *260:19 0.00226849
5 *260:15 0.00287698
6 *260:13 0.000819729
7 *260:11 0.00795875
8 *260:9 0.00795875
9 *260:7 0.00265867
10 *11881:A1 *11881:A0 9.84851e-05
11 *11881:A1 *636:72 0.000441978
12 *260:7 *12144:DI[19] 9.83101e-06
13 *260:7 *443:76 0.000125621
14 *260:11 *262:11 0.0201936
15 *260:15 *262:15 0.00559024
16 *260:15 *267:15 0.00556271
17 *260:19 *292:25 0
*RES
1 *12144:DO[19] *260:7 43.2514
2 *260:7 *260:9 15
3 *260:9 *260:11 260.026
4 *260:11 *260:13 15
5 *260:13 *260:15 60.6514
6 *260:15 *260:19 49.655
7 *260:19 *11881:A1 43.7586
8 *260:19 *888:DIODE 38
*END

*D_NET *261 0.0551356
*CONN
*I *889:DIODE I *D sky130_fd_sc_hd__diode_2
*I *11827:A1 I *D sky130_fd_sc_hd__mux2_2
*I *12144:DO[1] O *D CF_SRAM_1024x32
*CAP
1 *889:DIODE 0
2 *11827:A1 0
3 *12144:DO[1] 0.000628315
4 *261:23 0.000267594
5 *261:15 0.00104753
6 *261:11 0.00793107
7 *261:9 0.00777944
8 *261:9 *12144:BEN[0] 0
9 *261:9 *12144:DI[1] 8.8477e-05
10 *261:11 *275:13 0.0206069
11 *261:11 *280:11 0.00120048
12 *261:11 *356:8 0.00162943
13 *261:11 *635:78 0
14 *261:11 *635:100 0
15 *261:11 *636:89 0.00087207
16 *261:15 *927:DIODE 1.59094e-05
17 *261:23 *293:29 0.000353615
18 *261:23 *293:55 5.56279e-05
19 *261:23 *293:69 5.3304e-05
20 *261:23 *417:10 0.000355725
21 *882:DIODE *261:11 0.000224204
22 *250:15 *261:15 0.00083923
23 *252:14 *261:11 0.0111866
*RES
1 *12144:DO[1] *261:9 26.2874
2 *261:9 *261:11 292.424
3 *261:11 *261:15 28.485
4 *261:15 *261:23 36.1729
5 *261:23 *11827:A1 23
6 *261:15 *889:DIODE 23
*END

*D_NET *262 0.0790703
*CONN
*I *11884:A1 I *D sky130_fd_sc_hd__mux2_4
*I *890:DIODE I *D sky130_fd_sc_hd__diode_2
*I *12144:DO[20] O *D CF_SRAM_1024x32
*CAP
1 *11884:A1 0.000205605
2 *890:DIODE 4.75256e-05
3 *12144:DO[20] 0.00258279
4 *262:19 0.00168808
5 *262:15 0.00296785
6 *262:13 0.0015329
7 *262:11 0.00399987
8 *262:9 0.00399987
9 *262:7 0.00258279
10 *890:DIODE *637:39 7.28836e-05
11 *11884:A1 *11884:A0 5.56356e-05
12 *11884:A1 *637:49 2.9205e-05
13 *262:7 *12144:DI[20] 9.83101e-06
14 *262:7 *449:84 0.000125621
15 *262:11 *263:11 0.0211018
16 *262:15 *267:15 0.00145518
17 *262:15 *274:18 0.00830767
18 *262:19 *294:25 0.0021169
19 *262:19 *294:29 0.000264347
20 *262:19 *637:39 1.2153e-05
21 *3:41 *11884:A1 0.000103307
22 *177:16 *11884:A1 2.46906e-05
23 *260:11 *262:11 0.0201936
24 *260:15 *262:15 0.00559024
*RES
1 *12144:DO[20] *262:7 42.7543
2 *262:7 *262:9 15
3 *262:9 *262:11 271.647
4 *262:11 *262:13 15
5 *262:13 *262:15 90.19
6 *262:15 *262:19 48.4225
7 *262:19 *890:DIODE 39.0254
8 *262:19 *11884:A1 41.3661
*END

*D_NET *263 0.0826567
*CONN
*I *11887:A1 I *D sky130_fd_sc_hd__mux2_4
*I *891:DIODE I *D sky130_fd_sc_hd__diode_2
*I *12144:DO[21] O *D CF_SRAM_1024x32
*CAP
1 *11887:A1 0
2 *891:DIODE 0
3 *12144:DO[21] 0.00254432
4 *263:40 0.000210138
5 *263:23 0.000409321
6 *263:19 0.00251201
7 *263:15 0.00621883
8 *263:13 0.003906
9 *263:11 0.00475944
10 *263:9 0.00475944
11 *263:7 0.00254432
12 *263:7 *12144:DI[21] 9.83101e-06
13 *263:7 *454:72 0.000125621
14 *263:11 *265:11 0.0222302
15 *263:15 *268:15 0.00960543
16 *263:15 *285:23 0.00118573
17 *263:23 *637:64 0.000219094
18 *263:40 *984:DIODE 5.50106e-05
19 *263:40 *11887:S 2.02517e-05
20 *263:40 *637:64 0.000116641
21 *3:41 *263:40 9.84851e-05
22 *177:16 *263:40 2.4754e-05
23 *262:11 *263:11 0.0211018
*RES
1 *12144:DO[21] *263:7 42.2571
2 *263:7 *263:9 15
3 *263:9 *263:11 289.606
4 *263:11 *263:13 15
5 *263:13 *263:15 105.436
6 *263:15 *263:19 42.6121
7 *263:19 *263:23 17.5271
8 *263:23 *891:DIODE 23
9 *263:23 *263:40 34.2464
10 *263:40 *11887:A1 23
*END

*D_NET *264 0.0780861
*CONN
*I *11890:A1 I *D sky130_fd_sc_hd__mux2_4
*I *892:DIODE I *D sky130_fd_sc_hd__diode_2
*I *12144:DO[22] O *D CF_SRAM_1024x32
*CAP
1 *11890:A1 0
2 *892:DIODE 0.000233239
3 *12144:DO[22] 0.000432984
4 *264:19 0.0018736
5 *264:15 0.00714749
6 *264:13 0.00550714
7 *264:11 0.00492444
8 *264:9 0.00535743
9 *892:DIODE *265:35 0.000145236
10 *892:DIODE *296:31 2.24366e-06
11 *264:9 *12144:BEN[21] 0
12 *264:9 *12144:DI[22] 0
13 *264:11 *266:11 0.0226106
14 *264:11 *270:11 0.00145266
15 *264:11 *355:16 0.00365407
16 *264:11 *382:48 0.000824069
17 *264:15 *266:15 0.0146891
18 *264:15 *292:21 0.000419937
19 *264:15 *294:21 0.000701082
20 *264:19 *296:27 0.000356278
21 *264:19 *296:31 6.99854e-05
22 *157:10 *892:DIODE 0
23 *258:11 *264:11 0.00768455
*RES
1 *12144:DO[22] *264:9 22.6021
2 *264:9 *264:11 291.015
3 *264:11 *264:13 15
4 *264:13 *264:15 161.654
5 *264:15 *264:19 45.7814
6 *264:19 *892:DIODE 41.8321
7 *264:19 *11890:A1 38
*END

*D_NET *265 0.0916105
*CONN
*I *11893:A1 I *D sky130_fd_sc_hd__mux2_4
*I *893:DIODE I *D sky130_fd_sc_hd__diode_2
*I *12144:DO[23] O *D CF_SRAM_1024x32
*CAP
1 *11893:A1 0
2 *893:DIODE 0
3 *12144:DO[23] 0.00249791
4 *265:48 0.000235514
5 *265:35 0.00116407
6 *265:25 0.00297544
7 *265:21 0.00214939
8 *265:15 0.00360391
9 *265:13 0.00350139
10 *265:11 0.00672601
11 *265:9 0.00672601
12 *265:7 0.00249791
13 *265:7 *12144:BEN[22] 0
14 *265:7 *12144:DI[23] 2.65663e-05
15 *265:7 *462:84 0.000125621
16 *265:11 *268:11 0.0239883
17 *265:11 *269:14 0.000835215
18 *265:15 *269:18 0.00734559
19 *265:35 *269:24 0
20 *265:35 *269:28 0.0015714
21 *265:35 *295:33 0
22 *265:48 *269:28 0.000173898
23 *265:48 *297:36 1.01436e-05
24 *892:DIODE *265:35 0.000145236
25 *159:10 *265:48 0
26 *177:35 *265:48 0
27 *185:22 *265:25 0.00308073
28 *263:11 *265:11 0.0222302
*RES
1 *12144:DO[23] *265:7 41.7393
2 *265:7 *265:9 15
3 *265:9 *265:11 337.146
4 *265:11 *265:13 15
5 *265:13 *265:15 80.6614
6 *265:15 *265:21 31.5536
7 *265:21 *265:25 48.9714
8 *265:25 *265:35 35.0929
9 *265:35 *893:DIODE 23
10 *265:35 *265:48 34.6607
11 *265:48 *11893:A1 23
*END

*D_NET *266 0.102859
*CONN
*I *11896:A1 I *D sky130_fd_sc_hd__mux2_4
*I *894:DIODE I *D sky130_fd_sc_hd__diode_2
*I *895:DIODE I *D sky130_fd_sc_hd__diode_2
*I *12144:DO[24] O *D CF_SRAM_1024x32
*CAP
1 *11896:A1 7.88667e-05
2 *894:DIODE 0
3 *895:DIODE 0.000240156
4 *12144:DO[24] 0.000377609
5 *266:32 7.88667e-05
6 *266:19 0.00172922
7 *266:15 0.00470523
8 *266:13 0.00321617
9 *266:11 0.0048749
10 *266:9 0.00525251
11 *895:DIODE *269:32 9.84851e-05
12 *895:DIODE *298:29 9.48381e-06
13 *11896:A1 *991:DIODE 0.000140259
14 *11896:A1 *11896:A0 9.84851e-05
15 *11896:A1 *286:15 0.000269781
16 *11896:A1 *637:109 3.06608e-05
17 *266:9 *12144:DI[24] 0
18 *266:11 *267:11 0.024376
19 *266:11 *270:11 0
20 *266:11 *382:48 0.00103327
21 *266:15 *267:15 0.0167828
22 *266:15 *292:21 0.00148195
23 *266:19 *298:25 0.000596995
24 *266:19 *298:29 7.98155e-05
25 *11924:A *266:19 0
26 *258:11 *266:11 7.76364e-06
27 *264:11 *266:11 0.0226106
28 *264:15 *266:15 0.0146891
*RES
1 *12144:DO[24] *266:9 22.1671
2 *266:9 *266:11 313.904
3 *266:11 *266:13 15
4 *266:13 *266:15 184.523
5 *266:15 *266:19 45.0771
6 *266:19 *895:DIODE 42.06
7 *266:19 *266:32 15
8 *266:32 *894:DIODE 23
9 *266:32 *11896:A1 26.5007
*END

*D_NET *267 0.106342
*CONN
*I *11899:A1 I *D sky130_fd_sc_hd__mux2_4
*I *897:DIODE I *D sky130_fd_sc_hd__diode_2
*I *12144:DO[25] O *D CF_SRAM_1024x32
*CAP
1 *11899:A1 0.000140293
2 *897:DIODE 0.000220366
3 *12144:DO[25] 0.000341097
4 *267:19 0.00259349
5 *267:15 0.00781621
6 *267:13 0.00558338
7 *267:11 0.0048534
8 *267:9 0.00519449
9 *897:DIODE *269:34 5.56279e-05
10 *11899:A1 *11899:A0 2.64616e-05
11 *11899:A1 *637:122 0.00021677
12 *267:9 *12144:DI[25] 0
13 *267:11 *270:11 0
14 *267:11 *271:11 0.0252782
15 *267:11 *382:48 0.00103905
16 *267:15 *271:15 0.000214558
17 *267:15 *274:18 0.00247872
18 *267:15 *292:21 0.00211329
19 *258:11 *267:11 0
20 *260:15 *267:15 0.00556271
21 *262:15 *267:15 0.00145518
22 *266:11 *267:11 0.024376
23 *266:15 *267:15 0.0167828
*RES
1 *12144:DO[25] *267:9 21.7114
2 *267:9 *267:11 325.525
3 *267:11 *267:13 15
4 *267:13 *267:15 206.439
5 *267:15 *267:19 45.0771
6 *267:19 *897:DIODE 40.8793
7 *267:19 *11899:A1 40.5271
*END

*D_NET *268 0.111777
*CONN
*I *11902:A1 I *D sky130_fd_sc_hd__mux2_4
*I *898:DIODE I *D sky130_fd_sc_hd__diode_2
*I *12144:DO[26] O *D CF_SRAM_1024x32
*CAP
1 *11902:A1 0
2 *898:DIODE 0.000240699
3 *12144:DO[26] 0.00240876
4 *268:19 0.001547
5 *268:15 0.00599725
6 *268:13 0.00469095
7 *268:11 0.00627071
8 *268:9 0.00627071
9 *268:7 0.00240876
10 *898:DIODE *11902:A0 2.76611e-06
11 *898:DIODE *269:34 0.00014428
12 *268:7 *12144:DI[26] 2.65663e-05
13 *268:7 *476:64 0.000125621
14 *268:11 *269:14 0.0265935
15 *268:15 *270:15 0.0181319
16 *268:15 *285:23 0.00147059
17 *268:15 *296:25 0.00120184
18 *268:19 *11902:A0 6.42999e-05
19 *268:19 *300:25 6.10551e-06
20 *11924:A *268:15 0.000581153
21 *163:16 *898:DIODE 0
22 *263:15 *268:15 0.00960543
23 *265:11 *268:11 0.0239883
*RES
1 *12144:DO[26] *268:7 41.3716
2 *268:7 *268:9 15
3 *268:9 *268:11 346.301
4 *268:11 *268:13 15
5 *268:13 *268:15 199.292
6 *268:15 *268:19 37.33
7 *268:19 *898:DIODE 41.8321
8 *268:19 *11902:A1 38
*END

*D_NET *269 0.114501
*CONN
*I *11905:A1 I *D sky130_fd_sc_hd__mux2_4
*I *899:DIODE I *D sky130_fd_sc_hd__diode_2
*I *12144:DO[27] O *D CF_SRAM_1024x32
*CAP
1 *11905:A1 0
2 *899:DIODE 0
3 *12144:DO[27] 0.00251746
4 *269:47 0.00027814
5 *269:34 0.00312066
6 *269:32 0.00476086
7 *269:28 0.00256046
8 *269:24 0.00213068
9 *269:18 0.00273466
10 *269:16 0.0012461
11 *269:14 0.00737671
12 *269:12 0.00737671
13 *269:10 0.00251746
14 *269:4 0
15 *269:10 *12144:DI[27] 2.25988e-05
16 *269:14 *274:14 0.026949
17 *269:14 *365:74 0
18 *269:14 *365:78 0
19 *269:18 *287:26 0.000594108
20 *269:34 *474:26 0.000504027
21 *269:47 *11905:A0 2.24366e-06
22 *895:DIODE *269:32 9.84851e-05
23 *897:DIODE *269:34 5.56279e-05
24 *898:DIODE *269:34 0.00014428
25 *159:14 *269:32 0.000222511
26 *167:10 *269:47 0
27 *177:8 *269:28 0.000275256
28 *177:8 *269:32 0.00012359
29 *177:16 *269:24 0.00206521
30 *177:16 *269:28 0.00226635
31 *177:18 *269:18 0.0075214
32 *177:18 *269:24 0.000438017
33 *185:18 *269:14 7.83309e-05
34 *265:11 *269:14 0.000835215
35 *265:15 *269:18 0.00734559
36 *265:35 *269:24 0
37 *265:35 *269:28 0.0015714
38 *265:48 *269:28 0.000173898
39 *268:11 *269:14 0.0265935
*RES
1 *12144:DO[27] *269:4 0.25375
2 *12144:DO[27] *269:10 40.6414
3 *269:10 *269:12 15
4 *269:12 *269:14 382.572
5 *269:14 *269:16 15
6 *269:16 *269:18 82.5671
7 *269:18 *269:24 33.5364
8 *269:24 *269:28 28.6271
9 *269:28 *269:32 25.6546
10 *269:32 *269:34 47.0732
11 *269:34 *899:DIODE 23
12 *269:34 *269:47 34.6607
13 *269:47 *11905:A1 23
*END

*D_NET *270 0.118989
*CONN
*I *11908:A1 I *D sky130_fd_sc_hd__mux2_4
*I *900:DIODE I *D sky130_fd_sc_hd__diode_2
*I *12144:DO[28] O *D CF_SRAM_1024x32
*CAP
1 *11908:A1 0
2 *900:DIODE 0.000266263
3 *12144:DO[28] 0.000461351
4 *270:19 0.00158316
5 *270:15 0.00712474
6 *270:13 0.00580784
7 *270:11 0.009278
8 *270:9 0.00973935
9 *900:DIODE *11908:A0 2.24366e-06
10 *270:11 *271:11 0
11 *270:15 *273:15 0.0235226
12 *270:15 *285:23 0.0031924
13 *270:19 *998:DIODE 5.58873e-06
14 *270:19 *11908:A0 2.35765e-05
15 *258:11 *270:11 0.0188535
16 *259:11 *270:11 0.0195436
17 *264:11 *270:11 0.00145266
18 *266:11 *270:11 0
19 *267:11 *270:11 0
20 *268:15 *270:15 0.0181319
*RES
1 *12144:DO[28] *270:9 23.4514
2 *270:9 *270:11 368.134
3 *270:11 *270:13 15
4 *270:13 *270:15 265.039
5 *270:15 *270:19 36.9779
6 *270:19 *900:DIODE 41.8321
7 *270:19 *11908:A1 38
*END

*D_NET *271 0.107356
*CONN
*I *11911:A1 I *D sky130_fd_sc_hd__mux2_4
*I *901:DIODE I *D sky130_fd_sc_hd__diode_2
*I *12144:DO[29] O *D CF_SRAM_1024x32
*CAP
1 *11911:A1 0
2 *901:DIODE 0.000250909
3 *12144:DO[29] 0.000306515
4 *271:19 0.00189762
5 *271:15 0.0124156
6 *271:13 0.0107689
7 *271:11 0.00969701
8 *271:9 0.0100035
9 *901:DIODE *1000:DIODE 5.01247e-05
10 *901:DIODE *303:35 2.76611e-06
11 *271:9 *12144:DI[29] 0
12 *271:11 *12144:BEN[23] 0
13 *271:11 *12144:TM 0
14 *271:11 *12144:BEN[0] 0
15 *271:11 *272:11 0.0130261
16 *271:11 *382:48 0.000911107
17 *271:11 *560:234 0
18 *271:11 *638:325 0
19 *271:11 *638:337 0
20 *271:11 *638:349 0
21 *271:11 *639:379 0
22 *271:15 *274:18 0.0224628
23 *271:19 *303:33 5.58152e-06
24 *271:19 *303:35 6.45824e-05
25 *171:10 *901:DIODE 0
26 *258:11 *271:11 0
27 *267:11 *271:11 0.0252782
28 *267:15 *271:15 0.000214558
29 *270:11 *271:11 0
*RES
1 *12144:DO[29] *271:9 20.9657
2 *271:9 *271:11 372.36
3 *271:11 *271:13 15
4 *271:13 *271:15 279.809
5 *271:15 *271:19 43.6686
6 *271:19 *901:DIODE 41.8321
7 *271:19 *11911:A1 38
*END

*D_NET *272 0.0523499
*CONN
*I *11830:A1 I *D sky130_fd_sc_hd__mux2_2
*I *902:DIODE I *D sky130_fd_sc_hd__diode_2
*I *12144:DO[2] O *D CF_SRAM_1024x32
*CAP
1 *11830:A1 8.30697e-05
2 *902:DIODE 0.000129082
3 *12144:DO[2] 0.000244689
4 *272:27 0.0015652
5 *272:21 0.00171117
6 *272:17 0.000460818
7 *272:11 0.00628817
8 *272:9 0.00643017
9 *902:DIODE *293:35 0.000317576
10 *902:DIODE *371:70 0.000315305
11 *11830:A1 *11830:S 2.64616e-05
12 *11830:A1 *304:54 8.06804e-06
13 *272:9 *12144:DI[2] 0
14 *272:11 *12144:BEN[14] 2.11066e-05
15 *272:11 *12144:DI[10] 2.11157e-05
16 *272:11 *276:11 0.000615725
17 *272:11 *278:11 0.00406754
18 *272:11 *360:76 0.00929575
19 *272:11 *360:90 0.000103868
20 *272:11 *382:48 0.000788358
21 *272:11 *560:210 0
22 *272:11 *560:222 0
23 *272:11 *560:234 0
24 *272:11 *638:156 0.000457942
25 *272:21 *382:48 0.000150324
26 *272:27 *1008:DIODE 9.41704e-05
27 *272:27 *11830:S 0.000135037
28 *272:27 *293:35 7.68539e-05
29 *272:27 *304:54 8.17328e-05
30 *272:27 *304:56 8.17328e-05
31 *272:27 *371:70 8.58779e-05
32 *272:27 *636:32 1.85916e-05
33 *119:6 *272:27 0
34 *123:6 *272:17 6.70361e-05
35 *127:6 *272:27 3.02941e-05
36 *137:16 *272:11 0
37 *137:16 *272:21 0.00148364
38 *141:16 *272:11 0.00203145
39 *141:16 *272:21 0.00148587
40 *206:11 *272:11 0.000528803
41 *256:22 *272:11 2.11066e-05
42 *258:11 *272:11 0
43 *271:11 *272:11 0.0130261
*RES
1 *12144:DO[2] *272:9 19.6711
2 *272:9 *272:11 269.182
3 *272:11 *272:17 31.5743
4 *272:17 *272:21 34.5129
5 *272:21 *272:27 35.88
6 *272:27 *902:DIODE 42.3707
7 *272:27 *11830:A1 39.0979
*END

*D_NET *273 0.121729
*CONN
*I *11914:A1 I *D sky130_fd_sc_hd__mux2_4
*I *903:DIODE I *D sky130_fd_sc_hd__diode_2
*I *12144:DO[30] O *D CF_SRAM_1024x32
*CAP
1 *11914:A1 0
2 *903:DIODE 0.000231503
3 *12144:DO[30] 0.000768817
4 *273:19 0.00148772
5 *273:15 0.0188527
6 *273:13 0.0175965
7 *273:11 0.0146393
8 *273:9 0.0154081
9 *903:DIODE *1010:DIODE 5.01247e-05
10 *903:DIODE *305:27 2.76611e-06
11 *903:DIODE *432:8 7.88926e-05
12 *273:9 *12144:DI[30] 0
13 *273:11 *12144:DI[12] 2.31116e-05
14 *273:11 *280:11 0.000515798
15 *273:11 *355:8 0.00593906
16 *273:11 *356:8 0.0153465
17 *273:11 *504:18 0.000992348
18 *273:15 *285:23 0.00422646
19 *273:19 *305:25 5.58152e-06
20 *273:19 *305:27 7.16775e-05
21 *173:10 *903:DIODE 0
22 *257:11 *273:11 0.00196921
23 *270:15 *273:15 0.0235226
*RES
1 *12144:DO[30] *273:9 29.5621
2 *273:9 *273:11 390.671
3 *273:11 *273:13 15
4 *273:13 *273:15 280.761
5 *273:15 *273:19 36.6257
6 *273:19 *903:DIODE 41.8321
7 *273:19 *11914:A1 38
*END

*D_NET *274 0.110528
*CONN
*I *11917:A1 I *D sky130_fd_sc_hd__mux2_4
*I *904:DIODE I *D sky130_fd_sc_hd__diode_2
*I *12144:DO[31] O *D CF_SRAM_1024x32
*CAP
1 *11917:A1 8.62941e-05
2 *904:DIODE 0.000100073
3 *12144:DO[31] 0.00233371
4 *274:22 0.00195497
5 *274:18 0.00880875
6 *274:16 0.00704014
7 *274:14 0.0133044
8 *274:12 0.0133044
9 *274:10 0.00232588
10 *274:4 7.82742e-06
11 *904:DIODE *1012:DIODE 0.00014041
12 *904:DIODE *306:35 2.55642e-05
13 *11917:A1 *11917:A0 9.84851e-05
14 *11917:A1 *432:8 0
15 *11917:A1 *432:10 0.000182826
16 *274:10 *12144:DI[31] 3.06338e-05
17 *274:10 *498:55 0.00035296
18 *274:14 *309:19 0
19 *274:14 *365:78 0
20 *274:22 *306:33 3.78814e-05
21 *274:22 *306:35 0.000194318
22 *262:15 *274:18 0.00830767
23 *267:15 *274:18 0.00247872
24 *269:14 *274:14 0.026949
25 *271:15 *274:18 0.0224628
*RES
1 *12144:DO[31] *274:4 0.165714
2 *12144:DO[31] *274:10 40.6414
3 *274:10 *274:12 15
4 *274:12 *274:14 395.954
5 *274:14 *274:16 15
6 *274:16 *274:18 269.327
7 *274:18 *274:22 46.8379
8 *274:22 *904:DIODE 40.2579
9 *274:22 *11917:A1 40.5479
*END

*D_NET *275 0.0544827
*CONN
*I *11833:A1 I *D sky130_fd_sc_hd__mux2_2
*I *905:DIODE I *D sky130_fd_sc_hd__diode_2
*I *12144:DO[3] O *D CF_SRAM_1024x32
*CAP
1 *11833:A1 8.24618e-05
2 *905:DIODE 0.000135168
3 *12144:DO[3] 0.000590324
4 *275:21 0.000671656
5 *275:13 0.00586101
6 *275:11 0.00599731
7 *905:DIODE *307:55 0.000109739
8 *905:DIODE *395:58 0.00016441
9 *905:DIODE *415:56 6.17437e-06
10 *905:DIODE *438:74 2.3529e-05
11 *11833:A1 *307:49 5.23175e-05
12 *11833:A1 *307:64 5.56356e-05
13 *11833:A1 *636:32 5.56279e-05
14 *275:11 *12144:DI[3] 0.0002881
15 *275:13 *277:11 0.00257059
16 *275:13 *635:78 0
17 *275:13 *636:89 0.0144072
18 *275:21 *279:19 0.000120804
19 *275:21 *395:58 0.000392602
20 *275:21 *438:74 0.000143368
21 *275:21 *635:63 0.000204332
22 *275:21 *635:69 0.00051428
23 *275:21 *636:32 0.000113153
24 *119:6 *11833:A1 4.21158e-05
25 *127:6 *275:21 0.000937566
26 *205:11 *275:13 0
27 *251:11 *275:13 0.000336285
28 *251:21 *275:13 0
29 *261:11 *275:13 0.0206069
*RES
1 *12144:DO[3] *275:11 26.1132
2 *275:11 *275:13 275.521
3 *275:13 *275:21 46.0536
4 *275:21 *905:DIODE 40.8793
5 *275:21 *11833:A1 40.0714
*END

*D_NET *276 0.0471884
*CONN
*I *11836:A1 I *D sky130_fd_sc_hd__mux2_2
*I *906:DIODE I *D sky130_fd_sc_hd__diode_2
*I *12144:DO[4] O *D CF_SRAM_1024x32
*CAP
1 *11836:A1 0.000181476
2 *906:DIODE 0
3 *12144:DO[4] 0.000153859
4 *276:23 0.000162211
5 *276:15 0.00154909
6 *276:11 0.00516579
7 *276:9 0.00411424
8 *11836:A1 *11836:S 4.03039e-05
9 *11836:A1 *308:31 2.92911e-06
10 *276:9 *12144:DI[4] 0.00022127
11 *276:11 *278:11 0.016714
12 *276:11 *279:11 0.0158855
13 *276:11 *560:174 9.88764e-05
14 *276:11 *560:186 0.000319862
15 *276:11 *560:198 0.000319862
16 *276:11 *560:210 0.00017502
17 *276:11 *638:156 0.00103198
18 *276:15 *11836:S 0.000143352
19 *276:23 *409:14 0.000108681
20 *206:9 *276:15 9.02364e-05
21 *257:23 *276:23 9.41704e-05
22 *272:11 *276:11 0.000615725
*RES
1 *12144:DO[4] *276:9 18.5525
2 *276:9 *276:11 238.898
3 *276:11 *276:15 30.8671
4 *276:15 *276:23 32.6514
5 *276:23 *906:DIODE 23
6 *276:15 *11836:A1 25.0507
*END

*D_NET *277 0.043973
*CONN
*I *11839:A1 I *D sky130_fd_sc_hd__mux2_2
*I *908:DIODE I *D sky130_fd_sc_hd__diode_2
*I *12144:DO[5] O *D CF_SRAM_1024x32
*CAP
1 *11839:A1 0.000123755
2 *908:DIODE 0
3 *12144:DO[5] 0.000475847
4 *277:23 0.000264804
5 *277:15 0.00103821
6 *277:11 0.0058995
7 *277:9 0.00572569
8 *11839:A1 *309:33 0.000122599
9 *277:9 *12144:DI[5] 0.000845894
10 *277:11 *636:89 0.0126353
11 *277:15 *1034:DIODE 9.41704e-05
12 *277:15 *11839:S 0.000110326
13 *277:15 *309:33 5.3304e-05
14 *277:15 *309:35 5.3304e-05
15 *277:15 *309:37 9.41704e-05
16 *277:23 *409:14 0.000201198
17 *123:6 *277:15 7.67318e-05
18 *251:11 *277:11 0.0135876
19 *259:11 *277:11 0
20 *259:17 *277:15 0
21 *275:13 *277:11 0.00257059
*RES
1 *12144:DO[5] *277:9 25.6782
2 *277:9 *277:11 234.32
3 *277:11 *277:15 23.7207
4 *277:15 *277:23 33.5836
5 *277:23 *908:DIODE 23
6 *277:15 *11839:A1 24.5743
*END

*D_NET *278 0.0480246
*CONN
*I *11842:A1 I *D sky130_fd_sc_hd__mux2_2
*I *909:DIODE I *D sky130_fd_sc_hd__diode_2
*I *12144:DO[6] O *D CF_SRAM_1024x32
*CAP
1 *11842:A1 2.05553e-05
2 *909:DIODE 0
3 *12144:DO[6] 0.000169849
4 *278:29 8.97589e-05
5 *278:23 0.000874692
6 *278:21 0.00150957
7 *278:17 0.00105808
8 *278:11 0.00401123
9 *278:9 0.00386819
10 *11842:A1 *310:42 5.3304e-05
11 *11842:A1 *637:25 4.08664e-05
12 *278:9 *12144:DI[6] 0.000255225
13 *278:11 *12144:BEN[14] 2.11066e-05
14 *278:11 *12144:DI[10] 2.31209e-05
15 *278:11 *279:11 0.00017488
16 *278:11 *279:17 2.5343e-05
17 *278:11 *360:76 0.00907747
18 *278:11 *360:90 9.63639e-05
19 *278:11 *638:156 0.000847494
20 *278:23 *1042:DIODE 9.41704e-05
21 *278:23 *310:42 8.17328e-05
22 *278:23 *310:44 8.17328e-05
23 *278:23 *637:25 0.000274702
24 *278:29 *438:74 0.000185212
25 *278:29 *509:68 0.000185212
26 *11936:A *278:23 0.000342939
27 *123:6 *278:17 0
28 *125:6 *278:23 0.000172836
29 *139:16 *278:21 0.00233167
30 *203:9 *278:23 6.75015e-05
31 *205:11 *278:21 0.00085359
32 *251:11 *278:21 0.000154526
33 *256:22 *278:11 2.11066e-05
34 *258:17 *278:17 0.000172885
35 *259:17 *278:17 6.17437e-06
36 *272:11 *278:11 0.00406754
37 *276:11 *278:11 0.016714
*RES
1 *12144:DO[6] *278:9 18.9875
2 *278:9 *278:11 220.939
3 *278:11 *278:17 34.9093
4 *278:17 *278:21 45.7814
5 *278:21 *278:23 14.9143
6 *278:23 *278:29 32.61
7 *278:29 *909:DIODE 23
8 *278:23 *11842:A1 23.6214
*END

*D_NET *279 0.0465504
*CONN
*I *11845:A1 I *D sky130_fd_sc_hd__mux2_2
*I *910:DIODE I *D sky130_fd_sc_hd__diode_2
*I *12144:DO[7] O *D CF_SRAM_1024x32
*CAP
1 *11845:A1 7.23497e-05
2 *910:DIODE 0
3 *12144:DO[7] 0.000108304
4 *279:25 0.000163223
5 *279:19 0.00117506
6 *279:17 0.0013116
7 *279:11 0.00392139
8 *279:9 0.00365758
9 *11845:A1 *635:63 5.3304e-05
10 *11845:A1 *635:69 4.08664e-05
11 *279:9 *12144:BEN[6] 0
12 *279:9 *12144:DI[7] 5.92633e-05
13 *279:11 *12144:BEN[8] 0.00014929
14 *279:11 *281:11 0.0144365
15 *279:11 *560:162 8.21456e-06
16 *279:11 *560:174 0.000261181
17 *279:11 *638:156 0.0011803
18 *279:17 *281:11 2.34364e-05
19 *279:17 *281:15 0.00145605
20 *279:17 *360:76 2.34364e-05
21 *279:19 *635:69 0.000471718
22 *279:25 *409:14 0.000187986
23 *127:6 *279:19 0.000113735
24 *133:8 *279:19 0
25 *251:15 *279:19 3.68044e-05
26 *258:19 *279:17 0.00143227
27 *275:21 *279:19 0.000120804
28 *276:11 *279:11 0.0158855
29 *278:11 *279:11 0.00017488
30 *278:11 *279:17 2.5343e-05
*RES
1 *12144:DO[7] *279:9 17.3096
2 *279:9 *279:11 210.198
3 *279:11 *279:17 35.3104
4 *279:17 *279:19 15.8671
5 *279:19 *279:25 32.61
6 *279:25 *910:DIODE 23
7 *279:19 *11845:A1 24.0979
*END

*D_NET *280 0.0336714
*CONN
*I *911:DIODE I *D sky130_fd_sc_hd__diode_2
*I *11848:A1 I *D sky130_fd_sc_hd__mux2_2
*I *12144:DO[8] O *D CF_SRAM_1024x32
*CAP
1 *911:DIODE 5.45426e-05
2 *11848:A1 0.000236234
3 *12144:DO[8] 0.000727777
4 *280:11 0.00490266
5 *280:9 0.00533966
6 *11848:A1 *635:109 4.4382e-05
7 *11848:A1 *635:118 0.000131956
8 *280:9 *12144:DI[8] 0.00031543
9 *280:11 *356:8 0.00705783
10 *280:11 *369:74 0.000161245
11 *280:11 *635:118 0.00164968
12 *207:11 *11848:A1 7.15126e-05
13 *252:14 *11848:A1 0.000358979
14 *252:14 *280:11 0.0109033
15 *257:11 *280:11 0
16 *261:11 *280:11 0.00120048
17 *273:11 *280:11 0.000515798
*RES
1 *12144:DO[8] *280:9 27.2939
2 *280:9 *280:11 178.681
3 *280:11 *11848:A1 44.2971
4 *280:11 *911:DIODE 38.6214
*END

*D_NET *281 0.0446332
*CONN
*I *11851:A1 I *D sky130_fd_sc_hd__mux2_2
*I *912:DIODE I *D sky130_fd_sc_hd__diode_2
*I *12144:DO[9] O *D CF_SRAM_1024x32
*CAP
1 *11851:A1 8.71268e-05
2 *912:DIODE 0
3 *12144:DO[9] 0.000112529
4 *281:33 3.90016e-05
5 *281:27 0.00156414
6 *281:15 0.00241576
7 *281:11 0.00545654
8 *281:9 0.00459132
9 *11851:A1 *313:46 4.67488e-05
10 *281:9 *12144:DI[9] 0.000140927
11 *281:11 *12124:BEN[27] 2.11157e-05
12 *281:11 *12124:BEN[28] 2.04528e-05
13 *281:11 *12124:BEN[29] 1.91269e-05
14 *281:11 *12124:BEN[30] 4.82774e-05
15 *281:11 *12124:BEN[31] 9.79368e-05
16 *281:11 *12124:DI[28] 2.11157e-05
17 *281:11 *12124:DI[29] 2.11157e-05
18 *281:11 *12124:DI[30] 2.11157e-05
19 *281:11 *12124:DI[31] 2.11157e-05
20 *281:11 *12144:BEN[13] 2.11066e-05
21 *281:11 *12144:BEN[8] 0.000309582
22 *281:11 *557:425 4.67137e-05
23 *281:11 *557:437 0.000817687
24 *281:11 *557:449 0.000945736
25 *281:11 *557:461 0.000890145
26 *281:11 *638:156 0.00124624
27 *281:15 *12124:BEN[26] 8.22421e-06
28 *281:15 *12124:DI[27] 8.22421e-06
29 *281:15 *12124:DI[25] 2.31209e-05
30 *281:27 *1058:DIODE 9.65021e-05
31 *281:27 *313:46 2.02872e-05
32 *281:27 *313:48 8.29713e-05
33 *281:27 *636:8 4.71147e-05
34 *281:27 *637:12 4.96207e-05
35 *281:33 *395:58 8.62783e-05
36 *281:33 *400:80 8.62783e-05
37 *123:18 *281:15 0.00130494
38 *133:14 *281:15 0.0022912
39 *204:17 *281:15 0.000123544
40 *254:20 *281:11 2.11066e-05
41 *255:9 *281:11 0.00504121
42 *258:19 *281:15 0.000403873
43 *279:11 *281:11 0.0144365
44 *279:17 *281:11 2.34364e-05
45 *279:17 *281:15 0.00145605
*RES
1 *12144:DO[9] *281:9 17.4961
2 *281:9 *281:11 187.661
3 *281:11 *281:15 46.3689
4 *281:15 *281:27 34.5336
5 *281:27 *281:33 31.2014
6 *281:33 *912:DIODE 23
7 *281:27 *11851:A1 24.0979
*END

*D_NET *282 0.119813
*CONN
*I *917:DIODE I *D sky130_fd_sc_hd__diode_2
*I *915:DIODE I *D sky130_fd_sc_hd__diode_2
*I *914:DIODE I *D sky130_fd_sc_hd__diode_2
*I *11823:A0 I *D sky130_fd_sc_hd__mux2_2
*I *913:DIODE I *D sky130_fd_sc_hd__diode_2
*I *916:DIODE I *D sky130_fd_sc_hd__diode_2
*I *919:DIODE I *D sky130_fd_sc_hd__diode_2
*I *920:DIODE I *D sky130_fd_sc_hd__diode_2
*I *12154:DO[0] O *D CF_SRAM_1024x32
*CAP
1 *917:DIODE 0
2 *915:DIODE 0
3 *914:DIODE 0
4 *11823:A0 0
5 *913:DIODE 0
6 *916:DIODE 0
7 *919:DIODE 0
8 *920:DIODE 9.0895e-05
9 *12154:DO[0] 0.00141217
10 *282:45 0.000160978
11 *282:43 0.000173904
12 *282:41 0.000244991
13 *282:39 0.000490158
14 *282:33 0.000425415
15 *282:31 0.000120179
16 *282:29 4.37517e-05
17 *282:27 0.0112365
18 *282:25 0.0112365
19 *282:23 0.00659405
20 *282:21 0.00800622
21 *282:21 *12154:ScanInCC 0
22 *282:21 *12154:DI[0] 3.65335e-05
23 *282:21 *289:19 0.000506462
24 *282:21 *432:54 1.19317e-05
25 *282:21 *438:98 0.00192259
26 *282:21 *480:58 4.80427e-05
27 *282:21 *502:80 0.000462243
28 *282:23 *293:15 0.0299057
29 *282:23 *424:90 0.000223658
30 *282:23 *424:92 0.0296659
31 *282:27 *290:27 0.00706345
32 *282:27 *291:19 0.00496695
33 *282:27 *304:29 0.000931713
34 *282:27 *304:35 0.000691493
35 *282:27 *362:76 0.000836889
36 *282:27 *362:86 2.05503e-05
37 *282:27 *389:52 0
38 *282:27 *513:52 0.000199945
39 *282:41 *11823:S 4.05745e-05
40 *282:43 *11823:S 6.08617e-05
41 *282:45 *11823:S 2.64616e-05
42 *112:8 *282:31 4.28688e-05
43 *112:8 *282:33 8.47992e-05
44 *112:8 *282:39 0.000135037
45 *121:10 *282:27 0.00166636
46 *250:30 *282:41 2.64616e-05
*RES
1 *12154:DO[0] *282:21 47.7418
2 *282:21 *282:23 56.3416
3 *282:23 *282:25 8
4 *282:25 *282:27 294.008
5 *282:27 *282:29 15
6 *282:29 *282:31 0.621429
7 *282:31 *282:33 1.09786
8 *282:33 *282:39 4.47429
9 *282:39 *282:41 2.05071
10 *282:41 *282:43 1.57429
11 *282:43 *282:45 1.09786
12 *282:45 *920:DIODE 24.0979
13 *282:45 *919:DIODE 23
14 *282:43 *916:DIODE 23
15 *282:41 *913:DIODE 23
16 *282:39 *11823:A0 23
17 *282:33 *914:DIODE 23
18 *282:31 *915:DIODE 23
19 *282:29 *917:DIODE 23
*END

*D_NET *283 0.110181
*CONN
*I *926:DIODE I *D sky130_fd_sc_hd__diode_2
*I *924:DIODE I *D sky130_fd_sc_hd__diode_2
*I *922:DIODE I *D sky130_fd_sc_hd__diode_2
*I *921:DIODE I *D sky130_fd_sc_hd__diode_2
*I *11854:A0 I *D sky130_fd_sc_hd__mux2_2
*I *925:DIODE I *D sky130_fd_sc_hd__diode_2
*I *927:DIODE I *D sky130_fd_sc_hd__diode_2
*I *923:DIODE I *D sky130_fd_sc_hd__diode_2
*I *12154:DO[10] O *D CF_SRAM_1024x32
*CAP
1 *926:DIODE 0
2 *924:DIODE 0
3 *922:DIODE 0
4 *921:DIODE 0
5 *11854:A0 0
6 *925:DIODE 0
7 *927:DIODE 5.67095e-05
8 *923:DIODE 8.37675e-05
9 *12154:DO[10] 0.00258281
10 *283:58 0.000143074
11 *283:45 0.000205288
12 *283:41 0.000306161
13 *283:37 0.000370522
14 *283:35 0.000199525
15 *283:33 0.000205139
16 *283:31 0.000253324
17 *283:27 0.00183475
18 *283:25 0.00168656
19 *283:23 0.00722687
20 *283:21 0.0144403
21 *283:17 0.00979625
22 *923:DIODE *635:69 0.000158566
23 *923:DIODE *635:78 1.05441e-05
24 *283:17 *12154:DI[10] 3.83453e-05
25 *283:17 *480:58 7.53717e-05
26 *283:17 *557:353 7.53717e-05
27 *283:21 *304:21 0
28 *283:21 *313:19 0
29 *283:23 *284:26 0.0297979
30 *283:23 *287:26 0
31 *283:23 *304:23 0
32 *283:23 *311:23 0.0279408
33 *283:27 *11845:A0 0.000208784
34 *283:27 *311:27 0.00535725
35 *283:27 *424:68 0.0007557
36 *283:27 *438:74 0.00181299
37 *283:27 *506:62 0.00370429
38 *283:27 *509:68 1.42006e-05
39 *283:58 *635:78 0.000116449
40 *11854:A1 *283:45 3.7122e-06
41 *129:10 *923:DIODE 0.000156325
42 *129:10 *283:58 0.000124902
43 *133:8 *283:41 0.000182031
44 *133:8 *283:45 5.3304e-05
45 *167:12 *283:23 0.000187541
46 *261:15 *927:DIODE 1.59094e-05
*RES
1 *12154:DO[10] *283:17 40.915
2 *283:17 *283:21 29.1269
3 *283:21 *283:23 55.9981
4 *283:23 *283:25 8
5 *283:25 *283:27 74.2711
6 *283:27 *283:31 16.5743
7 *283:31 *283:33 1.09786
8 *283:33 *283:35 1.09786
9 *283:35 *283:37 1.09786
10 *283:37 *283:41 4.32929
11 *283:41 *283:45 15.6214
12 *283:45 *923:DIODE 40.2579
13 *283:45 *283:58 16.9057
14 *283:58 *927:DIODE 23.6214
15 *283:58 *925:DIODE 23
16 *283:41 *11854:A0 23
17 *283:37 *921:DIODE 23
18 *283:35 *922:DIODE 23
19 *283:33 *924:DIODE 23
20 *283:31 *926:DIODE 23
*END

*D_NET *284 0.106908
*CONN
*I *934:DIODE I *D sky130_fd_sc_hd__diode_2
*I *932:DIODE I *D sky130_fd_sc_hd__diode_2
*I *930:DIODE I *D sky130_fd_sc_hd__diode_2
*I *928:DIODE I *D sky130_fd_sc_hd__diode_2
*I *11857:A0 I *D sky130_fd_sc_hd__mux2_2
*I *933:DIODE I *D sky130_fd_sc_hd__diode_2
*I *931:DIODE I *D sky130_fd_sc_hd__diode_2
*I *935:DIODE I *D sky130_fd_sc_hd__diode_2
*I *12154:DO[11] O *D CF_SRAM_1024x32
*CAP
1 *934:DIODE 8.47404e-05
2 *932:DIODE 0
3 *930:DIODE 0
4 *928:DIODE 0
5 *11857:A0 0
6 *933:DIODE 0.000110836
7 *931:DIODE 0
8 *935:DIODE 0.000130245
9 *12154:DO[11] 0.00127186
10 *284:80 0.000169481
11 *284:73 0.000169481
12 *284:66 0.000353712
13 *284:59 0.000268971
14 *284:45 0.000110836
15 *284:32 0.000176062
16 *284:30 0.00106996
17 *284:28 0.00102414
18 *284:26 0.00796944
19 *284:24 0.0119173
20 *284:20 0.00521079
21 *284:4 8.95769e-06
22 *935:DIODE *635:100 0.000220895
23 *284:20 *12154:DI[11] 5.49244e-05
24 *284:20 *371:74 0.00199936
25 *284:20 *480:58 2.11066e-05
26 *284:20 *557:341 2.11066e-05
27 *284:24 *288:22 0.000319318
28 *284:24 *289:19 0.00596283
29 *284:24 *290:19 0.000412715
30 *284:24 *301:17 4.44923e-05
31 *284:24 *449:20 0.000131765
32 *284:26 *311:23 1.67025e-05
33 *284:26 *312:23 0.0314148
34 *284:26 *449:20 2.26654e-05
35 *284:30 *635:100 5.55911e-05
36 *284:30 *635:109 0.000190227
37 *284:30 *635:118 0.00304758
38 *284:32 *635:100 0.000132665
39 *11857:A1 *284:66 3.7122e-06
40 *3:19 *284:26 8.01708e-05
41 *129:10 *935:DIODE 0.000218663
42 *129:10 *284:30 0.000164282
43 *129:10 *284:32 0.000139647
44 *135:12 *284:66 2.64616e-05
45 *257:11 *284:30 0.000424461
46 *257:19 *284:30 0.00193756
47 *283:23 *284:26 0.0297979
*RES
1 *12154:DO[11] *284:4 0.176071
2 *12154:DO[11] *284:20 37.2489
3 *284:20 *284:24 27.4768
4 *284:24 *284:26 59.5187
5 *284:26 *284:28 8
6 *284:28 *284:30 43.6346
7 *284:30 *284:32 1.90571
8 *284:32 *935:DIODE 41.5836
9 *284:32 *284:45 15
10 *284:45 *931:DIODE 23
11 *284:45 *933:DIODE 24.0979
12 *284:30 *284:59 15
13 *284:59 *11857:A0 23
14 *284:59 *284:66 3.48
15 *284:66 *928:DIODE 23
16 *284:66 *284:73 1.09786
17 *284:73 *930:DIODE 23
18 *284:73 *284:80 1.09786
19 *284:80 *932:DIODE 23
20 *284:80 *934:DIODE 24.0979
*END

*D_NET *285 0.0986834
*CONN
*I *946:DIODE I *D sky130_fd_sc_hd__diode_2
*I *944:DIODE I *D sky130_fd_sc_hd__diode_2
*I *942:DIODE I *D sky130_fd_sc_hd__diode_2
*I *939:DIODE I *D sky130_fd_sc_hd__diode_2
*I *937:DIODE I *D sky130_fd_sc_hd__diode_2
*I *11860:A0 I *D sky130_fd_sc_hd__mux2_2
*I *936:DIODE I *D sky130_fd_sc_hd__diode_2
*I *938:DIODE I *D sky130_fd_sc_hd__diode_2
*I *941:DIODE I *D sky130_fd_sc_hd__diode_2
*I *943:DIODE I *D sky130_fd_sc_hd__diode_2
*I *945:DIODE I *D sky130_fd_sc_hd__diode_2
*I *12154:DO[12] O *D CF_SRAM_1024x32
*CAP
1 *946:DIODE 0.000558479
2 *944:DIODE 0
3 *942:DIODE 0
4 *939:DIODE 0
5 *937:DIODE 0
6 *11860:A0 2.34823e-05
7 *936:DIODE 0
8 *938:DIODE 0
9 *941:DIODE 0
10 *943:DIODE 0
11 *945:DIODE 7.37141e-05
12 *12154:DO[12] 0.00160573
13 *285:47 0.000166021
14 *285:45 0.000175763
15 *285:43 0.000147182
16 *285:41 0.000217373
17 *285:39 0.000357799
18 *285:37 0.000247921
19 *285:35 0.000134504
20 *285:33 0.000137172
21 *285:31 0.000158354
22 *285:27 0.00176028
23 *285:23 0.0247224
24 *285:21 0.0260372
25 *285:17 0.00403396
26 *945:DIODE *286:19 5.41288e-05
27 *285:17 *12154:DI[12] 9.01952e-05
28 *285:17 *369:94 0.00242913
29 *285:17 *480:58 2.11066e-05
30 *285:17 *557:329 2.11066e-05
31 *285:21 *301:17 0.0047426
32 *285:23 *289:23 0.00484233
33 *285:23 *296:25 0.013492
34 *285:33 *286:19 4.93812e-05
35 *285:35 *286:19 4.93812e-05
36 *285:37 *286:19 4.93812e-05
37 *285:39 *286:19 0.000148356
38 *285:41 *286:19 8.99287e-05
39 *285:43 *286:19 4.95081e-05
40 *285:45 *286:19 4.34973e-05
41 *285:47 *286:19 4.05745e-05
42 *179:14 *285:23 4.62763e-05
43 *253:27 *285:41 5.50106e-05
44 *256:28 *285:23 0.00173703
45 *263:15 *285:23 0.00118573
46 *268:15 *285:23 0.00147059
47 *270:15 *285:23 0.0031924
48 *273:15 *285:23 0.00422646
*RES
1 *12154:DO[12] *285:17 38.9672
2 *285:17 *285:21 19.0992
3 *285:21 *285:23 67.5901
4 *285:23 *285:27 27.6889
5 *285:27 *285:31 16.2014
6 *285:31 *285:33 1.09786
7 *285:33 *285:35 1.09786
8 *285:35 *285:37 1.09786
9 *285:37 *285:39 3.00357
10 *285:39 *285:41 2.52714
11 *285:41 *285:43 1.09786
12 *285:43 *285:45 1.09786
13 *285:45 *285:47 1.09786
14 *285:47 *945:DIODE 24.0979
15 *285:47 *943:DIODE 23
16 *285:45 *941:DIODE 23
17 *285:43 *938:DIODE 23
18 *285:41 *936:DIODE 23
19 *285:39 *11860:A0 23.4971
20 *285:37 *937:DIODE 23
21 *285:35 *939:DIODE 23
22 *285:33 *942:DIODE 23
23 *285:31 *944:DIODE 23
24 *285:27 *946:DIODE 45.2914
*END

*D_NET *286 0.0884473
*CONN
*I *947:DIODE I *D sky130_fd_sc_hd__diode_2
*I *11863:A0 I *D sky130_fd_sc_hd__mux2_2
*I *12154:DO[13] O *D CF_SRAM_1024x32
*CAP
1 *947:DIODE 0
2 *11863:A0 0.000103498
3 *12154:DO[13] 0.000621101
4 *286:19 0.00319593
5 *286:17 0.00313182
6 *286:15 0.0241353
7 *286:13 0.0240959
8 *286:11 0.00228195
9 *286:9 0.00290305
10 *11863:A0 *635:134 0.000277576
11 *286:9 *12154:DI[13] 0.000178227
12 *286:11 *297:11 0.00547711
13 *286:11 *426:52 0
14 *286:15 *986:DIODE 9.91024e-05
15 *286:15 *987:DIODE 2.31591e-05
16 *286:15 *991:DIODE 2.32004e-05
17 *286:15 *297:15 0.0127121
18 *286:15 *301:25 0.000283133
19 *286:15 *302:23 0.000283377
20 *286:15 *555:8 0.000135037
21 *286:15 *637:85 0.000268129
22 *286:15 *637:96 0.00079317
23 *286:15 *637:109 0.000539595
24 *286:15 *637:122 0.00125152
25 *286:15 *637:133 0.000952783
26 *286:19 *11860:S 0.000564577
27 *286:19 *635:134 8.52481e-05
28 *945:DIODE *286:19 5.41288e-05
29 *11896:A1 *286:15 0.000269781
30 *185:22 *286:15 0.00313275
31 *253:27 *286:19 5.50106e-05
32 *285:33 *286:19 4.93812e-05
33 *285:35 *286:19 4.93812e-05
34 *285:37 *286:19 4.93812e-05
35 *285:39 *286:19 0.000148356
36 *285:41 *286:19 8.99287e-05
37 *285:43 *286:19 4.95081e-05
38 *285:45 *286:19 4.34973e-05
39 *285:47 *286:19 4.05745e-05
*RES
1 *12154:DO[13] *286:9 25.9889
2 *286:9 *286:11 70.9257
3 *286:11 *286:13 15
4 *286:13 *286:15 364.851
5 *286:15 *286:17 0.849286
6 *286:17 *286:19 58.5075
7 *286:19 *11863:A0 26.0036
8 *286:19 *947:DIODE 23
*END

*D_NET *287 0.0866306
*CONN
*I *948:DIODE I *D sky130_fd_sc_hd__diode_2
*I *11866:A0 I *D sky130_fd_sc_hd__mux2_2
*I *12154:DO[14] O *D CF_SRAM_1024x32
*CAP
1 *948:DIODE 0
2 *11866:A0 6.2109e-05
3 *12154:DO[14] 0.00210771
4 *287:32 8.20932e-05
5 *287:26 0.0226647
6 *287:24 0.0226447
7 *287:22 0.00210771
8 *287:4 0
9 *11866:A0 *635:122 0.000155658
10 *287:22 *12154:DI[14] 3.65335e-05
11 *287:22 *312:21 0.00508102
12 *287:22 *362:98 0.000359113
13 *287:22 *476:56 0.00278785
14 *287:22 *480:58 4.80465e-05
15 *287:22 *557:305 4.80465e-05
16 *287:26 *304:23 0.00712644
17 *287:26 *311:23 0
18 *287:26 *426:6 0.00116831
19 *287:26 *449:6 0.000425087
20 *287:26 *449:20 0
21 *287:26 *463:26 0.00346384
22 *287:26 *474:26 0.000623498
23 *287:26 *635:122 0.000582123
24 *287:26 *636:72 0.00109169
25 *287:26 *637:31 0.000861454
26 *287:26 *637:64 0.000253886
27 *3:25 *287:26 0.000603652
28 *137:10 *287:32 0
29 *153:12 *287:26 3.07372e-05
30 *155:12 *287:26 3.07372e-05
31 *157:14 *287:26 0.000664127
32 *159:14 *287:26 0.000338774
33 *161:14 *287:26 0.00151151
34 *163:16 *287:26 0.000517372
35 *165:14 *287:26 0.00647256
36 *175:6 *287:26 0.000376527
37 *177:18 *287:26 0.00060364
38 *253:15 *287:26 0.000294671
39 *255:13 *11866:A0 0.000152787
40 *255:13 *287:26 0.000657801
41 *269:18 *287:26 0.000594108
42 *283:23 *287:26 0
*RES
1 *12154:DO[14] *287:4 0.184545
2 *12154:DO[14] *287:22 47.3114
3 *287:22 *287:24 8
4 *287:24 *287:26 71.0248
5 *287:26 *287:32 23.3211
6 *287:32 *11866:A0 26.0036
7 *287:32 *948:DIODE 23
*END

*D_NET *288 0.0766851
*CONN
*I *949:DIODE I *D sky130_fd_sc_hd__diode_2
*I *11869:A0 I *D sky130_fd_sc_hd__mux2_4
*I *950:DIODE I *D sky130_fd_sc_hd__diode_2
*I *12154:DO[15] O *D CF_SRAM_1024x32
*CAP
1 *949:DIODE 0
2 *11869:A0 0
3 *950:DIODE 0.000135307
4 *12154:DO[15] 0.00315333
5 *288:36 0.000387747
6 *288:32 0.00114245
7 *288:26 0.033695
8 *288:24 0.032805
9 *288:22 0.00315333
10 *288:4 0
11 *288:22 *12154:DI[15] 3.65335e-05
12 *288:22 *360:92 0.00161299
13 *288:22 *480:58 2.11066e-05
14 *288:22 *557:293 2.11066e-05
15 *288:36 *635:144 0.000146971
16 *143:10 *288:36 5.50106e-05
17 *256:32 *288:32 0
18 *284:24 *288:22 0.000319318
*RES
1 *12154:DO[15] *288:4 0.225556
2 *12154:DO[15] *288:22 42.9646
3 *288:22 *288:24 8
4 *288:24 *288:26 73.8584
5 *288:26 *288:32 39.5196
6 *288:32 *288:36 5.75857
7 *288:36 *950:DIODE 25.5271
8 *288:36 *11869:A0 23
9 *288:32 *949:DIODE 23
*END

*D_NET *289 0.110332
*CONN
*I *958:DIODE I *D sky130_fd_sc_hd__diode_2
*I *954:DIODE I *D sky130_fd_sc_hd__diode_2
*I *952:DIODE I *D sky130_fd_sc_hd__diode_2
*I *953:DIODE I *D sky130_fd_sc_hd__diode_2
*I *955:DIODE I *D sky130_fd_sc_hd__diode_2
*I *956:DIODE I *D sky130_fd_sc_hd__diode_2
*I *957:DIODE I *D sky130_fd_sc_hd__diode_2
*I *11872:A0 I *D sky130_fd_sc_hd__mux2_2
*I *12154:DO[16] O *D CF_SRAM_1024x32
*CAP
1 *958:DIODE 0
2 *954:DIODE 0
3 *952:DIODE 0
4 *953:DIODE 0
5 *955:DIODE 0
6 *956:DIODE 0
7 *957:DIODE 5.68399e-05
8 *11872:A0 0
9 *12154:DO[16] 0.00150217
10 *289:96 4.66032e-05
11 *289:80 0.000369308
12 *289:50 0.000109926
13 *289:48 0.000106173
14 *289:46 0.000210264
15 *289:37 0.000278676
16 *289:35 0.000620099
17 *289:33 0.00016115
18 *289:31 0.000304229
19 *289:27 0.00216722
20 *289:25 0.00194145
21 *289:23 0.0233629
22 *289:21 0.0233629
23 *289:19 0.00667375
24 *289:17 0.00817591
25 *957:DIODE *11872:S 4.67488e-05
26 *289:17 *12154:EN 0
27 *289:17 *12154:ScanInDR 0.000180559
28 *289:17 *12154:DI[16] 0
29 *289:17 *417:40 0.000513526
30 *289:17 *432:54 3.87221e-06
31 *289:17 *480:58 2.05503e-05
32 *289:19 *290:19 0.0182606
33 *289:27 *309:19 0.00658624
34 *289:27 *365:74 0.00222542
35 *289:46 *11872:S 4.48439e-05
36 *289:48 *11872:S 4.05745e-05
37 *289:50 *11872:S 4.05745e-05
38 *289:80 *304:35 0.000167443
39 *289:96 *290:27 0.000141879
40 *289:96 *291:19 0.000141879
41 *11872:A1 *957:DIODE 2.02872e-05
42 *11872:A1 *289:46 6.70361e-05
43 *11872:A1 *289:48 4.67488e-05
44 *11872:A1 *289:50 4.67488e-05
45 *121:8 *289:80 4.27957e-05
46 *145:8 *289:31 0.000135037
47 *145:8 *289:33 5.3304e-05
48 *145:8 *289:35 0.000127041
49 *179:14 *289:23 1.59585e-05
50 *181:51 *289:27 0.000574759
51 *257:23 *957:DIODE 2.64616e-05
52 *282:21 *289:19 0.000506462
53 *284:24 *289:19 0.00596283
54 *285:23 *289:23 0.00484233
*RES
1 *12154:DO[16] *289:17 38.332
2 *289:17 *289:19 42.7056
3 *289:19 *289:21 8
4 *289:21 *289:23 55.2253
5 *289:23 *289:25 8
6 *289:25 *289:27 85.8918
7 *289:27 *289:31 18.48
8 *289:31 *289:33 0.621429
9 *289:33 *289:35 2.05071
10 *289:35 *289:37 1.57429
11 *289:37 *11872:A0 23
12 *289:37 *289:46 2.54786
13 *289:46 *289:48 1.09786
14 *289:48 *289:50 1.09786
15 *289:50 *957:DIODE 24.0979
16 *289:50 *956:DIODE 23
17 *289:48 *955:DIODE 23
18 *289:46 *953:DIODE 23
19 *289:35 *289:80 34.785
20 *289:80 *952:DIODE 23
21 *289:33 *954:DIODE 23
22 *289:31 *289:96 31.9057
23 *289:96 *958:DIODE 23
*END

*D_NET *290 0.12688
*CONN
*I *967:DIODE I *D sky130_fd_sc_hd__diode_2
*I *963:DIODE I *D sky130_fd_sc_hd__diode_2
*I *959:DIODE I *D sky130_fd_sc_hd__diode_2
*I *11875:A0 I *D sky130_fd_sc_hd__mux2_2
*I *960:DIODE I *D sky130_fd_sc_hd__diode_2
*I *961:DIODE I *D sky130_fd_sc_hd__diode_2
*I *964:DIODE I *D sky130_fd_sc_hd__diode_2
*I *965:DIODE I *D sky130_fd_sc_hd__diode_2
*I *966:DIODE I *D sky130_fd_sc_hd__diode_2
*I *968:DIODE I *D sky130_fd_sc_hd__diode_2
*I *12154:DO[17] O *D CF_SRAM_1024x32
*CAP
1 *967:DIODE 0.000231521
2 *963:DIODE 4.72073e-05
3 *959:DIODE 0.000183049
4 *11875:A0 0
5 *960:DIODE 0
6 *961:DIODE 0
7 *964:DIODE 4.26123e-05
8 *965:DIODE 5.43738e-05
9 *966:DIODE 0.000205736
10 *968:DIODE 0.00034318
11 *12154:DO[17] 0.00141663
12 *290:102 0.000230257
13 *290:78 0.000101613
14 *290:76 0.000235507
15 *290:72 0.000255482
16 *290:39 0.000617166
17 *290:37 0.000199526
18 *290:35 0.000242304
19 *290:33 0.000129445
20 *290:31 0.000390908
21 *290:27 0.00336706
22 *290:25 0.00325069
23 *290:23 0.0240044
24 *290:21 0.0240044
25 *290:19 0.00475431
26 *290:17 0.00617094
27 *964:DIODE *11875:S 9.84794e-05
28 *966:DIODE *341:14 4.05745e-05
29 *966:DIODE *550:14 0.000135037
30 *968:DIODE *330:16 0.000213153
31 *290:17 *12154:WLBI 0.000164704
32 *290:17 *12154:DI[17] 1.32547e-05
33 *290:17 *417:40 0
34 *290:17 *432:54 1.33927e-05
35 *290:17 *480:58 0.00030899
36 *290:17 *639:158 0.00221068
37 *290:17 *639:162 0.000102781
38 *290:17 *639:174 0.000154995
39 *290:19 *295:21 0.0177871
40 *290:19 *301:17 0.000977807
41 *290:23 *300:25 0
42 *290:23 *301:25 0
43 *290:23 *303:33 4.59167e-06
44 *290:23 *305:25 8.23601e-05
45 *290:27 *291:19 0.00294037
46 *290:27 *293:19 5.04574e-05
47 *290:27 *362:76 0.000472108
48 *290:27 *452:34 0.000339951
49 *290:31 *330:16 0.000275473
50 *290:33 *330:16 8.4047e-05
51 *290:35 *330:16 0.000243307
52 *290:37 *330:16 0.000187902
53 *290:39 *330:16 0.000219882
54 *290:76 *11875:S 9.41704e-05
55 *290:78 *11875:S 9.41704e-05
56 *112:10 *290:27 8.36671e-05
57 *115:10 *290:27 0.000317631
58 *117:12 *290:27 0.000120307
59 *117:14 *968:DIODE 0.000213153
60 *117:14 *290:27 2.52828e-05
61 *117:14 *290:31 0.000306102
62 *117:14 *290:33 7.39034e-05
63 *117:14 *290:35 0.000233164
64 *117:14 *290:37 0.000178688
65 *117:14 *290:39 0.00021197
66 *121:10 *290:27 0.000626009
67 *121:18 *290:27 0.000443967
68 *121:18 *290:31 1.5037e-05
69 *131:6 *959:DIODE 0.000223906
70 *131:6 *963:DIODE 4.08664e-05
71 *145:10 *290:27 0
72 *147:8 *290:72 1.61361e-05
73 *147:8 *290:76 3.7122e-06
74 *201:7 *965:DIODE 2.64616e-05
75 *258:38 *290:76 5.3304e-05
76 *282:27 *290:27 0.00706345
77 *284:24 *290:19 0.000412715
78 *289:19 *290:19 0.0182606
79 *289:96 *290:27 0.000141879
*RES
1 *12154:DO[17] *290:17 43.2266
2 *290:17 *290:19 45.8789
3 *290:19 *290:21 8
4 *290:21 *290:23 55.7405
5 *290:23 *290:25 8
6 *290:25 *290:27 117.056
7 *290:27 *290:31 4.81607
8 *290:31 *290:33 1.20143
9 *290:33 *290:35 3.31429
10 *290:35 *290:37 2.61
11 *290:37 *290:39 2.96214
12 *290:39 *968:DIODE 43.4893
13 *290:39 *966:DIODE 40.5271
14 *290:37 *965:DIODE 38.6214
15 *290:35 *290:72 16.0979
16 *290:72 *290:76 3.02429
17 *290:76 *290:78 1.09786
18 *290:78 *964:DIODE 24.0979
19 *290:78 *961:DIODE 23
20 *290:76 *960:DIODE 23
21 *290:72 *11875:A0 23
22 *290:33 *290:102 15
23 *290:102 *959:DIODE 25.5271
24 *290:102 *963:DIODE 23.6214
25 *290:31 *967:DIODE 40.5271
*END

*D_NET *291 0.103828
*CONN
*I *969:DIODE I *D sky130_fd_sc_hd__diode_2
*I *11878:A0 I *D sky130_fd_sc_hd__mux2_4
*I *970:DIODE I *D sky130_fd_sc_hd__diode_2
*I *12154:DO[18] O *D CF_SRAM_1024x32
*CAP
1 *969:DIODE 0
2 *11878:A0 3.65792e-05
3 *970:DIODE 9.50585e-05
4 *12154:DO[18] 0.000128892
5 *291:47 0.000466226
6 *291:25 0.000232002
7 *291:23 0.000679944
8 *291:19 0.0113504
9 *291:17 0.0112371
10 *291:15 0.0156021
11 *291:13 0.015731
12 *970:DIODE *309:23 0.000177604
13 *291:13 *12154:DI[18] 0.000139692
14 *291:13 *432:58 4.21048e-05
15 *291:13 *480:64 2.05503e-05
16 *291:13 *484:55 7.57281e-06
17 *291:15 *432:74 0.0167871
18 *291:19 *293:19 0.0211936
19 *291:19 *362:76 0.000238637
20 *291:19 *362:86 7.57281e-06
21 *291:23 *309:23 0.000219383
22 *291:25 *11878:S 2.1522e-05
23 *291:25 *309:23 0.000175903
24 *291:47 *304:35 0.000387404
25 *121:10 *291:47 0.000390614
26 *149:8 *291:23 3.22879e-05
27 *181:51 *291:19 0.000303139
28 *259:33 *970:DIODE 5.25011e-05
29 *259:33 *11878:A0 9.95589e-06
30 *259:33 *291:25 1.21972e-05
31 *282:27 *291:19 0.00496695
32 *289:96 *291:19 0.000141879
33 *290:27 *291:19 0.00294037
*RES
1 *12154:DO[18] *291:13 25.6204
2 *291:13 *291:15 59.7333
3 *291:15 *291:17 8
4 *291:17 *291:19 351.408
5 *291:19 *291:23 17.5271
6 *291:23 *291:25 2.05071
7 *291:25 *970:DIODE 25.0507
8 *291:25 *11878:A0 23.4971
9 *291:23 *291:47 38.4307
10 *291:47 *969:DIODE 23
*END

*D_NET *292 0.105459
*CONN
*I *972:DIODE I *D sky130_fd_sc_hd__diode_2
*I *971:DIODE I *D sky130_fd_sc_hd__diode_2
*I *11881:A0 I *D sky130_fd_sc_hd__mux2_4
*I *12154:DO[19] O *D CF_SRAM_1024x32
*CAP
1 *972:DIODE 0
2 *971:DIODE 6.94194e-05
3 *11881:A0 0.000139489
4 *12154:DO[19] 0.000865008
5 *292:27 0.000415695
6 *292:25 0.0021215
7 *292:21 0.0200671
8 *292:19 0.0181523
9 *292:17 0.00846241
10 *292:15 0.00932742
11 *971:DIODE *636:72 9.84794e-05
12 *292:15 *12154:DI[19] 9.79314e-05
13 *292:15 *432:74 0.000203391
14 *292:15 *480:64 4.79458e-06
15 *292:15 *484:55 0.000513929
16 *292:15 *639:206 0.000498135
17 *292:17 *307:19 0.0120239
18 *292:17 *312:21 0.00765465
19 *292:17 *476:56 0.00137725
20 *292:21 *294:21 0.0185194
21 *292:21 *295:25 0.000733003
22 *11881:A1 *11881:A0 9.84851e-05
23 *260:19 *292:25 0
24 *264:15 *292:21 0.000419937
25 *266:15 *292:21 0.00148195
26 *267:15 *292:21 0.00211329
*RES
1 *12154:DO[19] *292:15 41.0886
2 *292:15 *292:17 45.6251
3 *292:17 *292:19 8
4 *292:19 *292:21 44.7496
5 *292:21 *292:25 40.0139
6 *292:25 *292:27 2.96214
7 *292:27 *11881:A0 40.2993
8 *292:27 *971:DIODE 39.0979
9 *292:25 *972:DIODE 38
*END

*D_NET *293 0.115503
*CONN
*I *980:DIODE I *D sky130_fd_sc_hd__diode_2
*I *978:DIODE I *D sky130_fd_sc_hd__diode_2
*I *976:DIODE I *D sky130_fd_sc_hd__diode_2
*I *11827:A0 I *D sky130_fd_sc_hd__mux2_2
*I *975:DIODE I *D sky130_fd_sc_hd__diode_2
*I *977:DIODE I *D sky130_fd_sc_hd__diode_2
*I *979:DIODE I *D sky130_fd_sc_hd__diode_2
*I *981:DIODE I *D sky130_fd_sc_hd__diode_2
*I *12154:DO[1] O *D CF_SRAM_1024x32
*CAP
1 *980:DIODE 8.08925e-05
2 *978:DIODE 0
3 *976:DIODE 0.000188927
4 *11827:A0 0
5 *975:DIODE 0
6 *977:DIODE 7.50645e-05
7 *979:DIODE 0
8 *981:DIODE 0.000147108
9 *12154:DO[1] 0.000150427
10 *293:69 0.000299436
11 *293:55 0.000117372
12 *293:53 0.000152817
13 *293:35 0.000817713
14 *293:29 0.00102496
15 *293:27 0.000430715
16 *293:25 0.000827161
17 *293:19 0.00812532
18 *293:17 0.00745542
19 *293:15 0.0135919
20 *293:13 0.0137423
21 *977:DIODE *11827:S 5.3304e-05
22 *977:DIODE *635:63 5.3304e-05
23 *980:DIODE *371:70 0.000101536
24 *980:DIODE *417:10 3.64467e-05
25 *981:DIODE *513:10 0.000160906
26 *981:DIODE *515:10 0.000284483
27 *981:DIODE *517:10 5.47962e-05
28 *293:13 *12154:BEN[0] 2.11157e-05
29 *293:13 *12154:DI[1] 3.65335e-05
30 *293:13 *480:58 2.11157e-05
31 *293:15 *424:92 0.000969147
32 *293:19 *308:19 0.00897041
33 *293:19 *310:19 8.90786e-05
34 *293:27 *371:70 0.00019148
35 *293:27 *417:10 8.52135e-05
36 *293:29 *371:70 0.000857592
37 *293:29 *417:10 0.000234376
38 *293:35 *371:70 0.000311521
39 *293:35 *417:10 0.000698459
40 *293:35 *509:68 2.30462e-05
41 *293:35 *515:10 0.000298656
42 *293:35 *515:60 1.37048e-05
43 *293:35 *517:10 5.14422e-05
44 *293:35 *635:37 0.000123931
45 *293:35 *635:48 7.99698e-05
46 *293:55 *11827:S 8.40645e-05
47 *887:DIODE *293:25 4.19304e-05
48 *902:DIODE *293:35 0.000317576
49 *115:8 *976:DIODE 2.81066e-05
50 *145:10 *293:19 0.00060325
51 *181:51 *293:19 0.00147142
52 *259:23 *293:25 0.000218772
53 *261:23 *293:29 0.000353615
54 *261:23 *293:55 5.56279e-05
55 *261:23 *293:69 5.3304e-05
56 *272:27 *293:35 7.68539e-05
57 *282:23 *293:15 0.0299057
58 *290:27 *293:19 5.04574e-05
59 *291:19 *293:19 0.0211936
*RES
1 *12154:DO[1] *293:13 25.5563
2 *293:13 *293:15 59.6475
3 *293:15 *293:17 8
4 *293:17 *293:19 283.796
5 *293:19 *293:25 39.1971
6 *293:25 *293:27 2.61
7 *293:27 *293:29 11.7657
8 *293:29 *293:35 19.2229
9 *293:35 *981:DIODE 42.0186
10 *293:35 *979:DIODE 38
11 *293:29 *293:53 15
12 *293:53 *293:55 1.09786
13 *293:55 *977:DIODE 24.0979
14 *293:55 *975:DIODE 23
15 *293:53 *293:69 1.57429
16 *293:69 *11827:A0 23
17 *293:69 *976:DIODE 25.5271
18 *293:27 *978:DIODE 38
19 *293:25 *980:DIODE 39.5536
*END

*D_NET *294 0.0932548
*CONN
*I *983:DIODE I *D sky130_fd_sc_hd__diode_2
*I *11884:A0 I *D sky130_fd_sc_hd__mux2_4
*I *982:DIODE I *D sky130_fd_sc_hd__diode_2
*I *12154:DO[20] O *D CF_SRAM_1024x32
*CAP
1 *983:DIODE 0
2 *11884:A0 2.44824e-05
3 *982:DIODE 2.95972e-05
4 *12154:DO[20] 0.00263788
5 *294:29 0.000226698
6 *294:25 0.00149334
7 *294:21 0.00574727
8 *294:17 0.0139477
9 *294:15 0.012159
10 *294:15 *12154:DI[20] 0.000103274
11 *294:15 *443:76 0
12 *294:15 *449:84 0
13 *294:15 *484:55 0.000258059
14 *294:15 *639:218 0.000254842
15 *294:17 *304:21 0.0033896
16 *294:17 *306:19 0.00746026
17 *294:17 *313:19 0.00677438
18 *294:21 *295:25 0.01678
19 *11884:A1 *11884:A0 5.56356e-05
20 *3:25 *982:DIODE 9.88259e-05
21 *3:41 *11884:A0 1.56446e-05
22 *177:16 *982:DIODE 9.64943e-05
23 *177:16 *11884:A0 0.000100069
24 *262:19 *294:25 0.0021169
25 *262:19 *294:29 0.000264347
26 *264:15 *294:21 0.000701082
27 *292:21 *294:21 0.0185194
*RES
1 *12154:DO[20] *294:15 42.9116
2 *294:15 *294:17 48.1637
3 *294:17 *294:21 42.7032
4 *294:21 *294:25 38.2532
5 *294:25 *294:29 18.6664
6 *294:29 *982:DIODE 24.0979
7 *294:29 *11884:A0 24.0979
8 *294:25 *983:DIODE 38
*END

*D_NET *295 0.0996708
*CONN
*I *986:DIODE I *D sky130_fd_sc_hd__diode_2
*I *11887:A0 I *D sky130_fd_sc_hd__mux2_4
*I *984:DIODE I *D sky130_fd_sc_hd__diode_2
*I *12154:DO[21] O *D CF_SRAM_1024x32
*CAP
1 *986:DIODE 2.79866e-05
2 *11887:A0 0
3 *984:DIODE 6.17899e-05
4 *12154:DO[21] 0.00149494
5 *295:33 0.000295688
6 *295:29 0.00208802
7 *295:25 0.00738326
8 *295:21 0.0112563
9 *295:19 0.00719407
10 *295:19 *12154:DI[21] 0.000128419
11 *295:19 *303:23 0
12 *295:19 *454:72 0.000764961
13 *295:19 *480:64 2.11066e-05
14 *295:19 *639:234 2.11066e-05
15 *295:21 *301:17 0.0216255
16 *295:25 *298:23 0.011564
17 *3:41 *984:DIODE 7.15382e-05
18 *177:16 *984:DIODE 0.000182081
19 *185:22 *986:DIODE 3.59884e-05
20 *263:40 *984:DIODE 5.50106e-05
21 *265:35 *295:33 0
22 *286:15 *986:DIODE 9.91024e-05
23 *290:19 *295:21 0.0177871
24 *292:21 *295:25 0.000733003
25 *294:21 *295:25 0.01678
*RES
1 *12154:DO[21] *295:19 38.2198
2 *295:19 *295:21 50.5755
3 *295:21 *295:25 42.188
4 *295:25 *295:29 38.9575
5 *295:29 *295:33 18.6664
6 *295:33 *984:DIODE 25.0507
7 *295:33 *11887:A0 23
8 *295:29 *986:DIODE 39.0979
*END

*D_NET *296 0.0934297
*CONN
*I *988:DIODE I *D sky130_fd_sc_hd__diode_2
*I *11890:A0 I *D sky130_fd_sc_hd__mux2_4
*I *987:DIODE I *D sky130_fd_sc_hd__diode_2
*I *12154:DO[22] O *D CF_SRAM_1024x32
*CAP
1 *988:DIODE 0
2 *11890:A0 1.91293e-05
3 *987:DIODE 3.7084e-05
4 *12154:DO[22] 0.00272052
5 *296:31 0.000225732
6 *296:27 0.00111935
7 *296:25 0.00612578
8 *296:19 0.0135064
9 *296:17 0.011051
10 *987:DIODE *637:85 5.3304e-05
11 *11890:A0 *637:85 9.94414e-05
12 *296:17 *12154:DI[22] 0.000178227
13 *296:17 *458:66 0.00262093
14 *296:17 *480:64 2.05503e-05
15 *296:17 *639:252 2.05503e-05
16 *296:19 *298:17 0.0225476
17 *296:19 *306:25 0.000395012
18 *296:19 *311:21 0.00917349
19 *296:25 *299:23 0
20 *296:25 *555:14 0.00812409
21 *296:31 *637:83 3.43144e-05
22 *892:DIODE *296:31 2.24366e-06
23 *11924:A *296:25 0.000109747
24 *185:22 *987:DIODE 5.25022e-05
25 *185:22 *11890:A0 4.94227e-05
26 *264:19 *296:27 0.000356278
27 *264:19 *296:31 6.99854e-05
28 *268:15 *296:25 0.00120184
29 *285:23 *296:25 0.013492
30 *286:15 *987:DIODE 2.31591e-05
*RES
1 *12154:DO[22] *296:17 43.0818
2 *296:17 *296:19 54.3835
3 *296:19 *296:25 42.3741
4 *296:25 *296:27 18.6325
5 *296:27 *296:31 18.6664
6 *296:31 *987:DIODE 24.0979
7 *296:31 *11890:A0 24.0979
8 *296:27 *988:DIODE 38
*END

*D_NET *297 0.083185
*CONN
*I *11893:A0 I *D sky130_fd_sc_hd__mux2_4
*I *989:DIODE I *D sky130_fd_sc_hd__diode_2
*I *990:DIODE I *D sky130_fd_sc_hd__diode_2
*I *12154:DO[23] O *D CF_SRAM_1024x32
*CAP
1 *11893:A0 0
2 *989:DIODE 3.17821e-05
3 *990:DIODE 7.27021e-05
4 *12154:DO[23] 0.00065122
5 *297:36 0.000182872
6 *297:23 0.00376083
7 *297:21 0.00366509
8 *297:15 0.00360529
9 *297:13 0.00347724
10 *297:11 0.00930516
11 *297:9 0.00995638
12 *989:DIODE *637:96 0.000185428
13 *297:9 *12154:DI[23] 0
14 *297:9 *462:68 0
15 *297:11 *426:52 0
16 *297:11 *449:64 0.0234505
17 *297:11 *462:60 0
18 *297:11 *462:68 0
19 *297:15 *11902:A0 9.84851e-05
20 *297:15 *11905:A0 0.000100069
21 *297:15 *11908:A0 0.000100069
22 *297:15 *11911:A0 9.84851e-05
23 *297:15 *11914:A0 9.84851e-05
24 *297:15 *301:25 0.000231043
25 *297:15 *302:23 0.00025068
26 *297:15 *637:133 0.000419271
27 *297:15 *637:146 0.00056944
28 *297:15 *637:159 0.00121243
29 *297:15 *637:172 0.000921641
30 *297:15 *637:185 0.000688756
31 *297:15 *637:196 0.00160471
32 *297:23 *994:DIODE 0.00014109
33 *177:35 *297:36 0
34 *185:22 *989:DIODE 0.00010655
35 *265:48 *297:36 1.01436e-05
36 *286:11 *297:11 0.00547711
37 *286:15 *297:15 0.0127121
*RES
1 *12154:DO[23] *297:9 27.3871
2 *297:9 *297:11 332.568
3 *297:11 *297:13 15
4 *297:13 *297:15 140.215
5 *297:15 *297:21 31.9057
6 *297:21 *297:23 57.7929
7 *297:23 *990:DIODE 24.0979
8 *297:23 *297:36 32.2579
9 *297:36 *989:DIODE 25.0507
10 *297:36 *11893:A0 23
*END

*D_NET *298 0.0858478
*CONN
*I *992:DIODE I *D sky130_fd_sc_hd__diode_2
*I *11896:A0 I *D sky130_fd_sc_hd__mux2_4
*I *991:DIODE I *D sky130_fd_sc_hd__diode_2
*I *12154:DO[24] O *D CF_SRAM_1024x32
*CAP
1 *992:DIODE 0
2 *11896:A0 1.52478e-05
3 *991:DIODE 4.1037e-05
4 *12154:DO[24] 0.00266928
5 *298:29 0.000240717
6 *298:25 0.00159696
7 *298:23 0.0062527
8 *298:17 0.0130396
9 *298:15 0.0108687
10 *991:DIODE *637:109 0.000184527
11 *11896:A0 *637:109 8.6949e-05
12 *298:15 *12154:DI[24] 0.00022055
13 *298:15 *467:56 0.00246248
14 *298:15 *480:66 2.44302e-05
15 *298:15 *484:55 2.44302e-05
16 *298:17 *306:25 0.0130605
17 *895:DIODE *298:29 9.48381e-06
18 *11896:A1 *991:DIODE 0.000140259
19 *11896:A1 *11896:A0 9.84851e-05
20 *266:19 *298:25 0.000596995
21 *266:19 *298:29 7.98155e-05
22 *286:15 *991:DIODE 2.32004e-05
23 *295:25 *298:23 0.011564
24 *296:19 *298:17 0.0225476
*RES
1 *12154:DO[24] *298:15 42.5048
2 *298:15 *298:17 56.6683
3 *298:17 *298:23 37.6515
4 *298:23 *298:25 28.4925
5 *298:25 *298:29 18.6664
6 *298:29 *991:DIODE 25.0507
7 *298:29 *11896:A0 24.0979
8 *298:25 *992:DIODE 38
*END

*D_NET *299 0.0750306
*CONN
*I *994:DIODE I *D sky130_fd_sc_hd__diode_2
*I *993:DIODE I *D sky130_fd_sc_hd__diode_2
*I *11899:A0 I *D sky130_fd_sc_hd__mux2_4
*I *12154:DO[25] O *D CF_SRAM_1024x32
*CAP
1 *994:DIODE 0.000429875
2 *993:DIODE 0
3 *11899:A0 0.000348516
4 *12154:DO[25] 0.003171
5 *299:27 0.000537082
6 *299:25 0.0019642
7 *299:23 0.00672772
8 *299:17 0.0168213
9 *299:15 0.0146103
10 *11899:A0 *637:122 2.80512e-05
11 *11899:A0 *637:133 0.00012377
12 *299:15 *12154:BEN[24] 0
13 *299:15 *12154:DI[25] 1.59042e-05
14 *299:15 *300:13 0
15 *299:15 *471:72 0.00328072
16 *299:15 *480:66 2.31044e-05
17 *299:15 *484:55 2.31044e-05
18 *299:15 *484:65 2.50354e-05
19 *299:15 *638:180 0
20 *299:17 *302:17 0.0255561
21 *299:23 *555:14 0.00107882
22 *11899:A1 *11899:A0 2.64616e-05
23 *163:6 *11899:A0 9.84794e-05
24 *296:25 *299:23 0
25 *297:23 *994:DIODE 0.00014109
*RES
1 *12154:DO[25] *299:15 44.7166
2 *299:15 *299:17 59.7147
3 *299:17 *299:23 30.6104
4 *299:23 *299:25 22.8582
5 *299:25 *299:27 3.31429
6 *299:27 *11899:A0 44.6079
7 *299:27 *993:DIODE 38
8 *299:25 *994:DIODE 43.8621
*END

*D_NET *300 0.069902
*CONN
*I *995:DIODE I *D sky130_fd_sc_hd__diode_2
*I *11902:A0 I *D sky130_fd_sc_hd__mux2_4
*I *12154:DO[26] O *D CF_SRAM_1024x32
*CAP
1 *995:DIODE 0
2 *11902:A0 0.000170859
3 *12154:DO[26] 0.00507716
4 *300:25 0.00245499
5 *300:17 0.0174304
6 *300:15 0.0151463
7 *300:13 0.00507716
8 *11902:A0 *637:133 5.70419e-05
9 *300:13 *12154:DI[26] 0.000131883
10 *300:13 *471:72 0
11 *300:13 *476:62 0
12 *300:13 *476:64 0
13 *300:13 *480:66 0.00032023
14 *300:13 *484:71 0.000324088
15 *300:17 *303:25 0.00332986
16 *300:17 *555:18 0.0173811
17 *300:25 *301:25 0.00277821
18 *300:25 *303:33 5.10545e-05
19 *300:25 *474:26 0
20 *898:DIODE *11902:A0 2.76611e-06
21 *268:19 *11902:A0 6.42999e-05
22 *268:19 *300:25 6.10551e-06
23 *290:23 *300:25 0
24 *297:15 *11902:A0 9.84851e-05
25 *299:15 *300:13 0
*RES
1 *12154:DO[26] *300:13 43.1247
2 *300:13 *300:15 8
3 *300:15 *300:17 65.1728
4 *300:17 *300:25 24.5773
5 *300:25 *11902:A0 42.06
6 *300:25 *995:DIODE 38
*END

*D_NET *301 0.0769918
*CONN
*I *997:DIODE I *D sky130_fd_sc_hd__diode_2
*I *11905:A0 I *D sky130_fd_sc_hd__mux2_4
*I *12154:DO[27] O *D CF_SRAM_1024x32
*CAP
1 *997:DIODE 0
2 *11905:A0 0.000166129
3 *12154:DO[27] 0.00132619
4 *301:25 0.00485726
5 *301:17 0.0181573
6 *301:15 0.0147924
7 *11905:A0 *637:146 5.68958e-05
8 *301:15 *12154:DI[27] 7.07839e-05
9 *301:15 *12154:DI[26] 0.000531505
10 *301:15 *476:62 0.00186746
11 *301:15 *480:66 0.000800783
12 *301:15 *484:71 0.000809375
13 *301:25 *302:23 0.00250412
14 *301:25 *305:25 0.000255162
15 *301:25 *306:33 1.13839e-05
16 *301:25 *474:26 0
17 *165:14 *301:25 0
18 *269:47 *11905:A0 2.24366e-06
19 *284:24 *301:17 4.44923e-05
20 *285:21 *301:17 0.0047426
21 *286:15 *301:25 0.000283133
22 *290:19 *301:17 0.000977807
23 *290:23 *301:25 0
24 *295:21 *301:17 0.0216255
25 *297:15 *11905:A0 0.000100069
26 *297:15 *301:25 0.000231043
27 *300:25 *301:25 0.00277821
*RES
1 *12154:DO[27] *301:15 47.5235
2 *301:15 *301:17 66.1883
3 *301:17 *301:25 31.5325
4 *301:25 *11905:A0 41.3557
5 *301:25 *997:DIODE 38
*END

*D_NET *302 0.085819
*CONN
*I *998:DIODE I *D sky130_fd_sc_hd__diode_2
*I *11908:A0 I *D sky130_fd_sc_hd__mux2_4
*I *12154:DO[28] O *D CF_SRAM_1024x32
*CAP
1 *998:DIODE 1.86486e-05
2 *11908:A0 0.000142732
3 *12154:DO[28] 0.00422095
4 *302:23 0.00163433
5 *302:17 0.00912651
6 *302:15 0.0118745
7 *11908:A0 *637:159 0.000102389
8 *302:15 *12154:DI[28] 2.175e-05
9 *302:15 *480:82 0
10 *302:15 *484:71 0.000425941
11 *302:17 *305:17 0.02941
12 *302:23 *474:26 0
13 *302:23 *637:172 0.00011549
14 *900:DIODE *11908:A0 2.24366e-06
15 *165:14 *302:23 0
16 *270:19 *998:DIODE 5.58873e-06
17 *270:19 *11908:A0 2.35765e-05
18 *286:15 *302:23 0.000283377
19 *297:15 *11908:A0 0.000100069
20 *297:15 *302:23 0.00025068
21 *299:17 *302:17 0.0255561
22 *301:25 *302:23 0.00250412
*RES
1 *12154:DO[28] *302:15 49.6082
2 *302:15 *302:17 69.2347
3 *302:17 *302:23 20.9075
4 *302:23 *11908:A0 40.8275
5 *302:23 *998:DIODE 38.3211
*END

*D_NET *303 0.0659113
*CONN
*I *999:DIODE I *D sky130_fd_sc_hd__diode_2
*I *11911:A0 I *D sky130_fd_sc_hd__mux2_4
*I *1000:DIODE I *D sky130_fd_sc_hd__diode_2
*I *12154:DO[29] O *D CF_SRAM_1024x32
*CAP
1 *999:DIODE 0
2 *11911:A0 2.01521e-05
3 *1000:DIODE 0.000295185
4 *12154:DO[29] 0.000859455
5 *303:35 0.000531178
6 *303:33 0.000268973
7 *303:25 0.0109478
8 *303:23 0.0208598
9 *303:15 0.0108246
10 *1000:DIODE *474:26 5.04995e-05
11 *11911:A0 *637:172 9.84851e-05
12 *303:15 *12154:DI[29] 2.5604e-05
13 *303:15 *484:85 0
14 *303:15 *489:63 0
15 *303:15 *638:245 0.000136163
16 *303:23 *449:84 0
17 *303:23 *454:72 0
18 *303:23 *476:56 0
19 *303:23 *498:47 0
20 *303:25 *555:18 0.0173864
21 *901:DIODE *1000:DIODE 5.01247e-05
22 *901:DIODE *303:35 2.76611e-06
23 *171:10 *1000:DIODE 0
24 *271:19 *303:33 5.58152e-06
25 *271:19 *303:35 6.45824e-05
26 *290:23 *303:33 4.59167e-06
27 *295:19 *303:23 0
28 *297:15 *11911:A0 9.84851e-05
29 *300:17 *303:25 0.00332986
30 *300:25 *303:33 5.10545e-05
*RES
1 *12154:DO[29] *303:15 38.7923
2 *303:15 *303:23 45.2395
3 *303:23 *303:25 54.7643
4 *303:25 *303:33 16.42
5 *303:33 *303:35 3.66643
6 *303:35 *1000:DIODE 43.075
7 *303:35 *11911:A0 39.0979
8 *303:33 *999:DIODE 38
*END

*D_NET *304 0.0962388
*CONN
*I *1006:DIODE I *D sky130_fd_sc_hd__diode_2
*I *1004:DIODE I *D sky130_fd_sc_hd__diode_2
*I *1002:DIODE I *D sky130_fd_sc_hd__diode_2
*I *11830:A0 I *D sky130_fd_sc_hd__mux2_2
*I *1003:DIODE I *D sky130_fd_sc_hd__diode_2
*I *1005:DIODE I *D sky130_fd_sc_hd__diode_2
*I *1008:DIODE I *D sky130_fd_sc_hd__diode_2
*I *1001:DIODE I *D sky130_fd_sc_hd__diode_2
*I *12154:DO[2] O *D CF_SRAM_1024x32
*CAP
1 *1006:DIODE 9.11997e-05
2 *1004:DIODE 0
3 *1002:DIODE 0
4 *11830:A0 3.93866e-05
5 *1003:DIODE 0
6 *1005:DIODE 0
7 *1008:DIODE 8.81957e-05
8 *1001:DIODE 0
9 *12154:DO[2] 0.00194289
10 *304:56 0.000173677
11 *304:54 0.000301183
12 *304:52 0.000555697
13 *304:50 0.000386089
14 *304:48 0.000176681
15 *304:41 0.00111366
16 *304:35 0.00350482
17 *304:29 0.00475908
18 *304:23 0.015786
19 *304:21 0.0207182
20 *304:17 0.00924299
21 *304:17 *12154:DI[2] 3.65335e-05
22 *304:17 *415:80 0.00355609
23 *304:17 *480:58 4.80427e-05
24 *304:17 *560:346 4.80427e-05
25 *304:21 *313:19 0.0096282
26 *304:23 *311:23 0
27 *304:23 *463:26 0.001065
28 *304:23 *485:26 0.000250549
29 *304:23 *507:26 0.00046017
30 *304:29 *362:76 0.00011563
31 *304:35 *362:76 0.000423284
32 *304:41 *362:76 0.000102364
33 *304:41 *515:8 6.70361e-05
34 *304:41 *550:28 9.75778e-05
35 *304:54 *11830:S 2.02872e-05
36 *11830:A1 *304:54 8.06804e-06
37 *117:8 *1006:DIODE 4.08664e-05
38 *117:8 *304:50 8.17328e-05
39 *117:8 *304:52 0.000135037
40 *117:12 *304:41 0.000828365
41 *121:10 *304:35 0.00113152
42 *121:10 *304:41 1.12487e-05
43 *151:14 *304:23 0.00033945
44 *161:14 *304:23 0.00329796
45 *163:16 *304:23 0.00261434
46 *272:27 *1008:DIODE 9.41704e-05
47 *272:27 *304:54 8.17328e-05
48 *272:27 *304:56 8.17328e-05
49 *282:27 *304:29 0.000931713
50 *282:27 *304:35 0.000691493
51 *283:21 *304:21 0
52 *283:23 *304:23 0
53 *287:26 *304:23 0.00712644
54 *289:80 *304:35 0.000167443
55 *291:47 *304:35 0.000387404
56 *294:17 *304:21 0.0033896
*RES
1 *12154:DO[2] *304:17 40.6766
2 *304:17 *304:21 44.7397
3 *304:21 *304:23 53.508
4 *304:23 *304:29 47.4814
5 *304:29 *304:35 46.8868
6 *304:35 *304:41 31.7993
7 *304:41 *1001:DIODE 23
8 *304:35 *304:48 15
9 *304:48 *304:50 1.09786
10 *304:50 *304:52 3.48
11 *304:52 *304:54 2.52714
12 *304:54 *304:56 1.09786
13 *304:56 *1008:DIODE 24.0979
14 *304:56 *1005:DIODE 23
15 *304:54 *1003:DIODE 23
16 *304:52 *11830:A0 23.8493
17 *304:50 *1002:DIODE 23
18 *304:48 *1004:DIODE 23
19 *304:48 *1006:DIODE 24.0979
*END

*D_NET *305 0.0689789
*CONN
*I *1009:DIODE I *D sky130_fd_sc_hd__diode_2
*I *11914:A0 I *D sky130_fd_sc_hd__mux2_4
*I *1010:DIODE I *D sky130_fd_sc_hd__diode_2
*I *12154:DO[30] O *D CF_SRAM_1024x32
*CAP
1 *1009:DIODE 0
2 *11914:A0 2.01521e-05
3 *1010:DIODE 0.0002747
4 *12154:DO[30] 0.00372606
5 *305:27 0.000496335
6 *305:25 0.000371943
7 *305:17 0.0145663
8 *305:15 0.0143959
9 *305:13 0.00372606
10 *11914:A0 *637:185 9.84851e-05
11 *305:13 *12154:BEN[30] 0.000177513
12 *305:13 *12154:DI[29] 2.12991e-05
13 *305:13 *12154:DI[30] 2.62944e-05
14 *305:13 *489:63 0.00110171
15 *305:13 *493:57 0
16 *903:DIODE *1010:DIODE 5.01247e-05
17 *903:DIODE *305:27 2.76611e-06
18 *171:10 *1010:DIODE 0
19 *173:10 *1010:DIODE 0
20 *273:19 *305:25 5.58152e-06
21 *273:19 *305:27 7.16775e-05
22 *290:23 *305:25 8.23601e-05
23 *297:15 *11914:A0 9.84851e-05
24 *301:25 *305:25 0.000255162
25 *302:17 *305:17 0.02941
*RES
1 *12154:DO[30] *305:13 42.5256
2 *305:13 *305:15 8
3 *305:15 *305:17 72.7888
4 *305:17 *305:25 17.1928
5 *305:25 *305:27 3.66643
6 *305:27 *1010:DIODE 43.075
7 *305:27 *11914:A0 39.0979
8 *305:25 *1009:DIODE 38
*END

*D_NET *306 0.0646796
*CONN
*I *1011:DIODE I *D sky130_fd_sc_hd__diode_2
*I *11917:A0 I *D sky130_fd_sc_hd__mux2_4
*I *1012:DIODE I *D sky130_fd_sc_hd__diode_2
*I *12154:DO[31] O *D CF_SRAM_1024x32
*CAP
1 *1011:DIODE 0
2 *11917:A0 4.56551e-05
3 *1012:DIODE 0.000159263
4 *12154:DO[31] 0.0024749
5 *306:35 0.000330753
6 *306:33 0.000210624
7 *306:25 0.0084599
8 *306:19 0.0181457
9 *306:15 0.0122455
10 *1012:DIODE *426:6 9.84794e-05
11 *1012:DIODE *443:10 5.70419e-05
12 *1012:DIODE *507:26 9.28078e-06
13 *306:15 *12154:BEN[31] 0.000396129
14 *306:15 *12154:DI[30] 0
15 *306:15 *12154:DI[31] 2.67189e-05
16 *306:15 *493:57 0
17 *306:15 *498:53 0
18 *306:25 *311:21 0.000595914
19 *306:25 *415:80 0
20 *306:25 *424:92 0
21 *306:33 *637:196 0
22 *306:35 *637:196 0
23 *904:DIODE *1012:DIODE 0.00014041
24 *904:DIODE *306:35 2.55642e-05
25 *11917:A1 *11917:A0 9.84851e-05
26 *165:14 *306:33 0
27 *274:22 *306:33 3.78814e-05
28 *274:22 *306:35 0.000194318
29 *294:17 *306:19 0.00746026
30 *296:19 *306:25 0.000395012
31 *298:17 *306:25 0.0130605
32 *301:25 *306:33 1.13839e-05
*RES
1 *12154:DO[31] *306:15 45.2226
2 *306:15 *306:19 47.4053
3 *306:19 *306:25 47.0805
4 *306:25 *306:33 16.7721
5 *306:33 *306:35 2.96214
6 *306:35 *1012:DIODE 41.7079
7 *306:35 *11917:A0 39.0979
8 *306:33 *1011:DIODE 38
*END

*D_NET *307 0.104627
*CONN
*I *1020:DIODE I *D sky130_fd_sc_hd__diode_2
*I *1017:DIODE I *D sky130_fd_sc_hd__diode_2
*I *1015:DIODE I *D sky130_fd_sc_hd__diode_2
*I *11833:A0 I *D sky130_fd_sc_hd__mux2_2
*I *1014:DIODE I *D sky130_fd_sc_hd__diode_2
*I *1016:DIODE I *D sky130_fd_sc_hd__diode_2
*I *1019:DIODE I *D sky130_fd_sc_hd__diode_2
*I *1013:DIODE I *D sky130_fd_sc_hd__diode_2
*I *12154:DO[3] O *D CF_SRAM_1024x32
*CAP
1 *1020:DIODE 4.31211e-05
2 *1017:DIODE 0
3 *1015:DIODE 0
4 *11833:A0 0
5 *1014:DIODE 0
6 *1016:DIODE 0
7 *1019:DIODE 4.47995e-05
8 *1013:DIODE 0
9 *12154:DO[3] 0.000933329
10 *307:66 0.000117791
11 *307:64 0.000146961
12 *307:55 0.000276343
13 *307:49 0.000523295
14 *307:41 0.000390237
15 *307:39 0.000297638
16 *307:37 0.000878372
17 *307:27 0.0127803
18 *307:25 0.0128805
19 *307:19 0.0141298
20 *307:17 0.014208
21 *307:17 *12154:DI[3] 0.000112788
22 *307:17 *409:30 0.00101177
23 *307:17 *480:58 2.11157e-05
24 *307:19 *312:21 0.00185861
25 *307:19 *467:52 0
26 *307:19 *476:56 0
27 *307:25 *471:102 0.000875084
28 *307:27 *471:102 0.0289301
29 *307:37 *389:52 2.11157e-05
30 *307:37 *471:102 0.000392948
31 *307:37 *517:56 2.31209e-05
32 *307:55 *395:58 2.24151e-05
33 *307:55 *415:56 0.000584976
34 *307:55 *438:74 0.00073478
35 *905:DIODE *307:55 0.000109739
36 *11833:A1 *307:49 5.23175e-05
37 *11833:A1 *307:64 5.56356e-05
38 *119:6 *1019:DIODE 1.59094e-05
39 *119:6 *307:41 6.92412e-05
40 *119:6 *307:49 2.06822e-05
41 *119:6 *307:64 1.21972e-05
42 *119:6 *307:66 2.81066e-05
43 *292:17 *307:19 0.0120239
*RES
1 *12154:DO[3] *307:17 35.5151
2 *307:17 *307:19 50.7024
3 *307:19 *307:25 11.3301
4 *307:25 *307:27 54.152
5 *307:27 *307:37 25.2344
6 *307:37 *307:39 1.09786
7 *307:39 *307:41 3.00357
8 *307:41 *307:49 3.19
9 *307:49 *307:55 40.005
10 *307:55 *1013:DIODE 23
11 *307:49 *307:64 1.595
12 *307:64 *307:66 1.09786
13 *307:66 *1019:DIODE 23.6214
14 *307:66 *1016:DIODE 23
15 *307:64 *1014:DIODE 23
16 *307:41 *11833:A0 23
17 *307:39 *1015:DIODE 23
18 *307:37 *1017:DIODE 23
19 *307:37 *1020:DIODE 23.6214
*END

*D_NET *308 0.0873931
*CONN
*I *1026:DIODE I *D sky130_fd_sc_hd__diode_2
*I *1024:DIODE I *D sky130_fd_sc_hd__diode_2
*I *1022:DIODE I *D sky130_fd_sc_hd__diode_2
*I *11836:A0 I *D sky130_fd_sc_hd__mux2_2
*I *1021:DIODE I *D sky130_fd_sc_hd__diode_2
*I *1027:DIODE I *D sky130_fd_sc_hd__diode_2
*I *1023:DIODE I *D sky130_fd_sc_hd__diode_2
*I *1025:DIODE I *D sky130_fd_sc_hd__diode_2
*I *12154:DO[4] O *D CF_SRAM_1024x32
*CAP
1 *1026:DIODE 0
2 *1024:DIODE 0
3 *1022:DIODE 0
4 *11836:A0 7.32319e-05
5 *1021:DIODE 0
6 *1027:DIODE 0
7 *1023:DIODE 0
8 *1025:DIODE 9.60605e-05
9 *12154:DO[4] 0.000160768
10 *308:55 0.000180048
11 *308:35 0.000141568
12 *308:33 0.000273457
13 *308:31 0.000266745
14 *308:29 0.000530005
15 *308:27 0.000346971
16 *308:25 0.000194521
17 *308:23 0.000805057
18 *308:19 0.00611695
19 *308:17 0.00539738
20 *308:15 0.0217797
21 *308:13 0.0219405
22 *1025:DIODE *11836:S 4.67488e-05
23 *308:13 *12154:DI[4] 3.4377e-05
24 *308:13 *480:58 2.11157e-05
25 *308:13 *560:314 2.11157e-05
26 *308:19 *309:19 0.000465874
27 *308:19 *310:19 0.0166801
28 *308:31 *11836:S 4.05745e-05
29 *308:33 *11836:S 2.1819e-05
30 *308:35 *11836:S 2.31687e-05
31 *308:55 *409:14 8.04817e-05
32 *308:55 *438:80 4.67488e-05
33 *11836:A1 *308:31 2.92911e-06
34 *121:8 *308:23 0.000453101
35 *121:8 *308:25 8.17328e-05
36 *121:8 *308:27 0.000127408
37 *121:8 *308:29 0.000143259
38 *181:51 *308:19 0.00182914
39 *293:19 *308:19 0.00897041
*RES
1 *12154:DO[4] *308:13 25.5479
2 *308:13 *308:15 59.4757
3 *308:15 *308:17 8
4 *308:17 *308:19 238.37
5 *308:19 *308:23 23.7207
6 *308:23 *308:25 1.09786
7 *308:25 *308:27 1.57429
8 *308:27 *308:29 3.00357
9 *308:29 *308:31 2.52714
10 *308:31 *308:33 0.621429
11 *308:33 *308:35 0.621429
12 *308:35 *1025:DIODE 24.0979
13 *308:35 *1023:DIODE 23
14 *308:33 *308:55 32.2993
15 *308:55 *1027:DIODE 23
16 *308:31 *1021:DIODE 23
17 *308:29 *11836:A0 24.4707
18 *308:27 *1022:DIODE 23
19 *308:25 *1024:DIODE 23
20 *308:23 *1026:DIODE 23
*END

*D_NET *309 0.0917035
*CONN
*I *1033:DIODE I *D sky130_fd_sc_hd__diode_2
*I *1030:DIODE I *D sky130_fd_sc_hd__diode_2
*I *1035:DIODE I *D sky130_fd_sc_hd__diode_2
*I *11839:A0 I *D sky130_fd_sc_hd__mux2_2
*I *1028:DIODE I *D sky130_fd_sc_hd__diode_2
*I *1031:DIODE I *D sky130_fd_sc_hd__diode_2
*I *1032:DIODE I *D sky130_fd_sc_hd__diode_2
*I *1034:DIODE I *D sky130_fd_sc_hd__diode_2
*I *12154:DO[5] O *D CF_SRAM_1024x32
*CAP
1 *1033:DIODE 0
2 *1030:DIODE 0
3 *1035:DIODE 0
4 *11839:A0 0
5 *1028:DIODE 0
6 *1031:DIODE 0
7 *1032:DIODE 0
8 *1034:DIODE 4.11105e-05
9 *12154:DO[5] 0.000158455
10 *309:72 0.000390127
11 *309:37 7.95062e-05
12 *309:35 5.89509e-05
13 *309:33 0.000167553
14 *309:31 0.000361414
15 *309:27 0.00070256
16 *309:25 0.000321482
17 *309:23 0.00102908
18 *309:19 0.00621014
19 *309:17 0.00540452
20 *309:15 0.0148615
21 *309:13 0.01502
22 *1034:DIODE *11839:S 9.41704e-05
23 *309:13 *12154:DI[5] 3.32378e-05
24 *309:13 *480:58 2.11157e-05
25 *309:13 *560:302 2.11157e-05
26 *309:15 *400:103 0.0166052
27 *309:15 *402:74 0
28 *309:19 *310:19 0.0173414
29 *309:19 *365:74 0
30 *309:19 *365:78 0.00185846
31 *309:19 *365:92 6.3568e-06
32 *309:23 *11878:S 1.81737e-05
33 *309:25 *11878:S 2.9437e-05
34 *309:25 *636:43 1.61361e-05
35 *309:27 *636:43 1.61361e-05
36 *309:31 *636:43 2.45549e-06
37 *309:33 *11839:S 0.000122599
38 *309:35 *11839:S 4.08664e-05
39 *309:37 *11839:S 8.17328e-05
40 *309:72 *438:74 8.29264e-05
41 *309:72 *509:68 8.29264e-05
42 *970:DIODE *309:23 0.000177604
43 *11839:A1 *309:33 0.000122599
44 *123:6 *309:31 2.42041e-05
45 *123:6 *309:33 3.65917e-05
46 *149:8 *309:23 3.84903e-05
47 *181:51 *309:19 0.00225948
48 *259:17 *309:72 2.13952e-05
49 *274:14 *309:19 0
50 *277:15 *1034:DIODE 9.41704e-05
51 *277:15 *309:33 5.3304e-05
52 *277:15 *309:35 5.3304e-05
53 *277:15 *309:37 9.41704e-05
54 *289:27 *309:19 0.00658624
55 *291:23 *309:23 0.000219383
56 *291:25 *309:23 0.000175903
57 *308:19 *309:19 0.000465874
*RES
1 *12154:DO[5] *309:13 25.5686
2 *309:13 *309:15 59.304
3 *309:15 *309:17 8
4 *309:17 *309:19 235.553
5 *309:19 *309:23 25.15
6 *309:23 *309:25 2.52714
7 *309:25 *309:27 1.09786
8 *309:27 *309:31 2.54786
9 *309:31 *309:33 3.00357
10 *309:33 *309:35 0.621429
11 *309:35 *309:37 1.09786
12 *309:37 *1034:DIODE 24.0979
13 *309:37 *1032:DIODE 23
14 *309:35 *1031:DIODE 23
15 *309:33 *1028:DIODE 23
16 *309:31 *11839:A0 23
17 *309:27 *309:72 34.6814
18 *309:72 *1035:DIODE 23
19 *309:25 *1030:DIODE 23
20 *309:23 *1033:DIODE 23
*END

*D_NET *310 0.102288
*CONN
*I *1043:DIODE I *D sky130_fd_sc_hd__diode_2
*I *1041:DIODE I *D sky130_fd_sc_hd__diode_2
*I *1038:DIODE I *D sky130_fd_sc_hd__diode_2
*I *11842:A0 I *D sky130_fd_sc_hd__mux2_2
*I *1037:DIODE I *D sky130_fd_sc_hd__diode_2
*I *1039:DIODE I *D sky130_fd_sc_hd__diode_2
*I *1042:DIODE I *D sky130_fd_sc_hd__diode_2
*I *1036:DIODE I *D sky130_fd_sc_hd__diode_2
*I *12154:DO[6] O *D CF_SRAM_1024x32
*CAP
1 *1043:DIODE 0
2 *1041:DIODE 0
3 *1038:DIODE 0
4 *11842:A0 2.30556e-05
5 *1037:DIODE 0
6 *1039:DIODE 0
7 *1042:DIODE 8.81957e-05
8 *1036:DIODE 0
9 *12154:DO[6] 0.000159509
10 *310:44 0.000173677
11 *310:42 0.000283424
12 *310:40 0.000462725
13 *310:38 0.000334033
14 *310:36 0.000184614
15 *310:34 0.000653772
16 *310:25 0.00132199
17 *310:19 0.00626173
18 *310:17 0.00437827
19 *310:15 0.0149093
20 *310:13 0.0150688
21 *310:13 *12154:DI[6] 3.32378e-05
22 *310:13 *480:58 2.11157e-05
23 *310:13 *560:290 2.11157e-05
24 *310:15 *395:79 0.0166219
25 *310:19 *365:74 0
26 *310:25 *11976:A 0.000180095
27 *310:25 *11983:A 6.71297e-05
28 *310:25 *365:74 0
29 *310:25 *513:8 0.000148185
30 *310:25 *550:18 0.000398945
31 *310:34 *637:25 0.000288498
32 *310:36 *637:25 4.05745e-05
33 *310:38 *637:25 4.05745e-05
34 *310:40 *637:25 0.000127668
35 *310:42 *637:25 4.34559e-05
36 *11842:A1 *310:42 5.3304e-05
37 *145:10 *310:19 0.000225477
38 *149:10 *310:19 0.00208961
39 *149:10 *310:25 0.000655888
40 *181:51 *310:19 0.00255384
41 *202:11 *310:25 5.61255e-06
42 *278:23 *1042:DIODE 9.41704e-05
43 *278:23 *310:42 8.17328e-05
44 *278:23 *310:44 8.17328e-05
45 *293:19 *310:19 8.90786e-05
46 *308:19 *310:19 0.0166801
47 *309:19 *310:19 0.0173414
*RES
1 *12154:DO[6] *310:13 25.5893
2 *310:13 *310:15 59.3899
3 *310:15 *310:17 8
4 *310:17 *310:19 252.455
5 *310:19 *310:25 36.605
6 *310:25 *1036:DIODE 23
7 *310:19 *310:34 21.815
8 *310:34 *310:36 1.09786
9 *310:36 *310:38 1.09786
10 *310:38 *310:40 3.00357
11 *310:40 *310:42 2.52714
12 *310:42 *310:44 1.09786
13 *310:44 *1042:DIODE 24.0979
14 *310:44 *1039:DIODE 23
15 *310:42 *1037:DIODE 23
16 *310:40 *11842:A0 23.4971
17 *310:38 *1038:DIODE 23
18 *310:36 *1041:DIODE 23
19 *310:34 *1043:DIODE 23
*END

*D_NET *311 0.0993112
*CONN
*I *1044:DIODE I *D sky130_fd_sc_hd__diode_2
*I *11845:A0 I *D sky130_fd_sc_hd__mux2_2
*I *12154:DO[7] O *D CF_SRAM_1024x32
*CAP
1 *1044:DIODE 0.000203017
2 *11845:A0 0.000286805
3 *12154:DO[7] 0.00289442
4 *311:27 0.0021471
5 *311:25 0.00165728
6 *311:23 0.01164
7 *311:21 0.0172149
8 *311:17 0.00846936
9 *11845:A0 *395:58 0.000435684
10 *11845:A0 *438:74 0.000102597
11 *11845:A0 *635:63 9.65021e-05
12 *311:17 *12154:DI[7] 3.32378e-05
13 *311:17 *393:53 0.00251783
14 *311:17 *480:58 2.11157e-05
15 *311:17 *560:278 2.11157e-05
16 *311:23 *485:26 0.00051996
17 *311:23 *507:26 0.00046017
18 *311:27 *395:58 0.00539954
19 *311:27 *502:60 0.000653937
20 *311:27 *506:62 2.56923e-05
21 *151:14 *311:23 0.000694472
22 *165:16 *311:21 0.00030663
23 *250:15 *1044:DIODE 0.00021677
24 *283:23 *311:23 0.0279408
25 *283:27 *11845:A0 0.000208784
26 *283:27 *311:27 0.00535725
27 *284:26 *311:23 1.67025e-05
28 *287:26 *311:23 0
29 *296:19 *311:21 0.00917349
30 *304:23 *311:23 0
31 *306:25 *311:21 0.000595914
*RES
1 *12154:DO[7] *311:17 42.9825
2 *311:17 *311:21 35.4736
3 *311:21 *311:23 52.6493
4 *311:23 *311:25 8
5 *311:25 *311:27 72.1582
6 *311:27 *11845:A0 45.2293
7 *311:27 *1044:DIODE 40.5271
*END

*D_NET *312 0.098986
*CONN
*I *1053:DIODE I *D sky130_fd_sc_hd__diode_2
*I *1052:DIODE I *D sky130_fd_sc_hd__diode_2
*I *1049:DIODE I *D sky130_fd_sc_hd__diode_2
*I *1047:DIODE I *D sky130_fd_sc_hd__diode_2
*I *1050:DIODE I *D sky130_fd_sc_hd__diode_2
*I *1048:DIODE I *D sky130_fd_sc_hd__diode_2
*I *1046:DIODE I *D sky130_fd_sc_hd__diode_2
*I *1045:DIODE I *D sky130_fd_sc_hd__diode_2
*I *11848:A0 I *D sky130_fd_sc_hd__mux2_2
*I *12154:DO[8] O *D CF_SRAM_1024x32
*CAP
1 *1053:DIODE 0.000242581
2 *1052:DIODE 0
3 *1049:DIODE 0
4 *1047:DIODE 0.000102669
5 *1050:DIODE 6.444e-05
6 *1048:DIODE 0
7 *1046:DIODE 0
8 *1045:DIODE 0
9 *11848:A0 8.39684e-05
10 *12154:DO[8] 0.000704092
11 *312:72 0.000159701
12 *312:70 5.70324e-05
13 *312:56 0.00012888
14 *312:49 0.00012888
15 *312:42 0.000155978
16 *312:33 0.000374727
17 *312:29 0.000355855
18 *312:27 0.00218791
19 *312:23 0.0157397
20 *312:21 0.0168311
21 *312:17 0.00358418
22 *312:17 *12154:DI[8] 5.49244e-05
23 *312:17 *389:56 0.000831396
24 *312:17 *432:54 4.35681e-06
25 *312:17 *480:58 2.11066e-05
26 *312:21 *476:56 0.00226858
27 *312:27 *369:74 0.00010083
28 *3:19 *312:23 0.002781
29 *169:12 *312:23 0.0014421
30 *171:12 *312:23 0.00107559
31 *207:11 *1050:DIODE 8.17328e-05
32 *207:11 *11848:A0 0.000139069
33 *207:11 *312:42 0.000123838
34 *207:11 *312:49 8.17328e-05
35 *207:11 *312:56 8.17328e-05
36 *250:11 *312:27 0.00250008
37 *250:11 *312:29 0.00021289
38 *250:11 *312:33 0.000274291
39 *284:26 *312:23 0.0314148
40 *287:22 *312:21 0.00508102
41 *292:17 *312:21 0.00765465
42 *307:19 *312:21 0.00185861
*RES
1 *12154:DO[8] *312:17 35.2545
2 *312:17 *312:21 33.6965
3 *312:21 *312:23 61.4077
4 *312:23 *312:27 41.4225
5 *312:27 *312:29 2.96214
6 *312:29 *312:33 18.6664
7 *312:33 *11848:A0 24.5743
8 *312:33 *312:42 1.57429
9 *312:42 *1045:DIODE 23
10 *312:42 *312:49 1.09786
11 *312:49 *1046:DIODE 23
12 *312:49 *312:56 1.09786
13 *312:56 *1048:DIODE 23
14 *312:56 *1050:DIODE 24.0979
15 *312:29 *312:70 15
16 *312:70 *312:72 0.621429
17 *312:72 *1047:DIODE 24.0979
18 *312:72 *1049:DIODE 23
19 *312:70 *1052:DIODE 23
20 *312:27 *1053:DIODE 40.5271
*END

*D_NET *313 0.08083
*CONN
*I *1059:DIODE I *D sky130_fd_sc_hd__diode_2
*I *1057:DIODE I *D sky130_fd_sc_hd__diode_2
*I *1055:DIODE I *D sky130_fd_sc_hd__diode_2
*I *1060:DIODE I *D sky130_fd_sc_hd__diode_2
*I *1054:DIODE I *D sky130_fd_sc_hd__diode_2
*I *1056:DIODE I *D sky130_fd_sc_hd__diode_2
*I *1058:DIODE I *D sky130_fd_sc_hd__diode_2
*I *11851:A0 I *D sky130_fd_sc_hd__mux2_2
*I *12154:DO[9] O *D CF_SRAM_1024x32
*CAP
1 *1059:DIODE 0
2 *1057:DIODE 0
3 *1055:DIODE 0
4 *1060:DIODE 0
5 *1054:DIODE 0
6 *1056:DIODE 0
7 *1058:DIODE 4.00162e-05
8 *11851:A0 0
9 *12154:DO[9] 0.00229089
10 *313:73 0.000275595
11 *313:48 7.91358e-05
12 *313:46 0.000184949
13 *313:37 0.000185165
14 *313:35 0.000529174
15 *313:33 0.000291742
16 *313:31 0.000150902
17 *313:29 8.60377e-05
18 *313:23 0.0157761
19 *313:21 0.0157635
20 *313:19 0.0082536
21 *313:17 0.0105445
22 *1058:DIODE *636:8 4.96303e-05
23 *313:17 *12154:BEN[8] 2.11066e-05
24 *313:17 *12154:DI[9] 5.49244e-05
25 *313:17 *387:83 0.00362272
26 *313:17 *480:58 2.11066e-05
27 *313:23 *462:32 0.00490262
28 *313:29 *389:52 2.11157e-05
29 *313:29 *417:64 2.31209e-05
30 *313:35 *11851:S 8.73233e-05
31 *313:37 *11851:S 2.02872e-05
32 *313:46 *11851:S 0.000135037
33 *313:46 *636:8 2.93431e-05
34 *313:46 *636:130 1.56446e-05
35 *313:48 *636:8 4.96207e-05
36 *313:73 *438:74 0.000186206
37 *313:73 *509:68 0.000189157
38 *313:73 *635:29 6.17437e-06
39 *11851:A1 *313:46 4.67488e-05
40 *131:6 *313:31 2.81066e-05
41 *131:6 *313:33 2.81066e-05
42 *131:6 *313:35 2.43944e-05
43 *234:15 *313:23 3.2336e-05
44 *234:17 *313:19 0.000181531
45 *281:27 *1058:DIODE 9.65021e-05
46 *281:27 *313:46 2.02872e-05
47 *281:27 *313:48 8.29713e-05
48 *283:21 *313:19 0
49 *294:17 *313:19 0.00677438
50 *304:21 *313:19 0.0096282
*RES
1 *12154:DO[9] *313:17 40.5576
2 *313:17 *313:19 42.0709
3 *313:19 *313:21 8
4 *313:21 *313:23 53.9373
5 *313:23 *313:29 23.3211
6 *313:29 *313:31 1.09786
7 *313:31 *313:33 1.09786
8 *313:33 *313:35 3.00357
9 *313:35 *313:37 0.621429
10 *313:37 *11851:A0 23
11 *313:37 *313:46 3.02429
12 *313:46 *313:48 1.09786
13 *313:48 *1058:DIODE 24.0979
14 *313:48 *1056:DIODE 23
15 *313:46 *1054:DIODE 23
16 *313:35 *313:73 34.6607
17 *313:73 *1060:DIODE 23
18 *313:33 *1055:DIODE 23
19 *313:31 *1057:DIODE 23
20 *313:29 *1059:DIODE 23
*END

*D_NET *318 0.0158986
*CONN
*I *11815:A I *D sky130_fd_sc_hd__inv_2
*I *12164:X O *D sky130_fd_sc_hd__buf_1
*CAP
1 *11815:A 5.11176e-05
2 *12164:X 6.41771e-05
3 *318:20 0.00141429
4 *318:12 0.00500373
5 *318:10 0.00364056
6 *318:8 6.41771e-05
7 *11815:A *628:63 3.75135e-05
8 *318:12 *363:12 0.00470019
9 *318:12 *374:14 0.000125621
10 *318:20 *617:10 1.08287e-05
11 *318:20 *628:63 0.000281919
12 *318:20 *628:65 3.58358e-05
13 *318:20 *631:36 0.000139357
14 wbs_ack_o *318:8 0
15 *12164:A *318:8 2.79004e-05
16 *28:13 *318:20 0.00030139
*RES
1 *12164:X *318:8 39.2014
2 *318:8 *318:10 15
3 *318:10 *318:12 58.7457
4 *318:12 *318:20 48.85
5 *318:20 *11815:A 24.2014
*END

*D_NET *319 0.0638263
*CONN
*I *11974:A I *D sky130_fd_sc_hd__buf_12
*I *12165:X O *D sky130_fd_sc_hd__buf_12
*CAP
1 *11974:A 0
2 *12165:X 0.000256668
3 *319:34 0.00664653
4 *319:32 0.00664653
5 *319:30 0.0016485
6 *319:22 0.0020696
7 *319:16 0.00180906
8 *319:14 0.00246725
9 *319:10 0.00133596
10 *319:14 *503:8 8.68369e-05
11 *319:14 *586:16 0
12 *319:14 *588:46 0
13 *319:14 *594:10 0.000988193
14 *319:14 *621:20 1.43921e-05
15 *319:16 *360:32 0.00113559
16 *319:16 *360:36 2.21614e-05
17 *319:16 *362:26 0.000683919
18 *319:16 *557:30 2.11157e-05
19 *319:16 *557:136 0.000807243
20 *319:16 *594:10 5.92968e-06
21 *319:30 *11814:A 0.00010769
22 *319:30 *577:16 0.000325404
23 *319:34 *11855:S 0.000191148
24 *319:34 *11864:S 0.000511442
25 *319:34 *12124:DI[4] 2.11066e-05
26 *319:34 *12124:DI[5] 2.11157e-05
27 *319:34 *382:46 0.0011431
28 *319:34 *395:10 0.00922658
29 *319:34 *402:10 0.00990847
30 *319:34 *402:54 0.00150514
31 *319:34 *409:12 0.00110188
32 *319:34 *409:54 6.02277e-06
33 *319:34 *520:18 0.00105228
34 *319:34 *560:8 0.000239601
35 *319:34 *577:28 0.000180939
36 *319:34 *626:10 0.000264391
37 *319:34 *626:38 0.000392593
38 *319:34 *626:49 0.00121795
39 *319:34 *626:60 0.000235989
40 *319:34 *626:71 0.000353982
41 *650:DIODE *319:16 0.000190254
42 *118:12 *319:34 0.001071
43 *118:14 *319:30 0.00226142
44 *120:16 *319:34 2.72979e-05
45 *120:18 *319:16 0.000625841
46 *122:14 *319:34 1.22906e-05
47 *122:22 *319:34 0.000509837
48 *122:26 *319:14 0
49 *122:26 *319:16 0
50 *123:34 *319:34 4.45778e-05
51 *126:8 *319:16 0.000513531
52 *126:14 *319:16 0.000383838
53 *135:34 *319:34 2.05503e-05
54 *180:10 *319:16 0.000502654
55 *193:34 *319:16 0.000606276
56 *220:127 *319:34 2.05503e-05
57 *221:98 *319:34 0.000192077
58 *222:89 *319:34 0.000108681
59 *223:45 *319:34 0.00208332
*RES
1 *12165:X *319:10 41.1589
2 *319:10 *319:14 21.1079
3 *319:14 *319:16 46.8039
4 *319:16 *319:22 34.9093
5 *319:22 *319:30 46.9
6 *319:30 *319:32 15
7 *319:32 *319:34 230.799
8 *319:34 *11974:A 38
*END

*D_NET *320 0.00236568
*CONN
*I *12124:SM I *D CF_SRAM_1024x32
*I *12125:LO O *D sky130_fd_sc_hd__conb_1
*CAP
1 *12124:SM 0.000788391
2 *12125:LO 0.000788391
3 *12124:SM *12124:WLOFF 0
4 *12124:SM *12124:EN 0
5 *12124:SM *12124:ScanInDR 0
6 *12124:SM *360:74 0.0007889
*RES
1 *12125:LO *12124:SM 36.1898
*END

*D_NET *321 0.00252869
*CONN
*I *12124:ScanInCC I *D CF_SRAM_1024x32
*I *12126:LO O *D sky130_fd_sc_hd__conb_1
*CAP
1 *12124:ScanInCC 0.000722924
2 *12126:LO 0.000722924
3 *12124:ScanInCC *12124:AD[3] 0.00106961
4 *12124:ScanInCC *12124:DI[0] 0
5 *12124:ScanInCC *502:31 1.32314e-05
6 *186:19 *12124:ScanInCC 0
*RES
1 *12126:LO *12124:ScanInCC 36.1432
*END

*D_NET *322 0.00201402
*CONN
*I *12124:ScanInDL I *D CF_SRAM_1024x32
*I *12127:LO O *D sky130_fd_sc_hd__conb_1
*CAP
1 *12124:ScanInDL 0.00100282
2 *12127:LO 0.00100282
3 *12124:ScanInDL *12124:DI[0] 8.37372e-06
*RES
1 *12127:LO *12124:ScanInDL 36.9925
*END

*D_NET *323 0.00218766
*CONN
*I *12124:ScanInDR I *D CF_SRAM_1024x32
*I *12128:LO O *D sky130_fd_sc_hd__conb_1
*CAP
1 *12124:ScanInDR 0.00100242
2 *12128:LO 0.00100242
3 *12124:SM *12124:ScanInDR 0
4 *193:12 *12124:ScanInDR 0.000182826
*RES
1 *12128:LO *12124:ScanInDR 37.2514
*END

*D_NET *324 0.00301292
*CONN
*I *12124:TM I *D CF_SRAM_1024x32
*I *12129:LO O *D sky130_fd_sc_hd__conb_1
*CAP
1 *12124:TM 0.000234221
2 *12129:LO 0.000721296
3 *324:8 0.000955518
4 *12124:TM *12124:BEN[16] 5.12137e-05
5 *12124:TM *12124:WLBI 4.91066e-05
6 *12124:TM *360:76 0.0001625
7 *12124:TM *639:6 1.39056e-05
8 *324:8 *12124:WLBI 0.000613685
9 *123:18 *12124:TM 0.000164731
10 *194:18 *12124:TM 4.67488e-05
*RES
1 *12129:LO *324:8 49.1029
2 *324:8 *12124:TM 20.6239
*END

*D_NET *325 0.00250215
*CONN
*I *12124:WLBI I *D CF_SRAM_1024x32
*I *12130:LO O *D sky130_fd_sc_hd__conb_1
*CAP
1 *12124:WLBI 0.000829571
2 *12130:LO 0.000829571
3 *12124:TM *12124:WLBI 4.91066e-05
4 *194:18 *12124:WLBI 0.000180212
5 *324:8 *12124:WLBI 0.000613685
*RES
1 *12130:LO *12124:WLBI 37.4016
*END

*D_NET *326 0.00223241
*CONN
*I *12124:WLOFF I *D CF_SRAM_1024x32
*I *12131:LO O *D sky130_fd_sc_hd__conb_1
*CAP
1 *12124:WLOFF 0.00109212
2 *12131:LO 0.00109212
3 *12124:WLOFF *12124:EN 4.81671e-05
4 *12124:WLOFF *360:74 0
5 *12124:R_WB *12124:WLOFF 0
6 *12124:SM *12124:WLOFF 0
*RES
1 *12131:LO *12124:WLOFF 38.3959
*END

*D_NET *327 0.00180624
*CONN
*I *12134:SM I *D CF_SRAM_1024x32
*I *12135:LO O *D sky130_fd_sc_hd__conb_1
*CAP
1 *12134:SM 0.000903121
2 *12135:LO 0.000903121
3 *12134:SM *12134:WLOFF 0
4 *12134:SM *12134:EN 0
5 *12134:SM *12134:ScanInDR 0
*RES
1 *12135:LO *12134:SM 36.4798
*END

*D_NET *328 0.00193993
*CONN
*I *12134:ScanInCC I *D CF_SRAM_1024x32
*I *12136:LO O *D sky130_fd_sc_hd__conb_1
*CAP
1 *12134:ScanInCC 0.000908533
2 *12136:LO 0.000908533
3 *12134:ScanInCC *12134:AD[3] 0.000120953
4 *12134:ScanInCC *12134:AD[9] 0
5 *12134:ScanInCC *471:26 1.91029e-06
6 *218:17 *12134:ScanInCC 0
7 *225:30 *12134:ScanInCC 0
*RES
1 *12136:LO *12134:ScanInCC 36.1432
*END

*D_NET *329 0.00196433
*CONN
*I *12134:ScanInDL I *D CF_SRAM_1024x32
*I *12137:LO O *D sky130_fd_sc_hd__conb_1
*CAP
1 *12134:ScanInDL 0.000982166
2 *12137:LO 0.000982166
3 *12134:ScanInDL *12134:BEN[0] 0
*RES
1 *12137:LO *12134:ScanInDL 36.6818
*END

*D_NET *330 0.0644769
*CONN
*I *11976:A I *D sky130_fd_sc_hd__buf_12
*I *12166:X O *D sky130_fd_sc_hd__buf_12
*CAP
1 *11976:A 0.000458074
2 *12166:X 0
3 *330:16 0.00232977
4 *330:14 0.00247672
5 *330:8 0.00644346
6 *330:6 0.00583844
7 *11976:A *513:8 0.000300209
8 *330:8 *341:10 0
9 *330:8 *396:16 0
10 *330:8 *536:8 0
11 *330:8 *540:18 0
12 *330:16 *407:16 0.000277816
13 *330:16 *452:24 0.000601295
14 *330:16 *578:26 0.00123587
15 *330:16 *581:26 2.33476e-05
16 *968:DIODE *330:16 0.000213153
17 *35:9 *330:8 0
18 *117:14 *330:16 0.00151751
19 *121:18 *330:16 0.00577398
20 *149:18 *330:8 0.0140988
21 *177:22 *330:8 0.000324179
22 *202:11 *11976:A 0.000964439
23 *202:15 *330:8 0.018356
24 *210:13 *330:8 0.00205309
25 *290:31 *330:16 0.000275473
26 *290:33 *330:16 8.4047e-05
27 *290:35 *330:16 0.000243307
28 *290:37 *330:16 0.000187902
29 *290:39 *330:16 0.000219882
30 *310:25 *11976:A 0.000180095
*RES
1 *12166:X *330:6 38
2 *330:6 *330:8 263.548
3 *330:8 *330:14 37.2914
4 *330:14 *330:16 76.9121
5 *330:16 *11976:A 49.1029
*END

*D_NET *331 0.00203194
*CONN
*I *12134:ScanInDR I *D CF_SRAM_1024x32
*I *12138:LO O *D sky130_fd_sc_hd__conb_1
*CAP
1 *12134:ScanInDR 0.000905429
2 *12138:LO 0.000905429
3 *12134:SM *12134:ScanInDR 0
4 *225:18 *12134:ScanInDR 0.000221084
*RES
1 *12138:LO *12134:ScanInDR 37.2514
*END

*D_NET *332 0.0028124
*CONN
*I *12134:TM I *D CF_SRAM_1024x32
*I *12139:LO O *D sky130_fd_sc_hd__conb_1
*CAP
1 *12134:TM 0.000313138
2 *12139:LO 0.000590939
3 *332:10 0.000904078
4 *12134:TM *12134:BEN[16] 4.98778e-05
5 *12134:TM *12134:WLBI 8.86038e-05
6 *332:10 *12134:WLBI 0.000633324
7 *167:16 *332:10 7.18841e-05
8 *237:11 *332:10 0.00016056
*RES
1 *12139:LO *332:10 48.9786
2 *332:10 *12134:TM 20.7482
*END

*D_NET *333 0.00239629
*CONN
*I *12134:WLBI I *D CF_SRAM_1024x32
*I *12140:LO O *D sky130_fd_sc_hd__conb_1
*CAP
1 *12134:WLBI 0.000747073
2 *12140:LO 0.000747073
3 *12134:WLBI *426:16 0
4 *12134:TM *12134:WLBI 8.86038e-05
5 *226:16 *12134:WLBI 0.000180218
6 *332:10 *12134:WLBI 0.000633324
*RES
1 *12140:LO *12134:WLBI 37.4016
*END

*D_NET *334 0.00221823
*CONN
*I *12134:WLOFF I *D CF_SRAM_1024x32
*I *12141:LO O *D sky130_fd_sc_hd__conb_1
*CAP
1 *12134:WLOFF 0.000997162
2 *12141:LO 0.000997162
3 *12134:WLOFF *12134:EN 0.000223906
4 *12134:R_WB *12134:WLOFF 0
5 *12134:SM *12134:WLOFF 0
*RES
1 *12141:LO *12134:WLOFF 38.3959
*END

*D_NET *335 0.00153782
*CONN
*I *12144:SM I *D CF_SRAM_1024x32
*I *12145:LO O *D sky130_fd_sc_hd__conb_1
*CAP
1 *12144:SM 0.000768912
2 *12145:LO 0.000768912
3 *12144:SM *12144:ScanInDR 0
*RES
1 *12145:LO *12144:SM 36.4384
*END

*D_NET *336 0.00178
*CONN
*I *12144:ScanInCC I *D CF_SRAM_1024x32
*I *12146:LO O *D sky130_fd_sc_hd__conb_1
*CAP
1 *12144:ScanInCC 0.000688069
2 *12146:LO 0.000688069
3 *12144:ScanInCC *12144:AD[3] 0.000403861
4 *250:9 *12144:ScanInCC 0
*RES
1 *12146:LO *12144:ScanInCC 36.9511
*END

*D_NET *337 0.00231606
*CONN
*I *12144:ScanInDL I *D CF_SRAM_1024x32
*I *12147:LO O *D sky130_fd_sc_hd__conb_1
*CAP
1 *12144:ScanInDL 0.000593859
2 *12147:LO 0.000593859
3 *12144:ScanInDL *12144:DI[0] 0.00112835
*RES
1 *12147:LO *12144:ScanInDL 37.6554
*END

*D_NET *338 0.00191854
*CONN
*I *12144:ScanInDR I *D CF_SRAM_1024x32
*I *12148:LO O *D sky130_fd_sc_hd__conb_1
*CAP
1 *12144:ScanInDR 0.000653241
2 *12148:LO 0.000653241
3 *12144:SM *12144:ScanInDR 0
4 *257:9 *12144:ScanInDR 0.000612062
*RES
1 *12148:LO *12144:ScanInDR 38.0386
*END

*D_NET *339 0.0023596
*CONN
*I *12144:TM I *D CF_SRAM_1024x32
*I *12149:LO O *D sky130_fd_sc_hd__conb_1
*CAP
1 *12144:TM 0.000210439
2 *12149:LO 0.000441889
3 *339:8 0.000652328
4 *12144:TM *12144:BEN[16] 0
5 *12144:TM *12144:WLBI 4.32768e-05
6 *339:8 *12144:WLBI 0.000490565
7 *258:9 *339:8 0.000521102
8 *271:11 *12144:TM 0
*RES
1 *12149:LO *339:8 49.5793
2 *339:8 *12144:TM 18.7389
*END

*D_NET *340 0.00218441
*CONN
*I *12144:WLBI I *D CF_SRAM_1024x32
*I *12150:LO O *D sky130_fd_sc_hd__conb_1
*CAP
1 *12144:WLBI 0.000825283
2 *12150:LO 0.000825283
3 *12144:TM *12144:WLBI 4.32768e-05
4 *258:9 *12144:WLBI 0
5 *339:8 *12144:WLBI 0.000490565
*RES
1 *12150:LO *12144:WLBI 39.6387
*END

*D_NET *341 0.0512721
*CONN
*I *11978:A I *D sky130_fd_sc_hd__buf_12
*I *12167:X O *D sky130_fd_sc_hd__buf_12
*CAP
1 *11978:A 0
2 *12167:X 0.00055501
3 *341:14 0.000983656
4 *341:10 0.0118595
5 *341:8 0.0114308
6 *341:8 *12166:A 9.41704e-05
7 *341:8 *392:10 9.61729e-05
8 *341:8 *593:22 0.000296199
9 *341:10 *429:18 0.0245541
10 *341:10 *505:8 3.88504e-05
11 *341:10 *540:18 4.16764e-05
12 *341:10 *579:18 0.000338342
13 *341:14 *550:14 0.0004643
14 *966:DIODE *341:14 4.05745e-05
15 *185:16 *341:14 0
16 *203:25 *341:10 2.96051e-05
17 *246:27 *341:10 0.000449171
18 *330:8 *341:10 0
*RES
1 *12167:X *341:8 48.15
2 *341:8 *341:10 326.581
3 *341:10 *341:14 29.9143
4 *341:14 *11978:A 23
*END

*D_NET *342 0.00197801
*CONN
*I *12144:WLOFF I *D CF_SRAM_1024x32
*I *12151:LO O *D sky130_fd_sc_hd__conb_1
*CAP
1 *12144:WLOFF 0.000540691
2 *12151:LO 0.000537329
3 *342:9 3.36227e-06
4 *12144:WLOFF *12144:EN 0.000896631
5 *12144:R_WB *12144:WLOFF 0
*RES
1 *12151:LO *12144:WLOFF 35.5321
2 *12144:WLOFF *342:9 0.270667
*END

*D_NET *343 0.00155428
*CONN
*I *12154:SM I *D CF_SRAM_1024x32
*I *12155:LO O *D sky130_fd_sc_hd__conb_1
*CAP
1 *12154:SM 0.000777138
2 *12155:LO 0.000777138
3 *12154:SM *12154:ScanInDR 0
*RES
1 *12155:LO *12154:SM 36.4384
*END

*D_NET *344 0.00179139
*CONN
*I *12154:ScanInCC I *D CF_SRAM_1024x32
*I *12156:LO O *D sky130_fd_sc_hd__conb_1
*CAP
1 *12154:ScanInCC 0.000805418
2 *12156:LO 0.000805418
3 *12154:ScanInCC *12154:AD[3] 0.000180559
4 *282:21 *12154:ScanInCC 0
*RES
1 *12156:LO *12154:ScanInCC 37.2411
*END

*D_NET *345 0.00168058
*CONN
*I *12154:ScanInDL I *D CF_SRAM_1024x32
*I *12157:LO O *D sky130_fd_sc_hd__conb_1
*CAP
1 *12154:ScanInDL 0.000811612
2 *12157:LO 0.000811612
3 *12154:ScanInDL *12154:DI[0] 5.73557e-05
*RES
1 *12157:LO *12154:ScanInDL 37.6554
*END

*D_NET *346 0.00183953
*CONN
*I *12154:ScanInDR I *D CF_SRAM_1024x32
*I *12158:LO O *D sky130_fd_sc_hd__conb_1
*CAP
1 *12154:ScanInDR 0.000829487
2 *12158:LO 0.000829487
3 *12154:SM *12154:ScanInDR 0
4 *289:17 *12154:ScanInDR 0.000180559
*RES
1 *12158:LO *12154:ScanInDR 38.2043
*END

*D_NET *347 0.00222892
*CONN
*I *12154:TM I *D CF_SRAM_1024x32
*I *12159:LO O *D sky130_fd_sc_hd__conb_1
*CAP
1 *12154:TM 0.000621218
2 *12159:LO 7.42541e-05
3 *347:8 0.000695473
4 *12154:TM *12154:BEN[16] 4.59251e-05
5 *12154:TM *12154:WLBI 0.000501337
6 *347:8 *443:56 9.63918e-05
7 *347:8 *462:60 0.000194318
*RES
1 *12159:LO *347:8 40.61
2 *347:8 *12154:TM 27.8532
*END

*D_NET *348 0.00243215
*CONN
*I *12154:WLBI I *D CF_SRAM_1024x32
*I *12160:LO O *D sky130_fd_sc_hd__conb_1
*CAP
1 *12154:WLBI 0.000843366
2 *12160:LO 0.000843366
3 *12154:WLBI *12154:BEN[16] 5.9604e-07
4 *12154:WLBI *426:56 7.87782e-05
5 *12154:TM *12154:WLBI 0.000501337
6 *290:17 *12154:WLBI 0.000164704
*RES
1 *12160:LO *12154:WLBI 39.5093
*END

*D_NET *349 0.00154481
*CONN
*I *12154:WLOFF I *D CF_SRAM_1024x32
*I *12161:LO O *D sky130_fd_sc_hd__conb_1
*CAP
1 *12154:WLOFF 0.000693657
2 *12161:LO 0.000690294
3 *349:9 3.36227e-06
4 *12154:WLOFF *12154:EN 0.000157498
5 *12154:R_WB *12154:WLOFF 0
*RES
1 *12161:LO *12154:WLOFF 35.5321
2 *12154:WLOFF *349:9 0.270667
*END

*D_NET *350 0.0464483
*CONN
*I *12124:vpwrac I *D CF_SRAM_1024x32
*I *12132:HI O *D sky130_fd_sc_hd__conb_1
*CAP
1 *12124:vpwrac 0.00154471
2 *12132:HI 0.00042333
3 *350:26 0.00335927
4 *350:24 0.00202567
5 *350:18 0.000859885
6 *350:10 0.00162484
7 *350:8 0.00139939
8 *12124:vpwrac *12124:vpwrpc 0
9 *12124:vpwrac *351:38 0.000434045
10 *350:8 *12124:AD[2] 2.94414e-05
11 *350:8 *351:8 0.000461968
12 *350:24 *351:16 6.17437e-06
13 *350:26 *587:32 0.00126428
14 *116:22 *12124:vpwrac 0.000696554
15 *119:18 *350:26 0.00162599
16 *125:10 *350:10 0.00407864
17 *127:10 *350:10 0.00408091
18 *127:10 *350:18 0.00183609
19 *130:26 *350:26 2.34364e-05
20 *132:10 *350:26 0.00604106
21 *133:36 *350:24 5.45826e-05
22 *134:12 *350:26 0.00117893
23 *134:14 *350:26 3.05881e-05
24 *141:26 *350:18 0.00179795
25 *191:21 *12124:vpwrac 0.000492751
26 *192:31 *12124:vpwrac 0.000346286
27 *194:30 *350:26 0.00840145
28 *195:19 *350:26 0.0016028
29 *198:11 *350:18 2.11131e-05
30 *199:19 *350:18 0.000312212
31 *206:11 *350:26 3.81927e-05
32 *206:19 *350:26 0.000355753
*RES
1 *12132:HI *350:8 44.815
2 *350:8 *350:10 53.4946
3 *350:10 *350:18 40.1424
4 *350:18 *350:24 33.0036
5 *350:24 *350:26 124.98
6 *350:26 *12124:vpwrac 21.7956
*END

*D_NET *351 0.0432913
*CONN
*I *12124:vpwrpc I *D CF_SRAM_1024x32
*I *12133:HI O *D sky130_fd_sc_hd__conb_1
*CAP
1 *12124:vpwrpc 4.92508e-05
2 *12133:HI 0.00047074
3 *351:38 0.0006989
4 *351:26 0.00187234
5 *351:24 0.00133372
6 *351:18 0.00129467
7 *351:16 0.00127093
8 *351:10 0.00125264
9 *351:8 0.00163608
10 *351:8 *12124:AD[2] 0.000135464
11 *351:18 *12124:BEN[9] 8.21456e-06
12 *351:18 *12124:BEN[8] 8.22421e-06
13 *351:18 *12124:BEN[5] 2.11066e-05
14 *351:18 *12124:BEN[7] 2.11066e-05
15 *351:26 *12124:BEN[10] 2.11157e-05
16 *351:26 *12124:BEN[11] 2.11157e-05
17 *351:26 *557:161 0.000314965
18 *351:26 *557:171 0.000757027
19 *351:26 *557:191 0.000209134
20 *351:26 *557:213 0.000125908
21 *351:38 *496:20 0.00154549
22 *12124:vpwrac *12124:vpwrpc 0
23 *12124:vpwrac *351:38 0.000434045
24 *116:22 *351:38 0.000441246
25 *119:18 *351:10 0.00595001
26 *130:26 *351:26 0.00560185
27 *133:36 *351:16 7.03733e-05
28 *139:22 *351:8 0.000341701
29 *142:10 *351:18 0.00310597
30 *142:10 *351:24 2.17761e-05
31 *142:20 *351:24 3.39102e-05
32 *142:20 *351:26 0.00129175
33 *142:24 *351:26 0.00202298
34 *187:22 *351:26 2.11066e-05
35 *188:22 *351:26 2.11066e-05
36 *189:22 *351:26 2.11066e-05
37 *191:21 *351:38 0.000111701
38 *193:18 *351:18 0.00215622
39 *194:22 *351:10 0.00592886
40 *194:28 *351:10 9.2467e-06
41 *194:28 *351:18 5.95172e-05
42 *194:30 *351:18 0.00039047
43 *194:30 *351:24 3.19892e-06
44 *194:30 *351:26 8.41755e-05
45 *195:19 *351:10 0.00105063
46 *195:19 *351:18 0.000232624
47 *195:19 *351:26 0.000311873
48 *214:17 *351:18 2.11157e-05
49 *216:21 *351:18 8.21456e-06
50 *217:17 *351:18 8.21456e-06
51 *350:8 *351:8 0.000461968
52 *350:24 *351:16 6.17437e-06
*RES
1 *12133:HI *351:8 47.1971
2 *351:8 *351:10 76.9121
3 *351:10 *351:16 31.5743
4 *351:16 *351:18 51.2057
5 *351:18 *351:24 2.44429
6 *351:24 *351:26 74.2711
7 *351:26 *351:38 48.887
8 *351:38 *12124:vpwrpc 15.9529
*END

*D_NET *352 0.0691818
*CONN
*I *11985:A I *D sky130_fd_sc_hd__buf_12
*I *12168:X O *D sky130_fd_sc_hd__buf_12
*CAP
1 *11985:A 0.000664936
2 *12168:X 0.000716927
3 *352:16 0.00598795
4 *352:14 0.00532302
5 *352:12 0.00116878
6 *352:8 0.0018857
7 *11985:A *11987:A 0
8 *11985:A *637:25 0
9 *352:8 *388:10 0.000158497
10 *352:8 *514:10 2.94881e-05
11 *352:8 *623:20 0
12 *352:8 *630:57 0
13 *352:12 *594:16 0.000627902
14 *352:12 *632:107 0.00121435
15 *352:16 *429:18 0.0254006
16 *352:16 *540:18 0.0256454
17 *37:17 *352:8 0
18 *121:16 *11985:A 6.17437e-06
19 *195:23 *352:12 0.000260231
20 *207:15 *352:16 9.17773e-05
*RES
1 *12168:X *352:8 49.0614
2 *352:8 *352:12 41.3486
3 *352:12 *352:14 15
4 *352:14 *352:16 335.033
5 *352:16 *11985:A 47.6736
*END

*D_NET *353 0.0442794
*CONN
*I *12134:vpwrac I *D CF_SRAM_1024x32
*I *12142:HI O *D sky130_fd_sc_hd__conb_1
*CAP
1 *12134:vpwrac 7.43507e-05
2 *12142:HI 0.000424756
3 *353:14 0.000442632
4 *353:10 0.00358584
5 *353:8 0.00364231
6 *12134:vpwrac *12134:vpwrpc 0
7 *353:8 *354:8 0.000588888
8 *353:10 *354:10 0.0156397
9 *353:10 *518:24 5.44889e-06
10 *353:10 *627:150 0.000337104
11 *353:14 *354:14 0.00223723
12 *168:16 *353:14 1.3523e-05
13 *168:18 *353:14 1.10658e-05
14 *174:10 *353:10 0.0110732
15 *174:14 *353:14 0.000165569
16 *228:21 *353:14 0.00207013
17 *231:17 *353:14 9.80711e-05
18 *237:11 *353:10 0.00386951
*RES
1 *12142:HI *353:8 45.2914
2 *353:8 *353:10 202.979
3 *353:10 *353:14 41.3693
4 *353:14 *12134:vpwrac 16.305
*END

*D_NET *354 0.0416207
*CONN
*I *12134:vpwrpc I *D CF_SRAM_1024x32
*I *12143:HI O *D sky130_fd_sc_hd__conb_1
*CAP
1 *12134:vpwrpc 5.5387e-05
2 *12143:HI 0.00048835
3 *354:14 0.000498784
4 *354:10 0.00390041
5 *354:8 0.00394536
6 *354:10 *518:24 0.00313063
7 *12134:vpwrac *12134:vpwrpc 0
8 *167:16 *354:10 0.00929206
9 *168:16 *354:14 2.46906e-05
10 *231:17 *354:14 0.00180562
11 *237:11 *354:10 1.35751e-05
12 *353:8 *354:8 0.000588888
13 *353:10 *354:10 0.0156397
14 *353:14 *354:14 0.00223723
*RES
1 *12143:HI *354:8 46.2443
2 *354:8 *354:10 202.979
3 *354:10 *354:14 39.8986
4 *354:14 *12134:vpwrpc 15.9529
*END

*D_NET *355 0.0410544
*CONN
*I *12144:vpwrac I *D CF_SRAM_1024x32
*I *12152:HI O *D sky130_fd_sc_hd__conb_1
*CAP
1 *12144:vpwrac 4.93861e-05
2 *12152:HI 0
3 *355:20 0.00106054
4 *355:16 0.00166713
5 *355:14 0.00111988
6 *355:8 0.0042263
7 *355:6 0.0037624
8 *355:8 *504:18 0.0010129
9 *355:14 *12144:DI[12] 0.000629004
10 *355:20 *356:16 0.00229714
11 *253:9 *355:14 0.000175903
12 *257:11 *355:8 0.0118089
13 *258:11 *355:16 0.00365183
14 *264:11 *355:16 0.00365407
15 *273:11 *355:8 0.00593906
*RES
1 *12152:HI *355:6 38
2 *355:6 *355:8 156.144
3 *355:8 *355:14 37.7679
4 *355:14 *355:16 46.98
5 *355:16 *355:20 42.26
6 *355:20 *12144:vpwrac 15.9529
*END

*D_NET *356 0.0400963
*CONN
*I *12144:vpwrpc I *D CF_SRAM_1024x32
*I *12153:HI O *D sky130_fd_sc_hd__conb_1
*CAP
1 *12144:vpwrpc 7.46507e-05
2 *12153:HI 0
3 *356:16 0.00150103
4 *356:8 0.00672745
5 *356:6 0.00530106
6 *356:8 *369:74 0.000161245
7 *356:8 *636:89 0
8 *261:11 *356:8 0.00162943
9 *273:11 *356:8 0.0153465
10 *280:11 *356:8 0.00705783
11 *355:20 *356:16 0.00229714
*RES
1 *12153:HI *356:6 38
2 *356:6 *356:8 202.979
3 *356:8 *356:16 47.1486
4 *356:16 *12144:vpwrpc 16.305
*END

*D_NET *357 0.0316615
*CONN
*I *12154:vpwrac I *D CF_SRAM_1024x32
*I *12162:HI O *D sky130_fd_sc_hd__conb_1
*CAP
1 *12154:vpwrac 4.88454e-05
2 *12162:HI 0.000411872
3 *357:14 0.00113034
4 *357:10 0.00699844
5 *357:8 0.00632882
6 *12154:vpwrac *12154:vpwrpc 0
7 *357:10 *426:52 0.015894
8 *357:10 *432:50 0
9 *357:10 *432:54 0
10 *357:14 *358:12 0.000849147
*RES
1 *12162:HI *357:8 44.3386
2 *357:8 *357:10 202.979
3 *357:10 *357:14 42.3221
4 *357:14 *12154:vpwrac 15.9529
*END

*D_NET *358 0.0354921
*CONN
*I *12154:vpwrpc I *D CF_SRAM_1024x32
*I *12163:HI O *D sky130_fd_sc_hd__conb_1
*CAP
1 *12154:vpwrpc 0.000112534
2 *12163:HI 0
3 *358:12 0.00161651
4 *358:8 0.00643041
5 *358:6 0.00492644
6 *358:8 *458:46 0.0155154
7 *358:8 *462:56 0.00361907
8 *358:8 *462:60 0.00242259
9 *12154:vpwrac *12154:vpwrpc 0
10 *357:14 *358:12 0.000849147
*RES
1 *12163:HI *358:6 38
2 *358:6 *358:8 204.036
3 *358:8 *358:12 48.0186
4 *358:12 *12154:vpwrpc 17.32
*END

*D_NET *359 0.000420723
*CONN
*I *12102:A I *D sky130_fd_sc_hd__dlygate4sd3_1
*I *11937:X O *D sky130_fd_sc_hd__dlygate4sd3_1
*CAP
1 *12102:A 0.000191205
2 *11937:X 0.000191205
3 *12102:A *367:10 3.07986e-05
4 *202:39 *12102:A 7.51453e-06
*RES
1 *11937:X *12102:A 49.48
*END

*D_NET *360 0.190417
*CONN
*I *12154:DI[15] I *D CF_SRAM_1024x32
*I *12144:DI[15] I *D CF_SRAM_1024x32
*I *12124:DI[15] I *D CF_SRAM_1024x32
*I *12134:DI[15] I *D CF_SRAM_1024x32
*I *12036:X O *D sky130_fd_sc_hd__buf_12
*CAP
1 *12154:DI[15] 0.000165947
2 *12144:DI[15] 0.000290971
3 *12124:DI[15] 0.00227086
4 *12134:DI[15] 0.00280089
5 *12036:X 0.000397421
6 *360:92 0.0229573
7 *360:90 0.0228135
8 *360:76 0.00453981
9 *360:74 0.00560666
10 *360:38 0.0160755
11 *360:36 0.0132897
12 *360:32 0.0026663
13 *360:28 0.00229771
14 *360:18 0.00217421
15 *360:12 0.00508369
16 *360:10 0.00660424
17 *12124:DI[15] *557:30 0
18 *12124:DI[15] *629:8 0.000235879
19 *12134:DI[15] *12134:BEN[15] 0
20 *12134:DI[15] *557:34 0
21 *12154:DI[15] *480:58 4.80465e-05
22 *12154:DI[15] *557:293 4.80465e-05
23 *360:10 *369:20 0.00021967
24 *360:10 *504:84 0.000211933
25 *360:10 *509:28 0.000168472
26 *360:12 *12124:AD[4] 2.11157e-05
27 *360:12 *12124:DI[9] 7.13409e-05
28 *360:12 *12124:DI[8] 2.21614e-05
29 *360:12 *369:20 0.00317436
30 *360:12 *369:24 0
31 *360:12 *369:28 0.00162331
32 *360:12 *424:34 0.000325173
33 *360:12 *504:84 0.00141014
34 *360:28 *362:26 6.57495e-05
35 *360:38 *557:34 0
36 *360:76 *382:48 0.000424904
37 *360:92 *557:263 0
38 *360:92 *557:279 0
39 *12124:WLOFF *360:74 0
40 *12124:SM *360:74 0.0007889
41 *12124:TM *360:76 0.0001625
42 *113:10 *360:12 0.000245658
43 *119:18 *360:76 0.00723341
44 *120:18 *360:12 0.000118653
45 *123:10 *360:76 0.00200812
46 *123:18 *360:76 0.00267134
47 *126:8 *360:32 0.00114227
48 *126:8 *360:36 2.05503e-05
49 *131:26 *360:12 0.00809963
50 *146:10 *360:28 0.00282084
51 *178:18 *360:28 0.00282298
52 *194:22 *360:76 0.000935807
53 *195:19 *360:76 0.000183317
54 *196:17 *360:74 4.38638e-05
55 *204:19 *360:76 0.000744698
56 *205:25 *12124:DI[15] 1.36267e-05
57 *206:11 *360:76 0.000426849
58 *223:33 *360:12 0.000391505
59 *224:11 *12134:DI[15] 2.14654e-05
60 *224:13 *12134:DI[15] 0.00183299
61 *224:13 *360:38 0.0141458
62 *228:17 *12134:DI[15] 2.64099e-05
63 *231:13 *12134:DI[15] 2.64099e-05
64 *256:22 *12144:DI[15] 0
65 *256:22 *360:92 2.81221e-05
66 *258:19 *360:76 0.00395204
67 *272:11 *360:76 0.00929575
68 *272:11 *360:90 0.000103868
69 *278:11 *360:76 0.00907747
70 *278:11 *360:90 9.63639e-05
71 *279:17 *360:76 2.34364e-05
72 *288:22 *12154:DI[15] 3.65335e-05
73 *288:22 *360:92 0.00161299
74 *319:16 *360:32 0.00113559
75 *319:16 *360:36 2.21614e-05
*RES
1 *12036:X *360:10 45.395
2 *360:10 *360:12 146.636
3 *360:12 *360:18 33.0036
4 *360:18 *360:28 47.4041
5 *360:28 *360:32 23.4632
6 *360:32 *360:36 8.32107
7 *360:36 *360:38 51.3613
8 *360:38 *12134:DI[15] 34.6717
9 *360:32 *12124:DI[15] 42.2289
10 *360:10 *360:74 49.2021
11 *360:74 *360:76 251.223
12 *360:76 *12144:DI[15] 19.3811
13 *360:76 *360:90 9.3775
14 *360:90 *360:92 65.1429
15 *360:92 *12154:DI[15] 25.9207
*END

*D_NET *361 0.00203129
*CONN
*I *11982:A I *D sky130_fd_sc_hd__dlygate4sd3_1
*I *12047:X O *D sky130_fd_sc_hd__dlygate4sd3_1
*CAP
1 *11982:A 0.000279477
2 *12047:X 0.000432798
3 *361:10 0.000712274
4 *361:10 *12047:A 0.000185434
5 *361:10 *373:8 0.000360491
6 *361:10 *606:12 2.27197e-05
7 *361:10 *606:18 3.80996e-05
*RES
1 *12047:X *361:10 46.5343
2 *361:10 *11982:A 41.48
*END

*D_NET *362 0.187525
*CONN
*I *12154:DI[14] I *D CF_SRAM_1024x32
*I *12144:DI[14] I *D CF_SRAM_1024x32
*I *12134:DI[14] I *D CF_SRAM_1024x32
*I *12124:DI[14] I *D CF_SRAM_1024x32
*I *12058:X O *D sky130_fd_sc_hd__buf_12
*CAP
1 *12154:DI[14] 0.000161889
2 *12144:DI[14] 0.00283476
3 *12134:DI[14] 0.00015088
4 *12124:DI[14] 0.00226937
5 *12058:X 5.49352e-05
6 *362:98 0.0203696
7 *362:86 0.00285439
8 *362:80 0.0203824
9 *362:76 0.0131704
10 *362:74 0.0132205
11 *362:65 8.31664e-06
12 *362:54 0.0181484
13 *362:52 0.0181668
14 *362:41 8.31664e-06
15 *362:32 0.00256956
16 *362:26 0.00154443
17 *362:16 0.00186322
18 *362:10 0.00472677
19 *362:8 0.00452044
20 *12124:DI[14] *557:157 2.64616e-05
21 *12134:DI[14] *12134:BEN[14] 0
22 *12134:DI[14] *557:62 4.80465e-05
23 *12154:DI[14] *12154:BEN[14] 0
24 *12154:DI[14] *480:58 4.80465e-05
25 *12154:DI[14] *557:305 4.80465e-05
26 *362:8 *389:8 0.000151025
27 *362:8 *393:12 0.000142219
28 *362:10 *365:20 0.000472108
29 *362:10 *387:18 0.00578316
30 *362:10 *389:8 0.00848906
31 *362:10 *389:16 0.00136431
32 *362:10 *393:12 0.00253962
33 *362:10 *393:16 6.65762e-05
34 *362:10 *560:18 0.000650086
35 *362:10 *560:20 0.000171985
36 *362:10 *627:27 4.30119e-05
37 *362:10 *627:31 0.00032208
38 *362:26 *369:28 1.47729e-05
39 *362:26 *369:34 0.00137626
40 *362:32 *594:10 0.000411846
41 *362:32 *630:30 0.000411846
42 *362:52 *634:16 2.21614e-05
43 *362:74 *417:102 0.000167355
44 *362:74 *547:28 0.000338569
45 *362:76 *365:20 0.000299493
46 *362:76 *452:24 0.003984
47 *362:76 *513:52 0.00669442
48 *362:76 *550:8 0.000635989
49 *11834:A1 *362:10 0.00022372
50 *116:14 *362:10 2.26497e-05
51 *117:12 *362:76 0.000104065
52 *117:14 *362:76 0.000469331
53 *120:18 *362:26 0.00283021
54 *121:10 *362:76 0.0002607
55 *146:10 *362:10 8.20893e-05
56 *147:10 *362:76 0.000635989
57 *181:51 *362:76 0
58 *191:21 *12124:DI[14] 2.27472e-05
59 *193:34 *362:26 0.000244764
60 *219:27 *362:10 2.31209e-05
61 *223:11 *12134:DI[14] 2.33963e-05
62 *223:13 *362:54 0.0166325
63 *223:33 *362:26 0.000221933
64 *224:19 *362:52 2.05503e-05
65 *228:17 *12134:DI[14] 4.80465e-05
66 *243:27 *362:10 2.26406e-05
67 *247:31 *362:10 0.000479904
68 *249:30 *362:10 2.31209e-05
69 *255:7 *12144:DI[14] 2.33645e-05
70 *282:27 *362:76 0.000836889
71 *282:27 *362:86 2.05503e-05
72 *287:22 *12154:DI[14] 3.65335e-05
73 *287:22 *362:98 0.000359113
74 *290:27 *362:76 0.000472108
75 *291:19 *362:76 0.000238637
76 *291:19 *362:86 7.57281e-06
77 *304:29 *362:76 0.00011563
78 *304:35 *362:76 0.000423284
79 *304:41 *362:76 0.000102364
80 *319:16 *362:26 0.000683919
81 *360:28 *362:26 6.57495e-05
*RES
1 *12058:X *362:8 40.0818
2 *362:8 *362:10 154.56
3 *362:10 *362:16 34.9093
4 *362:16 *362:26 46.8105
5 *362:26 *362:32 28.6032
6 *362:32 *12124:DI[14] 25.9136
7 *12124:DI[14] *362:41 0.176071
8 *362:32 *362:52 24.8954
9 *362:52 *362:54 61.0213
10 *362:54 *12134:DI[14] 25.7239
11 *12134:DI[14] *362:65 0.176071
12 *362:8 *362:74 16.7
13 *362:74 *362:76 46.3867
14 *362:76 *362:80 8.35653
15 *362:80 *362:86 23.3211
16 *362:86 *12144:DI[14] 32.9668
17 *362:80 *362:98 59.9051
18 *362:98 *12154:DI[14] 25.9414
*END

*D_NET *363 0.0307546
*CONN
*I *11819:C I *D sky130_fd_sc_hd__and4b_2
*I *11816:A I *D sky130_fd_sc_hd__nand2_4
*I *12169:X O *D sky130_fd_sc_hd__clkbuf_2
*CAP
1 *11819:C 0
2 *11816:A 0
3 *12169:X 9.2223e-05
4 *363:41 0.0016535
5 *363:39 0.00270958
6 *363:30 0.00105608
7 *363:28 0.00141139
8 *363:18 0.00191234
9 *363:12 0.00180205
10 *363:10 0.0013011
11 *363:8 9.2223e-05
12 *363:12 *587:12 0.0049713
13 *363:18 *12014:A 0.000165105
14 *363:18 *596:8 0.000135419
15 *363:18 *617:10 1.02561e-05
16 *363:28 *11853:A2 7.43025e-06
17 *363:28 *587:24 0.000226306
18 *363:28 *591:16 3.0647e-05
19 *363:28 *595:10 3.3123e-05
20 *363:28 *619:10 0.000313463
21 *363:28 *621:8 3.99656e-05
22 *363:28 *621:10 4.02485e-05
23 *363:28 *624:10 0.000311554
24 *363:28 *633:60 6.30556e-05
25 *363:39 *538:10 0.000112024
26 *363:39 *549:10 1.21972e-05
27 *363:39 *587:24 0.000115864
28 *363:39 *621:10 0.0025656
29 *363:41 *374:16 0.000182612
30 *363:41 *576:16 0.00146722
31 *363:41 *589:10 0.000257567
32 *363:41 *607:16 0
33 *363:41 *633:20 0.000181749
34 *363:41 *633:24 0.000374225
35 wbs_dat_o[2] *363:18 3.31683e-05
36 *11838:A1 *363:28 1.83408e-05
37 *12033:A *363:8 5.21127e-05
38 *32:9 *363:39 0.000180224
39 *61:15 *363:18 0
40 *65:9 *363:39 0.000315857
41 *66:9 *363:39 5.50106e-05
42 *109:8 *363:28 0.00047413
43 *110:10 *363:28 3.22879e-05
44 *110:33 *363:41 0
45 *203:15 *363:41 0.00124585
46 *318:12 *363:12 0.00470019
*RES
1 *12169:X *363:8 39.5536
2 *363:8 *363:10 15
3 *363:10 *363:12 61.6043
4 *363:12 *363:18 40.005
5 *363:18 *363:28 37.5993
6 *363:28 *363:30 15
7 *363:30 *11816:A 23
8 *363:30 *363:39 43.7307
9 *363:39 *363:41 41.6979
10 *363:41 *11819:C 38
*END

*D_NET *364 0.00162078
*CONN
*I *12004:A I *D sky130_fd_sc_hd__dlygate4sd3_1
*I *12069:X O *D sky130_fd_sc_hd__dlygate4sd3_1
*CAP
1 *12004:A 0
2 *12069:X 0.000560998
3 *364:10 0.000560998
4 *364:10 *12069:A 0.000199197
5 *364:10 *562:8 0
6 *364:10 *595:22 0.000180537
7 *364:10 *604:12 0
8 *364:10 *605:18 0
9 wbs_dat_o[13] *364:10 0.000119056
*RES
1 *12069:X *364:10 49.5171
2 *364:10 *12004:A 38
*END

*D_NET *365 0.174439
*CONN
*I *12154:DI[13] I *D CF_SRAM_1024x32
*I *12144:DI[13] I *D CF_SRAM_1024x32
*I *12134:DI[13] I *D CF_SRAM_1024x32
*I *12124:DI[13] I *D CF_SRAM_1024x32
*I *12080:X O *D sky130_fd_sc_hd__buf_12
*CAP
1 *12154:DI[13] 0.000140388
2 *12144:DI[13] 0.00316247
3 *12134:DI[13] 0.000165487
4 *12124:DI[13] 0.00218925
5 *12080:X 0
6 *365:94 0.0208866
7 *365:92 0.0207623
8 *365:80 0.00316247
9 *365:78 0.00159807
10 *365:74 0.00844098
11 *365:72 0.00712024
12 *365:68 0.00132268
13 *365:44 0.0281268
14 *365:42 0.0279613
15 *365:24 0.00224064
16 *365:20 0.0129327
17 *365:14 0.0130694
18 *365:6 0.00124948
19 *12124:DI[13] *11932:A 3.88787e-05
20 *12124:DI[13] *12029:A 0.00012362
21 *12124:DI[13] *627:31 9.16592e-05
22 *12124:DI[13] *634:8 3.23186e-05
23 *12134:DI[13] *557:72 4.67227e-05
24 *12154:DI[13] *480:58 2.05503e-05
25 *12154:DI[13] *557:317 2.05503e-05
26 *365:14 *389:8 2.26497e-05
27 *365:14 *393:12 2.47015e-05
28 *365:14 *426:32 5.05107e-05
29 *365:20 *389:8 0.000623733
30 *365:20 *393:12 0.000109643
31 *365:20 *452:24 0.00143197
32 *365:20 *550:8 0.000369819
33 *365:20 *627:31 0.000363843
34 *365:24 *11932:A 4.52297e-05
35 *365:24 *627:31 0.000171542
36 *365:68 *389:8 0.000514451
37 *365:68 *393:12 0.000503641
38 *365:68 *396:24 9.41704e-05
39 *365:72 *578:10 0.000921949
40 *365:72 *578:20 7.65863e-06
41 *365:74 *550:18 0
42 *365:74 *578:10 1.11421e-05
43 *11865:A1 *12124:DI[13] 0
44 *131:10 *365:74 0.00423931
45 *131:18 *365:72 0.000880255
46 *146:10 *365:24 1.90195e-05
47 *185:18 *365:74 0
48 *200:11 *365:72 1.11421e-05
49 *200:11 *365:74 0.00296226
50 *201:11 *365:74 0.000430037
51 *202:15 *365:74 0.000289502
52 *221:46 *365:20 0.000102288
53 *222:11 *12134:DI[13] 1.90461e-05
54 *222:13 *365:44 0
55 *224:23 *12124:DI[13] 0.000189081
56 *228:17 *12134:DI[13] 4.67227e-05
57 *254:20 *12144:DI[13] 3.77997e-05
58 *269:14 *365:74 0
59 *269:14 *365:78 0
60 *274:14 *365:78 0
61 *286:9 *12154:DI[13] 0.000178227
62 *289:27 *365:74 0.00222542
63 *309:19 *365:74 0
64 *309:19 *365:78 0.00185846
65 *309:19 *365:92 6.3568e-06
66 *310:19 *365:74 0
67 *310:25 *365:74 0
68 *362:10 *365:20 0.000472108
69 *362:76 *365:20 0.000299493
*RES
1 *12080:X *365:6 38
2 *365:6 *365:14 16.6776
3 *365:14 *365:20 43.1923
4 *365:20 *365:24 10.2579
5 *365:24 *12124:DI[13] 44.87
6 *365:24 *365:42 8
7 *365:42 *365:44 60.8496
8 *365:44 *12134:DI[13] 25.9207
9 *365:6 *365:68 47.0064
10 *365:68 *365:72 13.0396
11 *365:72 *365:74 195.584
12 *365:74 *365:78 47.1975
13 *365:78 *365:80 15
14 *365:80 *12144:DI[13] 37.0889
15 *365:78 *365:92 8.32107
16 *365:92 *365:94 59.1323
17 *365:94 *12154:DI[13] 25.6307
*END

*D_NET *366 0.00198232
*CONN
*I *11937:A I *D sky130_fd_sc_hd__dlygate4sd3_1
*I *12091:X O *D sky130_fd_sc_hd__dlygate4sd3_1
*CAP
1 *11937:A 0
2 *12091:X 0.000349223
3 *366:10 0.000349223
4 *366:10 *367:10 9.9437e-05
5 *366:10 *441:10 0
6 *366:10 *598:24 3.9899e-05
7 *366:10 *600:14 0.000787854
8 *366:10 *605:22 0.000163299
9 wbs_dat_o[15] *366:10 0.00019338
*RES
1 *12091:X *366:10 48.9786
2 *366:10 *11937:A 38
*END

*D_NET *367 0.00124304
*CONN
*I *12177:A I *D sky130_fd_sc_hd__buf_12
*I *12102:X O *D sky130_fd_sc_hd__dlygate4sd3_1
*CAP
1 *12177:A 0
2 *12102:X 0.000523216
3 *367:10 0.000523216
4 *367:10 *416:10 0
5 *367:10 *441:10 0
6 *12102:A *367:10 3.07986e-05
7 *46:11 *367:10 6.63698e-05
8 *366:10 *367:10 9.9437e-05
*RES
1 *12102:X *367:10 46.0786
2 *367:10 *12177:A 38
*END

*D_NET *368 0.000126903
*CONN
*I *12026:A I *D sky130_fd_sc_hd__dlygate4sd3_1
*I *12113:X O *D sky130_fd_sc_hd__dlygate4sd3_1
*CAP
1 *12026:A 6.74574e-06
2 *12113:X 6.74574e-06
3 *12026:A *370:6 5.67058e-05
4 *12026:A *377:8 5.67058e-05
*RES
1 *12113:X *12026:A 46.6214
*END

*D_NET *369 0.199737
*CONN
*I *12154:DI[12] I *D CF_SRAM_1024x32
*I *12144:DI[12] I *D CF_SRAM_1024x32
*I *12134:DI[12] I *D CF_SRAM_1024x32
*I *12124:DI[12] I *D CF_SRAM_1024x32
*I *11938:X O *D sky130_fd_sc_hd__buf_12
*CAP
1 *12154:DI[12] 0.000148258
2 *12144:DI[12] 0.000942201
3 *12134:DI[12] 0.000153356
4 *12124:DI[12] 0.00200725
5 *11938:X 0.000378685
6 *369:94 0.0274858
7 *369:76 0.0282798
8 *369:74 0.0109868
9 *369:72 0.0118199
10 *369:52 0.0159025
11 *369:50 0.016165
12 *369:34 0.00288829
13 *369:28 0.00235621
14 *369:26 0.00193966
15 *369:24 0.0020412
16 *369:22 0.0021085
17 *369:20 0.0016382
18 *369:18 0.00186372
19 *369:10 0.00155311
20 *12134:DI[12] *557:84 4.80465e-05
21 *12144:DI[12] *12144:BEN[12] 0
22 *12154:DI[12] *12154:BEN[12] 0
23 *12154:DI[12] *480:58 2.11066e-05
24 *12154:DI[12] *557:329 2.11066e-05
25 *369:10 *417:78 0.000127898
26 *369:10 *502:10 1.84049e-05
27 *369:10 *504:68 0.000359779
28 *369:10 *509:8 0.000412479
29 *369:18 *12217:A 7.51115e-05
30 *369:18 *502:10 0.000524269
31 *369:18 *509:8 0.000136691
32 *369:18 *517:10 8.88824e-06
33 *369:18 *547:28 0.000286369
34 *369:20 *12124:AD[8] 2.27289e-05
35 *369:20 *502:10 1.11421e-05
36 *369:20 *504:84 2.15604e-05
37 *369:20 *509:20 0.000191276
38 *369:20 *513:10 0.000109747
39 *369:20 *515:22 0.000736949
40 *369:20 *515:26 2.21614e-05
41 *369:20 *517:10 0.00136289
42 *369:20 *517:28 2.64528e-05
43 *369:28 *12124:DI[9] 6.92183e-05
44 *369:28 *12124:DI[8] 2.05503e-05
45 *369:28 *387:28 0.000118485
46 *369:28 *627:8 0.00203914
47 *369:50 *627:31 2.05503e-05
48 *369:72 *426:32 0.000157269
49 *369:72 *504:82 8.732e-05
50 *369:74 *374:16 0.00281122
51 *369:74 *400:18 0.00043194
52 *369:74 *400:20 0.00010083
53 *369:74 *400:74 0.00011563
54 *369:74 *504:18 0.0153687
55 *369:74 *506:8 0.000628741
56 *369:74 *506:54 0.000534421
57 *369:74 *511:20 0.00077675
58 *369:74 *577:16 0.0018755
59 *369:74 *596:34 0.000241301
60 *369:74 *635:78 0.000102288
61 *369:74 *635:118 0.000118027
62 *369:74 *637:12 0.000203062
63 *12124:CLKin *369:10 0.000339369
64 *126:8 *369:28 0.000740268
65 *126:8 *369:34 0.000344303
66 *129:10 *369:74 0.00115159
67 *146:10 *369:50 4.96811e-06
68 *178:18 *369:20 0
69 *178:18 *369:24 0.00372497
70 *178:18 *369:28 0.000344734
71 *184:8 *369:74 0.000354081
72 *189:22 *12124:DI[12] 7.72342e-05
73 *193:34 *369:34 0.000642402
74 *203:11 *369:74 0.000892265
75 *221:16 *12134:DI[12] 4.09133e-05
76 *221:18 *369:52 0.0166042
77 *222:13 *369:52 0
78 *223:33 *369:28 0.000698027
79 *228:13 *12134:DI[12] 2.19246e-05
80 *250:11 *369:74 0.00120669
81 *253:9 *12144:DI[12] 0.000275486
82 *257:11 *12144:DI[12] 8.21456e-06
83 *257:11 *369:74 0.00113324
84 *257:19 *369:74 0.000104065
85 *273:11 *12144:DI[12] 2.31116e-05
86 *280:11 *369:74 0.000161245
87 *285:17 *12154:DI[12] 9.01952e-05
88 *285:17 *369:94 0.00242913
89 *312:27 *369:74 0.00010083
90 *355:14 *12144:DI[12] 0.000629004
91 *356:8 *369:74 0.000161245
92 *360:10 *369:20 0.00021967
93 *360:12 *369:20 0.00317436
94 *360:12 *369:24 0
95 *360:12 *369:28 0.00162331
96 *362:26 *369:28 1.47729e-05
97 *362:26 *369:34 0.00137626
*RES
1 *11938:X *369:10 48.0361
2 *369:10 *369:18 9.75643
3 *369:18 *369:20 49.5071
4 *369:20 *369:22 1.57429
5 *369:22 *369:24 50.17
6 *369:24 *369:26 1.09786
7 *369:26 *369:28 58.5179
8 *369:28 *369:34 33.9018
9 *369:34 *12124:DI[12] 23.6454
10 *369:34 *369:50 27.7539
11 *369:50 *369:52 60.8496
12 *369:52 *12134:DI[12] 25.9414
13 *369:10 *369:72 17.4728
14 *369:72 *369:74 48.9253
15 *369:74 *369:76 8
16 *369:76 *12144:DI[12] 37.3357
17 *369:76 *369:94 63.1251
18 *369:94 *12154:DI[12] 25.6307
*END

*D_NET *370 0.00382193
*CONN
*I *12037:A I *D sky130_fd_sc_hd__dlygate4sd3_1
*I *11949:X O *D sky130_fd_sc_hd__dlygate4sd3_1
*CAP
1 *12037:A 0
2 *11949:X 0.000437053
3 *370:14 0.000353762
4 *370:6 0.000790815
5 *370:6 *377:8 0.000294135
6 *370:6 *595:14 0.000763828
7 *11993:A *370:14 0.000447581
8 *12026:A *370:6 5.67058e-05
9 *12031:A *370:14 0
10 *42:9 *370:6 0.000406574
11 *198:23 *370:6 0.00010018
12 *198:40 *370:6 0.000171296
*RES
1 *11949:X *370:6 40.7729
2 *370:6 *370:14 37.2293
3 *370:14 *12037:A 23
*END

*D_NET *371 0.178544
*CONN
*I *12144:DI[11] I *D CF_SRAM_1024x32
*I *12154:DI[11] I *D CF_SRAM_1024x32
*I *12134:DI[11] I *D CF_SRAM_1024x32
*I *12124:DI[11] I *D CF_SRAM_1024x32
*I *11960:X O *D sky130_fd_sc_hd__buf_12
*CAP
1 *12144:DI[11] 0.00202911
2 *12154:DI[11] 0.000157022
3 *12134:DI[11] 0.000151289
4 *12124:DI[11] 0.00215418
5 *11960:X 0.000124837
6 *371:74 0.0205714
7 *371:72 0.0204144
8 *371:70 0.0104695
9 *371:54 0.0208844
10 *371:52 0.0210166
11 *371:36 0.0024376
12 *371:34 0.000433555
13 *371:26 0.00392169
14 *371:24 0.00357172
15 *371:18 0.00105807
16 *371:16 0.00117814
17 *371:8 0.00876885
18 *12134:DI[11] *557:100 2.11157e-05
19 *12154:DI[11] *480:58 2.11157e-05
20 *12154:DI[11] *557:341 2.11157e-05
21 *371:16 *387:10 0.000238711
22 *371:16 *515:10 0.000240952
23 *371:18 *513:10 0.00284857
24 *371:18 *515:10 0.000645749
25 *371:18 *515:18 1.82756e-05
26 *371:26 *387:10 0.000854879
27 *371:26 *393:16 0.00183814
28 *371:34 *560:18 4.67488e-05
29 *371:52 *627:31 2.05503e-05
30 *371:70 *387:10 0.000908929
31 *371:70 *387:66 0.0192578
32 *371:70 *417:10 3.19892e-06
33 *371:70 *509:68 0
34 *371:70 *515:10 0.00549031
35 *371:70 *515:60 2.11157e-05
36 *371:70 *636:47 0.000144327
37 *371:70 *636:66 0.000509305
38 *371:70 *636:68 0.00305142
39 *371:70 *636:87 0.000136281
40 *902:DIODE *371:70 0.000315305
41 *980:DIODE *371:70 0.000101536
42 *126:8 *371:34 0.00113804
43 *146:10 *371:26 0.00457613
44 *146:10 *371:52 4.96811e-06
45 *178:16 *371:18 0.00215055
46 *178:16 *371:26 0.000117995
47 *178:18 *371:26 0.0091597
48 *178:18 *371:34 0.00113579
49 *188:22 *12124:DI[11] 7.72342e-05
50 *220:11 *12134:DI[11] 4.07552e-05
51 *220:13 *371:54 0
52 *222:25 *371:26 2.21614e-05
53 *228:13 *12134:DI[11] 8.22421e-06
54 *252:12 *12144:DI[11] 0.000300803
55 *257:31 *371:70 0.000213311
56 *272:27 *371:70 8.58779e-05
57 *284:20 *12154:DI[11] 5.49244e-05
58 *284:20 *371:74 0.00199936
59 *293:27 *371:70 0.00019148
60 *293:29 *371:70 0.000857592
61 *293:35 *371:70 0.000311521
*RES
1 *11960:X *371:8 39.5743
2 *371:8 *371:16 34.4121
3 *371:16 *371:18 38.5286
4 *371:18 *371:24 31.0979
5 *371:24 *371:26 126.916
6 *371:26 *371:34 46.385
7 *371:34 *371:36 15
8 *371:36 *12124:DI[11] 25.0539
9 *371:36 *371:52 26.3246
10 *371:52 *371:54 60.8496
11 *371:54 *12134:DI[11] 25.6307
12 *371:8 *371:70 272.175
13 *371:70 *371:72 8
14 *371:72 *371:74 61.1931
15 *371:74 *12154:DI[11] 25.5893
16 *371:70 *12144:DI[11] 40.6132
*END

*D_NET *372 0.00182719
*CONN
*I *12047:A I *D sky130_fd_sc_hd__dlygate4sd3_1
*I *11971:X O *D sky130_fd_sc_hd__dlygate4sd3_1
*CAP
1 *12047:A 0.000508203
2 *11971:X 0.000165179
3 *372:8 0.000673383
4 *12047:A *12176:A 9.82009e-05
5 wbs_dat_o[14] *372:8 0.000196794
6 *361:10 *12047:A 0.000185434
*RES
1 *11971:X *372:8 40.61
2 *372:8 *12047:A 46.7414
*END

*D_NET *373 0.00125503
*CONN
*I *12176:A I *D sky130_fd_sc_hd__buf_12
*I *11982:X O *D sky130_fd_sc_hd__dlygate4sd3_1
*CAP
1 *12176:A 5.22097e-05
2 *11982:X 0.000164585
3 *373:8 0.000216795
4 *373:8 *606:18 0.000362753
5 *12047:A *12176:A 9.82009e-05
6 *361:10 *373:8 0.000360491
*RES
1 *11982:X *373:8 43.075
2 *373:8 *12176:A 39.0979
*END

*D_NET *374 0.072898
*CONN
*I *12094:A I *D sky130_fd_sc_hd__buf_12
*I *12170:X O *D sky130_fd_sc_hd__buf_12
*CAP
1 *12094:A 0
2 *12170:X 1.76943e-05
3 *374:26 7.30239e-05
4 *374:16 0.016489
5 *374:14 0.0239278
6 *374:10 0.0075295
7 *374:16 *576:16 0.000314943
8 *374:16 *577:16 0.00107926
9 *374:16 *596:24 0.00388954
10 *374:16 *607:16 0.00351925
11 *374:16 *618:14 0.00286754
12 *374:16 *631:226 0.000120999
13 *374:16 *633:20 0.00025063
14 *374:16 *633:24 0.000110915
15 *374:26 *607:16 2.5343e-05
16 *12101:A *374:10 0
17 *125:24 *374:16 0.000245558
18 *129:10 *374:16 0.00111757
19 *137:26 *374:16 0.000487617
20 *181:18 *374:16 0.00400102
21 *184:8 *374:16 0.00154854
22 *184:8 *374:26 2.33476e-05
23 *196:11 *374:16 0.00036509
24 *203:11 *374:16 0.00157375
25 *205:29 *374:16 0.000200681
26 *318:12 *374:14 0.000125621
27 *363:41 *374:16 0.000182612
28 *369:74 *374:16 0.00281122
*RES
1 *12170:X *374:10 46.3211
2 *374:10 *374:14 23.7267
3 *374:14 *374:16 59.5877
4 *374:16 *374:26 31.42
5 *374:26 *12094:A 23
*END

*D_NET *375 0.00217056
*CONN
*I *12069:A I *D sky130_fd_sc_hd__dlygate4sd3_1
*I *11993:X O *D sky130_fd_sc_hd__dlygate4sd3_1
*CAP
1 *12069:A 0.000292973
2 *11993:X 0.000540895
3 *375:10 0.000833868
4 *375:10 *376:10 9.25306e-05
5 *375:10 *595:14 1.06624e-05
6 *375:10 *605:18 0.00020043
7 *364:10 *12069:A 0.000199197
*RES
1 *11993:X *375:10 46.2029
2 *375:10 *12069:A 44.5043
*END

*D_NET *376 0.000911068
*CONN
*I *12174:A I *D sky130_fd_sc_hd__buf_12
*I *12004:X O *D sky130_fd_sc_hd__dlygate4sd3_1
*CAP
1 *12174:A 0
2 *12004:X 0.000409269
3 *376:10 0.000409269
4 *11971:A *376:10 0
5 *375:10 *376:10 9.25306e-05
*RES
1 *12004:X *376:10 44.1729
2 *376:10 *12174:A 38
*END

*D_NET *377 0.00114689
*CONN
*I *12113:A I *D sky130_fd_sc_hd__dlygate4sd3_1
*I *12015:X O *D sky130_fd_sc_hd__dlygate4sd3_1
*CAP
1 *12113:A 0
2 *12015:X 0.000380527
3 *377:8 0.000380527
4 *377:8 *595:14 5.61255e-06
5 *11993:A *377:8 2.93845e-05
6 *12026:A *377:8 5.67058e-05
7 *370:6 *377:8 0.000294135
*RES
1 *12015:X *377:8 30.7886
2 *377:8 *12113:A 23
*END

*D_NET *378 0.00096922
*CONN
*I *12173:A I *D sky130_fd_sc_hd__buf_12
*I *12026:X O *D sky130_fd_sc_hd__dlygate4sd3_1
*CAP
1 *12173:A 0.000104743
2 *12026:X 0.000278134
3 *378:8 0.000382877
4 *12173:A *380:10 0.000126847
5 *12031:A *378:8 7.66188e-05
*RES
1 *12026:X *378:8 43.075
2 *378:8 *12173:A 40.5271
*END

*D_NET *379 7.25541e-05
*CONN
*I *11949:A I *D sky130_fd_sc_hd__dlygate4sd3_1
*I *12035:X O *D sky130_fd_sc_hd__dlygate4sd3_1
*CAP
1 *11949:A 2.47624e-05
2 *12035:X 2.47624e-05
3 *11949:A *595:14 2.30292e-05
*RES
1 *12035:X *11949:A 46.6214
*END

*D_NET *380 0.00214041
*CONN
*I *12172:A I *D sky130_fd_sc_hd__buf_12
*I *12037:X O *D sky130_fd_sc_hd__dlygate4sd3_1
*CAP
1 *12172:A 0
2 *12037:X 0.00100678
3 *380:10 0.00100678
4 *12173:A *380:10 0.000126847
*RES
1 *12037:X *380:10 37.9557
2 *380:10 *12172:A 23
*END

*D_NET *381 0.000664786
*CONN
*I *12041:A I *D sky130_fd_sc_hd__dlygate4sd3_1
*I *12038:X O *D sky130_fd_sc_hd__dlygate4sd3_1
*CAP
1 *12041:A 4.65655e-05
2 *12038:X 9.59927e-05
3 *381:8 0.000142558
4 *12041:A *592:12 0.000182832
5 *381:8 *385:10 6.33614e-05
6 *381:8 *526:10 3.13832e-05
7 *40:15 *12041:A 0.000102093
*RES
1 *12038:X *381:8 39.9057
2 *381:8 *12041:A 40.0507
*END

*D_NET *382 0.216893
*CONN
*I *12154:DI[10] I *D CF_SRAM_1024x32
*I *12134:DI[10] I *D CF_SRAM_1024x32
*I *12144:DI[10] I *D CF_SRAM_1024x32
*I *12124:DI[10] I *D CF_SRAM_1024x32
*I *12039:X O *D sky130_fd_sc_hd__buf_12
*CAP
1 *12154:DI[10] 0.000244313
2 *12134:DI[10] 0.00019864
3 *12144:DI[10] 0.000458847
4 *12124:DI[10] 0.00154533
5 *12039:X 0.00010617
6 *382:88 0.0100879
7 *382:86 0.00991454
8 *382:74 0.00852432
9 *382:48 0.0157325
10 *382:46 0.0222834
11 *382:20 0.0221362
12 *382:18 0.025836
13 *382:12 0.00410635
14 *12144:DI[10] *12144:BEN[10] 0
15 *12154:DI[10] *12154:BEN[10] 0
16 *382:46 *12124:AD[1] 0
17 *382:46 *395:10 0.000732605
18 *382:46 *402:10 0.000249281
19 *382:46 *409:54 0.00025575
20 *382:46 *438:38 0.000539513
21 *382:46 *577:16 0.00491812
22 *382:46 *626:49 0.000114474
23 *382:48 *638:39 0
24 *382:48 *638:59 0
25 *382:48 *638:80 0
26 *382:48 *638:98 0
27 *382:48 *638:116 0
28 *382:48 *638:136 0
29 *382:48 *638:156 0
30 *382:74 *552:16 0
31 *382:74 *557:112 4.80427e-05
32 *382:88 *12134:AD[6] 0.000438267
33 *382:88 *12134:BEN[0] 0.000883861
34 *382:88 *12154:BEN[15] 4.80465e-05
35 *382:88 *426:10 0.0138941
36 *382:88 *432:14 9.57482e-05
37 *382:88 *432:50 0.00394818
38 *382:88 *454:18 0.00339797
39 *382:88 *454:22 0.000102781
40 *382:88 *458:12 0.000758851
41 *382:88 *471:100 5.02282e-05
42 *382:88 *476:36 7.23298e-05
43 *382:88 *480:34 4.67227e-05
44 *382:88 *480:56 0.00347397
45 *382:88 *480:58 0.00143996
46 *382:88 *547:52 0.000101616
47 *382:88 *547:64 0.000723319
48 *382:88 *547:76 0.000869797
49 *382:88 *547:88 0.000880605
50 *382:88 *547:100 0.000856451
51 *382:88 *547:116 0.000536089
52 *382:88 *550:148 0.000137625
53 *382:88 *552:16 0.00267236
54 *382:88 *557:112 4.4003e-05
55 *382:88 *557:293 0.00097989
56 *382:88 *557:305 0.000746813
57 *382:88 *557:317 0.00100568
58 *382:88 *557:329 0.000815188
59 *382:88 *557:341 0.000856451
60 *382:88 *557:353 0.000280849
61 *382:88 *560:411 6.93074e-06
62 *382:88 *560:425 0.000746813
63 *382:88 *560:437 0.000911271
64 *382:88 *560:449 0.000869448
65 *382:88 *560:461 0.000869448
66 *382:88 *560:473 0.000829042
67 *382:88 *560:485 0.000801632
68 *382:88 *627:150 0.00159824
69 *116:22 *382:46 0.00291118
70 *118:12 *382:46 0.000161888
71 *119:14 *382:48 0.000173453
72 *122:14 *382:46 0.000113891
73 *122:22 *382:46 0.000112245
74 *137:16 *382:48 0.00195621
75 *141:16 *382:48 0.00106878
76 *161:16 *382:18 0.00614897
77 *181:12 *12124:DI[10] 5.66809e-05
78 *182:23 *382:12 0
79 *184:8 *12124:DI[10] 1.02561e-05
80 *187:22 *12124:DI[10] 7.73389e-05
81 *198:11 *382:48 0.000888728
82 *199:19 *382:48 0.00593903
83 *203:11 *12124:DI[10] 2.05503e-05
84 *204:19 *382:48 0.0105986
85 *206:47 *382:12 0.000100861
86 *219:11 *12134:DI[10] 0
87 *219:11 *382:86 0
88 *219:11 *382:88 0.00207847
89 *220:13 *382:20 0
90 *220:13 *382:74 0
91 *220:127 *382:46 0.000219093
92 *223:45 *382:46 0.000265727
93 *225:18 *382:88 0.00195987
94 *225:42 *382:88 0.000455289
95 *226:16 *382:88 0.000256585
96 *233:25 *382:12 4.16753e-06
97 *237:11 *382:88 0
98 *251:9 *12144:DI[10] 9.52259e-05
99 *264:11 *382:48 0.000824069
100 *266:11 *382:48 0.00103327
101 *267:11 *382:48 0.00103905
102 *271:11 *382:48 0.000911107
103 *272:11 *12144:DI[10] 2.11157e-05
104 *272:11 *382:48 0.000788358
105 *272:21 *382:48 0.000150324
106 *278:11 *12144:DI[10] 2.31209e-05
107 *283:17 *12154:DI[10] 3.83453e-05
108 *319:34 *382:46 0.0011431
109 *360:76 *382:48 0.000424904
*RES
1 *12039:X *382:12 47.4764
2 *382:12 *382:18 30.7803
3 *382:18 *382:20 38.0091
4 *382:20 *12124:DI[10] 38.7446
5 *382:20 *382:46 49.7451
6 *382:46 *382:48 58.8261
7 *382:48 *12144:DI[10] 36.2865
8 *382:18 *382:74 48.1583
9 *382:74 *12134:DI[10] 2.99321
10 *382:74 *382:86 16.0979
11 *382:86 *382:88 454.057
12 *382:88 *12154:DI[10] 19.0082
*END

*D_NET *383 0.000811068
*CONN
*I *12038:A I *D sky130_fd_sc_hd__dlygate4sd3_1
*I *12040:X O *D sky130_fd_sc_hd__dlygate4sd3_1
*CAP
1 *12038:A 0.000143657
2 *12040:X 0.000133406
3 *383:8 0.000277063
4 *12038:A *540:14 3.71251e-05
5 *8:9 *12038:A 5.3304e-05
6 *8:9 *383:8 0.000166513
*RES
1 *12040:X *383:8 40.2579
2 *383:8 *12038:A 40.5271
*END

*D_NET *384 0.000781156
*CONN
*I *12171:A I *D sky130_fd_sc_hd__buf_12
*I *12041:X O *D sky130_fd_sc_hd__dlygate4sd3_1
*CAP
1 *12171:A 0
2 *12041:X 0.000274303
3 *384:10 0.000274303
4 *384:10 *540:10 5.05139e-05
5 *40:15 *384:10 0.000182036
*RES
1 *12041:X *384:10 41.9564
2 *384:10 *12171:A 38
*END

*D_NET *385 0.0220779
*CONN
*I *12039:A I *D sky130_fd_sc_hd__buf_12
*I *12171:X O *D sky130_fd_sc_hd__buf_12
*CAP
1 *12039:A 0.000949237
2 *12171:X 0
3 *385:16 0.00558836
4 *385:14 0.00557923
5 *385:10 0.00201899
6 *385:6 0.00107888
7 *385:10 *540:10 0
8 *385:14 *625:63 0.00122857
9 *385:14 *625:65 1.12349e-05
10 *385:16 *625:63 1.10658e-05
11 *385:16 *625:76 0.00275253
12 *385:16 *625:91 0.00152964
13 *640:DIODE *385:14 5.41288e-05
14 *800:DIODE *385:16 5.3206e-05
15 *1029:DIODE *385:16 7.24484e-05
16 *1083:DIODE *12039:A 4.5051e-05
17 *11879:A0 *385:14 0.000143543
18 *8:9 *385:10 0
19 *40:15 *385:10 0
20 *150:18 *385:14 0.000597937
21 *152:10 *385:16 5.3304e-05
22 *157:47 *385:16 6.69899e-05
23 *205:43 *12039:A 0.000180218
24 *381:8 *385:10 6.33614e-05
*RES
1 *12171:X *385:6 38
2 *385:6 *385:10 32.0479
3 *385:10 *385:14 26.8457
4 *385:14 *385:16 91.3811
5 *385:16 *12039:A 39.4782
*END

*D_NET *386 9.87992e-05
*CONN
*I *12048:A I *D sky130_fd_sc_hd__dlygate4sd3_1
*I *12042:X O *D sky130_fd_sc_hd__dlygate4sd3_1
*CAP
1 *12048:A 9.53207e-06
2 *12042:X 9.53207e-06
3 *12048:A *12042:A 5.67058e-05
4 *12048:A *540:14 2.30292e-05
*RES
1 *12042:X *12048:A 46.6214
*END

*D_NET *387 0.18993
*CONN
*I *12154:DI[9] I *D CF_SRAM_1024x32
*I *12144:DI[9] I *D CF_SRAM_1024x32
*I *12134:DI[9] I *D CF_SRAM_1024x32
*I *12124:DI[9] I *D CF_SRAM_1024x32
*I *12043:X O *D sky130_fd_sc_hd__buf_12
*CAP
1 *12154:DI[9] 0.000145956
2 *12144:DI[9] 0.00210918
3 *12134:DI[9] 0.000162017
4 *12124:DI[9] 0.00218289
5 *12043:X 8.18661e-05
6 *387:83 0.0209138
7 *387:81 0.0207828
8 *387:66 0.00937829
9 *387:50 0.0144654
10 *387:48 0.0167465
11 *387:28 0.00551735
12 *387:24 0.0011431
13 *387:18 0.00200066
14 *387:16 0.00181644
15 *387:10 0.00181946
16 *387:8 0.00908782
17 *12134:DI[9] *12134:BEN[8] 4.80427e-05
18 *12144:DI[9] *12144:BEN[9] 0
19 *12154:DI[9] *12154:BEN[8] 2.11157e-05
20 *12154:DI[9] *480:58 2.11157e-05
21 *387:10 *393:10 0.000667922
22 *387:10 *393:12 0.00045674
23 *387:10 *393:16 4.67227e-05
24 *387:10 *417:78 0.000477653
25 *387:10 *417:96 0.000471246
26 *387:10 *417:100 4.94189e-05
27 *387:10 *509:28 0.00108929
28 *387:10 *515:10 6.71945e-05
29 *387:10 *515:18 0.00196815
30 *387:10 *517:18 0.000958645
31 *387:18 *393:16 0.00571393
32 *387:28 *627:8 0.00203377
33 *387:66 *393:10 0.000857147
34 *387:66 *393:49 0.0201047
35 *387:81 *393:49 2.05503e-05
36 *879:DIODE *12124:DI[9] 1.85916e-05
37 *131:24 *387:16 4.96207e-05
38 *132:6 *12124:DI[9] 7.54509e-05
39 *178:16 *387:10 0.00010822
40 *178:18 *387:28 0.00228394
41 *178:29 *387:10 0.000495467
42 *178:43 *387:10 3.70265e-05
43 *217:17 *12124:DI[9] 4.06849e-05
44 *219:11 *12134:DI[9] 4.80427e-05
45 *249:16 *12134:DI[9] 5.6061e-05
46 *249:18 *387:50 0.00826477
47 *249:30 *387:48 0.000841603
48 *249:30 *387:50 0.00294084
49 *249:40 *12124:DI[9] 1.23353e-05
50 *249:42 *12124:DI[9] 5.36411e-05
51 *249:44 *12124:DI[9] 1.85916e-05
52 *249:46 *12124:DI[9] 1.85916e-05
53 *249:48 *12124:DI[9] 1.85916e-05
54 *281:9 *12144:DI[9] 0.000140927
55 *313:17 *12154:DI[9] 5.49244e-05
56 *313:17 *387:83 0.00362272
57 *360:12 *12124:DI[9] 7.13409e-05
58 *362:10 *387:18 0.00578316
59 *369:28 *12124:DI[9] 6.92183e-05
60 *369:28 *387:28 0.000118485
61 *371:16 *387:10 0.000238711
62 *371:26 *387:10 0.000854879
63 *371:70 *387:10 0.000908929
64 *371:70 *387:66 0.0192578
*RES
1 *12043:X *387:8 39.0979
2 *387:8 *387:10 65.2914
3 *387:10 *387:16 31.0979
4 *387:16 *387:18 76.9121
5 *387:18 *387:24 32.5271
6 *387:24 *387:28 39.3096
7 *387:28 *12124:DI[9] 47.9843
8 *387:28 *387:48 6.29253
9 *387:48 *387:50 55.3112
10 *387:50 *12134:DI[9] 25.9414
11 *387:8 *387:66 282.564
12 *387:66 *12144:DI[9] 40.8721
13 *387:66 *387:81 8.32107
14 *387:81 *387:83 61.1072
15 *387:83 *12154:DI[9] 25.3718
*END

*D_NET *388 0.00145679
*CONN
*I *12054:A I *D sky130_fd_sc_hd__dlygate4sd3_1
*I *12044:X O *D sky130_fd_sc_hd__dlygate4sd3_1
*CAP
1 *12054:A 0
2 *12044:X 0.000475795
3 *388:10 0.000475795
4 wbs_dat_o[8] *388:10 0.000146197
5 *37:17 *388:10 0.000121786
6 *70:15 *388:10 7.87243e-05
7 *352:8 *388:10 0.000158497
*RES
1 *12044:X *388:10 48.2121
2 *388:10 *12054:A 38
*END

*D_NET *389 0.187181
*CONN
*I *12144:DI[8] I *D CF_SRAM_1024x32
*I *12154:DI[8] I *D CF_SRAM_1024x32
*I *12134:DI[8] I *D CF_SRAM_1024x32
*I *12124:DI[8] I *D CF_SRAM_1024x32
*I *12045:X O *D sky130_fd_sc_hd__buf_12
*CAP
1 *12144:DI[8] 0.00217321
2 *12154:DI[8] 0.000149405
3 *12134:DI[8] 0.000141669
4 *12124:DI[8] 0.00244598
5 *12045:X 0
6 *389:56 0.0206123
7 *389:54 0.0204629
8 *389:52 0.0178196
9 *389:36 0.015216
10 *389:18 0.0175203
11 *389:16 0.000539286
12 *389:8 0.00871776
13 *389:6 0.0238249
14 *12124:DI[8] *560:405 0
15 *12154:DI[8] *432:54 4.36401e-06
16 *12154:DI[8] *480:58 2.11157e-05
17 *389:8 *393:10 0.00029175
18 *389:8 *393:12 0.000403253
19 *389:8 *417:90 0.00013007
20 *389:16 *12124:DI[7] 6.92183e-05
21 *389:16 *393:16 0.000507645
22 *389:16 *560:20 0.000382917
23 *389:16 *560:403 0.000110276
24 *389:36 *560:405 0
25 *389:52 *393:10 0.000127894
26 *389:52 *393:49 0.000749983
27 *389:52 *417:18 0.0149979
28 *389:52 *417:64 0.000967414
29 *389:52 *513:50 2.11157e-05
30 *389:52 *515:62 0.00251678
31 *389:52 *517:56 0.000825994
32 *146:10 *389:16 0.000139945
33 *216:21 *12124:DI[8] 5.70419e-05
34 *218:45 *389:16 9.5877e-05
35 *219:11 *12134:DI[8] 2.11157e-05
36 *228:13 *12134:DI[8] 8.22421e-06
37 *240:27 *389:36 0.00140065
38 *243:27 *12124:DI[8] 2.81221e-05
39 *243:27 *389:36 0.000765551
40 *247:31 *389:36 0.00919906
41 *248:13 *12134:DI[8] 5.97865e-05
42 *248:19 *389:36 0.0108166
43 *250:30 *389:52 0.000286388
44 *259:33 *389:52 9.9437e-05
45 *280:9 *12144:DI[8] 0.00031543
46 *282:27 *389:52 0
47 *307:37 *389:52 2.11157e-05
48 *312:17 *12154:DI[8] 5.49244e-05
49 *312:17 *389:56 0.000831396
50 *313:29 *389:52 2.11157e-05
51 *360:12 *12124:DI[8] 2.21614e-05
52 *362:8 *389:8 0.000151025
53 *362:10 *389:8 0.00848906
54 *362:10 *389:16 0.00136431
55 *365:14 *389:8 2.26497e-05
56 *365:20 *389:8 0.000623733
57 *365:68 *389:8 0.000514451
58 *369:28 *12124:DI[8] 2.05503e-05
*RES
1 *12045:X *389:6 38
2 *389:6 *389:8 149.101
3 *389:8 *389:16 49.3782
4 *389:16 *389:18 8
5 *389:18 *12124:DI[8] 47.6265
6 *389:18 *389:36 60.9355
7 *389:36 *12134:DI[8] 25.5686
8 *389:6 *389:52 288.726
9 *389:52 *389:54 8
10 *389:54 *389:56 60.7637
11 *389:56 *12154:DI[8] 25.3718
12 *389:52 *12144:DI[8] 42.7779
*END

*D_NET *390 0.00257887
*CONN
*I *12042:A I *D sky130_fd_sc_hd__dlygate4sd3_1
*I *12046:X O *D sky130_fd_sc_hd__dlygate4sd3_1
*CAP
1 *12042:A 0.00040276
2 *12046:X 0.000292149
3 *390:8 0.000694909
4 *12042:A *540:14 0.000167341
5 *390:8 *391:8 0.000572151
6 *12048:A *12042:A 5.67058e-05
7 *40:15 *390:8 0.00039285
*RES
1 *12046:X *390:8 46.2443
2 *390:8 *12042:A 45.7886
*END

*D_NET *391 0.00128446
*CONN
*I *12204:A I *D sky130_fd_sc_hd__buf_12
*I *12048:X O *D sky130_fd_sc_hd__dlygate4sd3_1
*CAP
1 *12204:A 0
2 *12048:X 0.000356157
3 *391:8 0.000356157
4 *390:8 *391:8 0.000572151
*RES
1 *12048:X *391:8 45.8921
2 *391:8 *12204:A 38
*END

*D_NET *392 0.000777753
*CONN
*I *12061:A I *D sky130_fd_sc_hd__dlygate4sd3_1
*I *12049:X O *D sky130_fd_sc_hd__dlygate4sd3_1
*CAP
1 *12061:A 5.62156e-05
2 *12049:X 0.000207282
3 *392:10 0.000263498
4 *12061:A *537:10 2.64616e-05
5 *12061:A *592:12 5.12254e-05
6 *392:10 *537:10 7.68979e-05
7 *341:8 *392:10 9.61729e-05
*RES
1 *12049:X *392:10 41.0036
2 *392:10 *12061:A 39.0979
*END

*D_NET *393 0.189394
*CONN
*I *12144:DI[7] I *D CF_SRAM_1024x32
*I *12154:DI[7] I *D CF_SRAM_1024x32
*I *12134:DI[7] I *D CF_SRAM_1024x32
*I *12124:DI[7] I *D CF_SRAM_1024x32
*I *12050:X O *D sky130_fd_sc_hd__buf_12
*CAP
1 *12144:DI[7] 0.00212256
2 *12154:DI[7] 0.000143407
3 *12134:DI[7] 0.00014004
4 *12124:DI[7] 0.0023565
5 *12050:X 0
6 *393:53 0.0199665
7 *393:51 0.0198231
8 *393:49 0.00998459
9 *393:32 0.0147332
10 *393:30 0.0145932
11 *393:16 0.00469963
12 *393:14 0.00238037
13 *393:12 0.00154785
14 *393:10 0.0021042
15 *393:6 0.00845563
16 *12124:DI[7] *12124:BEN[6] 0
17 *12134:DI[7] *12134:BEN[7] 0
18 *12134:DI[7] *560:425 2.11157e-05
19 *12154:DI[7] *12154:BEN[7] 0
20 *12154:DI[7] *480:58 2.11157e-05
21 *12154:DI[7] *560:278 2.11157e-05
22 *393:12 *417:90 0.00013007
23 *393:12 *417:96 0.000479014
24 *393:12 *417:100 4.73448e-05
25 *393:12 *509:28 0.00108713
26 *393:12 *517:18 0.000958645
27 *393:32 *560:405 0
28 *393:49 *417:64 0.000769661
29 *393:49 *509:68 0
30 *393:49 *517:56 0.0182366
31 *393:53 *560:262 0
32 *710:DIODE *12124:DI[7] 6.74969e-06
33 *116:14 *393:32 0
34 *134:6 *12124:DI[7] 0.000178716
35 *138:16 *12124:DI[7] 0
36 *146:10 *12124:DI[7] 7.13409e-05
37 *146:10 *393:16 0.0024003
38 *178:29 *393:12 0.000495467
39 *178:43 *393:12 4.49122e-05
40 *215:17 *12124:DI[7] 0
41 *219:15 *393:32 0
42 *219:27 *393:32 0.0103428
43 *222:25 *393:16 2.05503e-05
44 *228:13 *12134:DI[7] 8.22421e-06
45 *247:13 *12134:DI[7] 5.97865e-05
46 *247:17 *393:32 0.0112331
47 *248:27 *393:32 0.00185684
48 *279:9 *12144:DI[7] 5.92633e-05
49 *311:17 *12154:DI[7] 3.32378e-05
50 *311:17 *393:53 0.00251783
51 *362:8 *393:12 0.000142219
52 *362:10 *393:12 0.00253962
53 *362:10 *393:16 6.65762e-05
54 *365:14 *393:12 2.47015e-05
55 *365:20 *393:12 0.000109643
56 *365:68 *393:12 0.000503641
57 *371:26 *393:16 0.00183814
58 *387:10 *393:10 0.000667922
59 *387:10 *393:12 0.00045674
60 *387:10 *393:16 4.67227e-05
61 *387:18 *393:16 0.00571393
62 *387:66 *393:10 0.000857147
63 *387:66 *393:49 0.0201047
64 *387:81 *393:49 2.05503e-05
65 *389:8 *393:10 0.00029175
66 *389:8 *393:12 0.000403253
67 *389:16 *12124:DI[7] 6.92183e-05
68 *389:16 *393:16 0.000507645
69 *389:52 *393:10 0.000127894
70 *389:52 *393:49 0.000749983
*RES
1 *12050:X *393:6 38
2 *393:6 *393:10 20.7454
3 *393:10 *393:12 56.0529
4 *393:12 *393:14 0.621429
5 *393:14 *393:16 86.0679
6 *393:16 *12124:DI[7] 43.5236
7 *393:16 *393:30 8
8 *393:30 *393:32 61.0213
9 *393:32 *12134:DI[7] 25.3718
10 *393:6 *393:49 294.008
11 *393:49 *393:51 8
12 *393:51 *393:53 61.0213
13 *393:53 *12154:DI[7] 25.3718
14 *393:49 *12144:DI[7] 41.3486
*END

*D_NET *394 0.00136912
*CONN
*I *12063:A I *D sky130_fd_sc_hd__dlygate4sd3_1
*I *12051:X O *D sky130_fd_sc_hd__dlygate4sd3_1
*CAP
1 *12063:A 9.00967e-05
2 *12051:X 0.000461771
3 *394:8 0.000551867
4 *12063:A *535:10 2.64616e-05
5 *394:8 *407:16 0
6 *394:8 *535:10 0.000163343
7 *12062:A *394:8 7.55832e-05
*RES
1 *12051:X *394:8 46.5964
2 *394:8 *12063:A 39.5743
*END

*D_NET *395 0.191716
*CONN
*I *12154:DI[6] I *D CF_SRAM_1024x32
*I *12144:DI[6] I *D CF_SRAM_1024x32
*I *12134:DI[6] I *D CF_SRAM_1024x32
*I *12124:DI[6] I *D CF_SRAM_1024x32
*I *12052:X O *D sky130_fd_sc_hd__buf_12
*CAP
1 *12154:DI[6] 0.000143407
2 *12144:DI[6] 0.0016039
3 *12134:DI[6] 0.000121386
4 *12124:DI[6] 0.00175509
5 *12052:X 0
6 *395:79 0.0161662
7 *395:77 0.0161263
8 *395:60 0.0017074
9 *395:58 0.00679851
10 *395:56 0.00689232
11 *395:50 0.000839981
12 *395:34 0.0167454
13 *395:32 0.016624
14 *395:18 0.00263017
15 *395:16 0.00107542
16 *395:10 0.00668756
17 *395:8 0.00669645
18 *395:4 0.000955398
19 *12124:DI[6] *586:20 6.92122e-05
20 *12134:DI[6] *560:437 1.01785e-05
21 *12154:DI[6] *12154:BEN[6] 0
22 *12154:DI[6] *480:58 2.11157e-05
23 *12154:DI[6] *560:290 2.11157e-05
24 *395:10 *511:20 0.000655435
25 *395:18 *11864:S 0.000144528
26 *395:18 *12124:DI[3] 4.75704e-05
27 *395:18 *400:28 0.0010941
28 *395:18 *402:18 0.000169209
29 *395:18 *409:54 6.97747e-05
30 *395:18 *586:20 0.0022098
31 *395:50 *415:10 0.00146663
32 *395:50 *415:56 0.000779687
33 *395:50 *424:28 0.000229559
34 *395:50 *438:18 0.00192813
35 *395:50 *502:10 7.45278e-05
36 *395:50 *502:58 7.18001e-05
37 *395:56 *636:130 2.96602e-05
38 *395:58 *400:80 5.94195e-05
39 *395:58 *400:82 0.0188142
40 *395:58 *415:56 0.00142589
41 *395:58 *438:74 1.06693e-05
42 *395:58 *502:60 0.00292156
43 *395:58 *506:62 0.0040478
44 *395:58 *636:18 0.00110787
45 *395:77 *400:82 3.35885e-06
46 *395:77 *506:62 2.05503e-05
47 *734:DIODE *12124:DI[6] 3.41069e-05
48 *905:DIODE *395:58 0.00016441
49 *11845:A0 *395:58 0.000435684
50 *116:14 *395:34 0
51 *122:14 *395:18 0.000461252
52 *142:6 *12124:DI[6] 0.000219033
53 *214:17 *12124:DI[6] 0
54 *218:21 *395:34 0
55 *220:159 *12124:DI[6] 3.82058e-06
56 *222:44 *395:16 4.08664e-05
57 *222:46 *395:16 8.17328e-05
58 *222:48 *395:16 9.41704e-05
59 *223:58 *12124:DI[6] 7.17297e-05
60 *223:58 *395:18 1.23172e-05
61 *228:13 *12134:DI[6] 2.6419e-05
62 *229:23 *395:34 0
63 *246:13 *12134:DI[6] 2.63057e-05
64 *246:15 *395:34 0.016202
65 *246:27 *395:34 0
66 *275:21 *395:58 0.000392602
67 *278:9 *12144:DI[6] 0.000255225
68 *281:33 *395:58 8.62783e-05
69 *307:55 *395:58 2.24151e-05
70 *310:13 *12154:DI[6] 3.32378e-05
71 *310:15 *395:79 0.0166219
72 *311:27 *395:58 0.00539954
73 *319:34 *395:10 0.00922658
74 *382:46 *395:10 0.000732605
*RES
1 *12052:X *395:4 23
2 *395:4 *395:8 17.5271
3 *395:8 *395:10 122.339
4 *395:10 *395:16 32.5271
5 *395:16 *395:18 34.1268
6 *395:18 *12124:DI[6] 37.3507
7 *395:18 *395:32 8
8 *395:32 *395:34 61.9659
9 *395:34 *12134:DI[6] 24.9057
10 *395:4 *395:50 45.0771
11 *395:50 *395:56 31.9057
12 *395:56 *395:58 267.774
13 *395:58 *395:60 15
14 *395:60 *12144:DI[6] 20.6314
15 *395:60 *395:77 24.4189
16 *395:77 *395:79 61.88
17 *395:79 *12154:DI[6] 25.3718
*END

*D_NET *396 0.06088
*CONN
*I *11960:A I *D sky130_fd_sc_hd__buf_12
*I *12172:X O *D sky130_fd_sc_hd__buf_12
*CAP
1 *11960:A 0.00024154
2 *12172:X 9.02082e-05
3 *396:24 0.000411168
4 *396:16 0.00574115
5 *396:14 0.00557152
6 *396:12 0.00422458
7 *396:10 0.00422458
8 *396:8 9.02082e-05
9 *11960:A *579:36 6.17437e-06
10 *396:12 *430:14 0.000110155
11 *396:12 *452:12 0.000728743
12 *396:12 *591:18 0.00500079
13 *396:16 *536:8 0.000193379
14 *396:16 *574:16 0
15 *396:16 *578:10 0.0206191
16 *396:24 *578:10 0.000380471
17 wbs_dat_o[11] *396:8 3.14565e-05
18 *35:9 *396:16 0.000259582
19 *131:18 *396:16 0.00379862
20 *185:10 *396:24 0.000382703
21 *200:11 *396:16 0.00141413
22 *202:15 *396:16 0
23 *218:37 *396:16 0.000685843
24 *225:54 *396:16 0.00123523
25 *226:22 *396:16 0.00336192
26 *226:28 *396:16 0.000148697
27 *244:27 *396:16 0.000637388
28 *246:27 *396:16 0.00119646
29 *330:8 *396:16 0
30 *365:68 *396:24 9.41704e-05
*RES
1 *12172:X *396:8 39.5536
2 *396:8 *396:10 15
3 *396:10 *396:12 69.2271
4 *396:12 *396:14 15
5 *396:14 *396:16 273.056
6 *396:16 *396:24 36.1729
7 *396:24 *11960:A 41.0036
*END

*D_NET *397 0.00330692
*CONN
*I *12044:A I *D sky130_fd_sc_hd__dlygate4sd3_1
*I *12053:X O *D sky130_fd_sc_hd__dlygate4sd3_1
*CAP
1 *12044:A 0
2 *12053:X 0.000627871
3 *397:12 0.000363696
4 *397:6 0.000991567
5 *397:6 *398:10 0.000141165
6 *397:6 *528:10 5.52998e-05
7 *397:6 *592:12 0.000160217
8 *397:12 *528:10 2.711e-05
9 *397:12 *600:12 0
10 wbs_dat_o[9] *397:12 0.000222797
11 *37:17 *397:6 0.000717194
*RES
1 *12053:X *397:6 36.485
2 *397:6 *397:12 35.4271
3 *397:12 *12044:A 23
*END

*D_NET *398 0.000706963
*CONN
*I *12203:A I *D sky130_fd_sc_hd__buf_12
*I *12054:X O *D sky130_fd_sc_hd__dlygate4sd3_1
*CAP
1 *12203:A 0
2 *12054:X 0.000203002
3 *398:10 0.000203002
4 *398:10 *623:20 2.95916e-05
5 *37:17 *398:10 0.000130202
6 *397:6 *398:10 0.000141165
*RES
1 *12054:X *398:10 41.48
2 *398:10 *12203:A 38
*END

*D_NET *399 9.5445e-05
*CONN
*I *12067:A I *D sky130_fd_sc_hd__dlygate4sd3_1
*I *12055:X O *D sky130_fd_sc_hd__dlygate4sd3_1
*CAP
1 *12067:A 3.30351e-05
2 *12055:X 3.30351e-05
3 *12067:A *592:12 2.93747e-05
*RES
1 *12055:X *12067:A 46.6214
*END

*D_NET *400 0.204111
*CONN
*I *12154:DI[5] I *D CF_SRAM_1024x32
*I *12144:DI[5] I *D CF_SRAM_1024x32
*I *12134:DI[5] I *D CF_SRAM_1024x32
*I *12124:DI[5] I *D CF_SRAM_1024x32
*I *12056:X O *D sky130_fd_sc_hd__buf_12
*CAP
1 *12154:DI[5] 0.000148443
2 *12144:DI[5] 0.00141221
3 *12134:DI[5] 0.000155331
4 *12124:DI[5] 0.00160098
5 *12056:X 0
6 *400:103 0.0161672
7 *400:101 0.0161602
8 *400:84 0.00155372
9 *400:82 0.00577385
10 *400:80 0.00650865
11 *400:74 0.00152417
12 *400:56 0.0274663
13 *400:30 0.0289119
14 *400:28 0.000868699
15 *400:20 0.00653378
16 *400:18 0.00652601
17 *400:6 0.0016503
18 *12134:DI[5] *560:449 3.9569e-05
19 *12154:DI[5] *480:58 2.11157e-05
20 *12154:DI[5] *560:302 2.11157e-05
21 *400:18 *432:34 2.94498e-05
22 *400:18 *506:8 0.00214674
23 *400:20 *506:18 0.000105035
24 *400:20 *577:16 0.000233911
25 *400:28 *11864:S 6.01596e-05
26 *400:28 *11870:S 2.9437e-05
27 *400:28 *626:49 7.90568e-05
28 *400:28 *626:60 0.000121361
29 *400:28 *626:71 0.000163479
30 *400:74 *424:14 4.67488e-05
31 *400:74 *506:8 0.0013259
32 *400:80 *402:54 0.00202035
33 *400:80 *415:56 0.000652984
34 *400:80 *524:20 0.000230766
35 *400:80 *636:18 0.00111039
36 *400:82 *402:54 2.093e-05
37 *400:82 *402:56 0.0196108
38 *400:82 *506:62 0
39 *400:82 *524:52 0.00271151
40 *400:101 *506:62 2.05503e-05
41 *11870:A0 *400:28 3.05299e-05
42 *11870:A1 *400:28 5.85822e-06
43 *122:14 *400:28 0.00023653
44 *133:36 *12124:DI[5] 0.000424168
45 *181:18 *400:20 0.000842469
46 *196:19 *400:20 0.00571748
47 *203:11 *400:18 0.00214937
48 *203:11 *400:20 0.000976452
49 *203:11 *400:74 0.0013167
50 *213:17 *12124:DI[5] 0.000158177
51 *228:13 *12134:DI[5] 0.000124453
52 *245:13 *12134:DI[5] 0.0001543
53 *277:9 *12144:DI[5] 0.000845894
54 *281:33 *400:80 8.62783e-05
55 *309:13 *12154:DI[5] 3.32378e-05
56 *309:15 *400:103 0.0166052
57 *319:34 *12124:DI[5] 2.11157e-05
58 *369:74 *400:18 0.00043194
59 *369:74 *400:20 0.00010083
60 *369:74 *400:74 0.00011563
61 *395:18 *400:28 0.0010941
62 *395:58 *400:80 5.94195e-05
63 *395:58 *400:82 0.0188142
64 *395:77 *400:82 3.35885e-06
*RES
1 *12056:X *400:6 38
2 *400:6 *400:18 44.8609
3 *400:18 *400:20 103.851
4 *400:20 *400:28 49.6682
5 *400:28 *400:30 8
6 *400:30 *12124:DI[5] 44.093
7 *400:30 *400:56 62.0517
8 *400:56 *12134:DI[5] 26.2936
9 *400:6 *400:74 37.6614
10 *400:74 *400:80 42.7054
11 *400:80 *400:82 261.259
12 *400:82 *400:84 15
13 *400:84 *12144:DI[5] 20.155
14 *400:84 *400:101 24.8954
15 *400:101 *400:103 61.88
16 *400:103 *12154:DI[5] 25.3718
*END

*D_NET *401 7.95068e-05
*CONN
*I *12070:A I *D sky130_fd_sc_hd__dlygate4sd3_1
*I *12057:X O *D sky130_fd_sc_hd__dlygate4sd3_1
*CAP
1 *12070:A 2.36094e-05
2 *12057:X 2.36094e-05
3 *12070:A *592:12 3.22879e-05
*RES
1 *12057:X *12070:A 46.6214
*END

*D_NET *402 0.212943
*CONN
*I *12154:DI[4] I *D CF_SRAM_1024x32
*I *12144:DI[4] I *D CF_SRAM_1024x32
*I *12134:DI[4] I *D CF_SRAM_1024x32
*I *12124:DI[4] I *D CF_SRAM_1024x32
*I *12059:X O *D sky130_fd_sc_hd__buf_12
*CAP
1 *12154:DI[4] 0.000214175
2 *12144:DI[4] 0.00151024
3 *12134:DI[4] 0.000147797
4 *12124:DI[4] 0.00184917
5 *12059:X 5.39135e-05
6 *402:74 0.0297659
7 *402:72 0.0298139
8 *402:58 0.00177243
9 *402:56 0.00599648
10 *402:54 0.00702948
11 *402:38 0.0264653
12 *402:20 0.0281666
13 *402:18 0.000510405
14 *402:10 0.00337287
15 *402:8 0.00394938
16 *12124:DI[4] *12124:BEN[4] 0
17 *12134:DI[4] *560:461 4.20022e-05
18 *12154:DI[4] *480:58 0.000200356
19 *12154:DI[4] *560:314 0.000200356
20 *402:10 *409:50 0.00810976
21 *402:10 *409:54 0.000918753
22 *402:10 *520:18 0.000816772
23 *402:10 *577:16 0.000217124
24 *402:18 *11864:S 9.5877e-05
25 *402:18 *409:54 3.04021e-05
26 *402:18 *586:20 0.000622667
27 *402:54 *409:12 0.000154577
28 *402:54 *409:14 0.001121
29 *402:54 *409:50 0.000435358
30 *402:54 *415:10 0.000112681
31 *402:54 *415:56 3.14524e-05
32 *402:54 *424:14 0.000149872
33 *402:54 *520:18 0.000141169
34 *402:56 *409:14 1.60583e-05
35 *402:56 *415:60 0.020404
36 *402:56 *506:62 0
37 *402:56 *524:52 0.00325115
38 *402:72 *506:62 0.000194078
39 *11864:A0 *402:18 5.50106e-05
40 *131:26 *402:18 0.00107192
41 *212:17 *12124:DI[4] 0
42 *222:44 *402:18 3.17516e-05
43 *222:46 *402:18 1.21972e-05
44 *222:48 *402:18 3.7122e-06
45 *228:13 *12134:DI[4] 9.52761e-05
46 *244:11 *12134:DI[4] 2.85672e-05
47 *276:9 *12144:DI[4] 0.00022127
48 *308:13 *12154:DI[4] 3.4377e-05
49 *309:15 *402:74 0
50 *319:34 *12124:DI[4] 2.11066e-05
51 *319:34 *402:10 0.00990847
52 *319:34 *402:54 0.00150514
53 *382:46 *402:10 0.000249281
54 *395:18 *402:18 0.000169209
55 *400:80 *402:54 0.00202035
56 *400:82 *402:54 2.093e-05
57 *400:82 *402:56 0.0196108
*RES
1 *12059:X *402:8 38.6214
2 *402:8 *402:10 131.494
3 *402:10 *402:18 46.9339
4 *402:18 *402:20 8
5 *402:20 *12124:DI[4] 43.3149
6 *402:20 *402:38 61.7941
7 *402:38 *12134:DI[4] 25.8379
8 *402:8 *402:54 40.3825
9 *402:54 *402:56 271.823
10 *402:56 *402:58 15
11 *402:58 *12144:DI[4] 19.6061
12 *402:58 *402:72 27.8368
13 *402:72 *402:74 61.88
14 *402:74 *12154:DI[4] 27.7643
*END

*D_NET *403 0.00183116
*CONN
*I *12049:A I *D sky130_fd_sc_hd__dlygate4sd3_1
*I *12060:X O *D sky130_fd_sc_hd__dlygate4sd3_1
*CAP
1 *12049:A 0
2 *12060:X 0.000680734
3 *403:10 0.000680734
4 *403:10 *404:10 0.000219636
5 *403:10 *579:14 9.5877e-05
6 *403:10 *622:28 0
7 wbs_dat_o[7] *403:10 0.000148009
8 *12060:A *403:10 6.17437e-06
*RES
1 *12060:X *403:10 48.005
2 *403:10 *12049:A 38
*END

*D_NET *404 0.000911667
*CONN
*I *12202:A I *D sky130_fd_sc_hd__buf_12
*I *12061:X O *D sky130_fd_sc_hd__dlygate4sd3_1
*CAP
1 *12202:A 0
2 *12061:X 0.000340183
3 *404:10 0.000340183
4 *404:10 *592:12 1.16652e-05
5 *12001:A *404:10 0
6 *403:10 *404:10 0.000219636
*RES
1 *12061:X *404:10 43.6964
2 *404:10 *12202:A 38
*END

*D_NET *405 0.000426828
*CONN
*I *12051:A I *D sky130_fd_sc_hd__dlygate4sd3_1
*I *12062:X O *D sky130_fd_sc_hd__dlygate4sd3_1
*CAP
1 *12051:A 6.41267e-05
2 *12062:X 0.000108494
3 *405:8 0.000172621
4 *12051:A *621:20 8.15864e-05
*RES
1 *12062:X *405:8 39.9057
2 *405:8 *12051:A 39.5743
*END

*D_NET *406 0.000764538
*CONN
*I *12201:A I *D sky130_fd_sc_hd__buf_12
*I *12063:X O *D sky130_fd_sc_hd__dlygate4sd3_1
*CAP
1 *12201:A 0
2 *12063:X 0.000289609
3 *406:10 0.000289609
4 *406:10 *574:16 9.56632e-05
5 *406:10 *578:10 8.96568e-05
*RES
1 *12063:X *406:10 43.3443
2 *406:10 *12201:A 38
*END

*D_NET *407 0.0688791
*CONN
*I *11938:A I *D sky130_fd_sc_hd__buf_12
*I *12173:X O *D sky130_fd_sc_hd__buf_12
*CAP
1 *11938:A 0
2 *12173:X 0.000174974
3 *407:16 0.00708759
4 *407:14 0.00708759
5 *407:12 0.00258396
6 *407:10 0.00258396
7 *407:8 0.000174974
8 *407:12 *418:12 0.00019478
9 *407:12 *430:14 0.0017248
10 *407:12 *574:12 0.00762057
11 *407:12 *622:22 1.41077e-05
12 *407:16 *418:16 0.0199502
13 *407:16 *452:24 0.00174443
14 *407:16 *535:10 0
15 *407:16 *554:14 0.000888327
16 *407:16 *554:31 3.95159e-06
17 *407:16 *574:16 7.22732e-06
18 *407:16 *625:43 0.00402131
19 *407:16 *632:48 0
20 wbs_dat_o[12] *407:8 0.000191926
21 wbs_dat_o[6] *407:16 4.34008e-06
22 *12031:A *407:8 0
23 *12062:A *407:16 0
24 *117:14 *407:16 0.0113323
25 *121:18 *407:16 7.15574e-05
26 *147:10 *407:16 0.000501414
27 *220:29 *407:16 0.000636939
28 *330:16 *407:16 0.000277816
29 *394:8 *407:16 0
*RES
1 *12173:X *407:8 41.3143
2 *407:8 *407:10 15
3 *407:10 *407:12 87.3314
4 *407:12 *407:14 15
5 *407:14 *407:16 274.112
6 *407:16 *11938:A 38
*END

*D_NET *408 0.00188227
*CONN
*I *12076:A I *D sky130_fd_sc_hd__dlygate4sd3_1
*I *12064:X O *D sky130_fd_sc_hd__dlygate4sd3_1
*CAP
1 *12076:A 3.29373e-05
2 *12064:X 0.000479682
3 *408:10 0.000512619
4 *12076:A *12244:A 4.96717e-05
5 *12076:A *588:30 9.84851e-05
6 *408:10 *12064:A 0.000100069
7 *408:10 *582:6 0.000145272
8 *408:10 *584:10 5.33156e-05
9 *12075:A *408:10 0.000410218
10 *31:9 *408:10 0
*RES
1 *12064:X *408:10 48.0879
2 *408:10 *12076:A 39.0979
*END

*D_NET *409 0.196296
*CONN
*I *12134:DI[3] I *D CF_SRAM_1024x32
*I *12124:DI[3] I *D CF_SRAM_1024x32
*I *12154:DI[3] I *D CF_SRAM_1024x32
*I *12144:DI[3] I *D CF_SRAM_1024x32
*I *12065:X O *D sky130_fd_sc_hd__buf_12
*CAP
1 *12134:DI[3] 0.000117183
2 *12124:DI[3] 0.00156345
3 *12154:DI[3] 0.0002486
4 *12144:DI[3] 0.00134169
5 *12065:X 0
6 *409:74 0.0137561
7 *409:72 0.0164015
8 *409:54 0.0052481
9 *409:50 0.00344504
10 *409:48 0.00259629
11 *409:30 0.0237471
12 *409:28 0.0235699
13 *409:21 3.36227e-06
14 *409:14 0.00869816
15 *409:12 0.00849106
16 *409:4 0.00127607
17 *12124:DI[3] *11864:S 5.02657e-05
18 *12124:DI[3] *12124:BEN[3] 0
19 *12134:DI[3] *560:473 8.71278e-06
20 *12144:DI[3] *12144:BEN[3] 0
21 *12154:DI[3] *480:58 4.30119e-05
22 *12154:DI[3] *560:334 0.000127157
23 *409:14 *415:60 0.0212575
24 *409:14 *438:82 0.0185947
25 *409:14 *511:12 4.97925e-05
26 *409:14 *520:12 4.97925e-05
27 *409:14 *520:52 0.00341132
28 *409:14 *524:12 4.9808e-05
29 *409:28 *415:60 0.000173005
30 *409:28 *438:82 0.000166364
31 *409:50 *415:10 0.00674223
32 *409:50 *415:18 0.000719629
33 *409:50 *438:38 0.000256824
34 *409:50 *438:42 2.24608e-05
35 *409:50 *506:38 2.31209e-05
36 *409:50 *524:20 0.000925088
37 *409:54 *11864:S 0.00013866
38 *409:54 *415:18 0.00053147
39 *409:54 *415:22 2.50227e-05
40 *131:26 *409:54 0
41 *140:8 *12124:DI[3] 2.94659e-05
42 *141:22 *12124:DI[3] 2.19998e-05
43 *143:28 *12124:DI[3] 6.70361e-05
44 *200:7 *409:12 2.64616e-05
45 *200:7 *409:48 4.67488e-05
46 *211:17 *12124:DI[3] 3.06338e-05
47 *222:25 *409:72 0.00198135
48 *222:89 *12124:DI[3] 9.82009e-05
49 *228:13 *12134:DI[3] 2.24415e-05
50 *243:13 *12134:DI[3] 2.761e-05
51 *243:15 *409:72 0.000300776
52 *243:15 *409:74 0.015516
53 *275:11 *12144:DI[3] 0.0002881
54 *276:23 *409:14 0.000108681
55 *277:23 *409:14 0.000201198
56 *279:25 *409:14 0.000187986
57 *307:17 *12154:DI[3] 0.000112788
58 *307:17 *409:30 0.00101177
59 *308:55 *409:14 8.04817e-05
60 *319:34 *409:12 0.00110188
61 *319:34 *409:54 6.02277e-06
62 *382:46 *409:54 0.00025575
63 *395:18 *12124:DI[3] 4.75704e-05
64 *395:18 *409:54 6.97747e-05
65 *402:10 *409:50 0.00810976
66 *402:10 *409:54 0.000918753
67 *402:18 *409:54 3.04021e-05
68 *402:54 *409:12 0.000154577
69 *402:54 *409:14 0.001121
70 *402:54 *409:50 0.000435358
71 *402:56 *409:14 1.60583e-05
*RES
1 *12065:X *409:4 23
2 *409:4 *409:12 35.5796
3 *409:12 *409:14 297.882
4 *409:14 *12144:DI[3] 33.7257
5 *12144:DI[3] *409:21 0.225556
6 *409:14 *409:28 10.4339
7 *409:28 *409:30 62.4811
8 *409:30 *12154:DI[3] 28.0129
9 *409:4 *409:48 16.0979
10 *409:48 *409:50 113.421
11 *409:50 *409:54 26.7629
12 *409:54 *12124:DI[3] 36.9364
13 *409:54 *409:72 15.0653
14 *409:72 *409:74 55.2253
15 *409:74 *12134:DI[3] 24.8436
*END

*D_NET *410 0.000655843
*CONN
*I *12055:A I *D sky130_fd_sc_hd__dlygate4sd3_1
*I *12066:X O *D sky130_fd_sc_hd__dlygate4sd3_1
*CAP
1 *12055:A 9.6171e-05
2 *12066:X 9.98693e-05
3 *410:8 0.00019604
4 *12055:A *592:12 0.000180841
5 *410:8 *577:12 1.95604e-05
6 *66:9 *410:8 6.33614e-05
*RES
1 *12066:X *410:8 39.9057
2 *410:8 *12055:A 40.0507
*END

*D_NET *411 0.000572398
*CONN
*I *12200:A I *D sky130_fd_sc_hd__buf_12
*I *12067:X O *D sky130_fd_sc_hd__dlygate4sd3_1
*CAP
1 *12200:A 0
2 *12067:X 0.000212765
3 *411:10 0.000212765
4 *411:10 *534:10 0.000127134
5 *411:10 *592:12 1.97333e-05
*RES
1 *12067:X *411:10 41.0036
2 *411:10 *12200:A 38
*END

*D_NET *412 0.000607225
*CONN
*I *12057:A I *D sky130_fd_sc_hd__dlygate4sd3_1
*I *12068:X O *D sky130_fd_sc_hd__dlygate4sd3_1
*CAP
1 *12057:A 6.77444e-05
2 *12068:X 9.84168e-05
3 *412:8 0.000166161
4 *12057:A *592:12 0.000139346
5 *412:8 *576:10 0
6 *65:9 *412:8 0.000135557
*RES
1 *12068:X *412:8 39.9057
2 *412:8 *12057:A 39.5743
*END

*D_NET *413 0.00084276
*CONN
*I *12199:A I *D sky130_fd_sc_hd__buf_12
*I *12070:X O *D sky130_fd_sc_hd__dlygate4sd3_1
*CAP
1 *12199:A 2.70608e-05
2 *12070:X 0.000290636
3 *413:10 0.000317697
4 *12199:A *593:12 2.64616e-05
5 *12199:A *624:14 2.93431e-05
6 *413:10 *530:10 0.000124902
7 *413:10 *592:12 2.66596e-05
*RES
1 *12070:X *413:10 41.48
2 *413:10 *12199:A 38.6214
*END

*D_NET *414 0.00159998
*CONN
*I *12092:A I *D sky130_fd_sc_hd__dlygate4sd3_1
*I *12071:X O *D sky130_fd_sc_hd__dlygate4sd3_1
*CAP
1 *12092:A 0.000207874
2 *12071:X 0.000227202
3 *414:10 0.000435076
4 *12092:A *436:8 6.17437e-06
5 *414:10 *436:12 0.000285852
6 *414:10 *593:10 0.000339156
7 *414:10 *622:10 5.50049e-05
8 *189:42 *12092:A 4.36379e-05
*RES
1 *12071:X *414:10 43.3443
2 *414:10 *12092:A 41.0036
*END

*D_NET *415 0.18989
*CONN
*I *12154:DI[2] I *D CF_SRAM_1024x32
*I *12144:DI[2] I *D CF_SRAM_1024x32
*I *12124:DI[2] I *D CF_SRAM_1024x32
*I *12134:DI[2] I *D CF_SRAM_1024x32
*I *12072:X O *D sky130_fd_sc_hd__buf_12
*CAP
1 *12154:DI[2] 0.00014539
2 *12144:DI[2] 0.00139081
3 *12124:DI[2] 0.00166741
4 *12134:DI[2] 0.000113391
5 *12072:X 0.000116374
6 *415:91 3.36227e-06
7 *415:80 0.0202893
8 *415:78 0.0203599
9 *415:62 0.00160346
10 *415:60 0.00669269
11 *415:58 0.00669269
12 *415:56 0.00112072
13 *415:24 0.0166846
14 *415:22 0.0165971
15 *415:18 0.00282871
16 *415:10 0.00311166
17 *415:8 0.00321327
18 *12144:DI[2] *12144:BEN[2] 0
19 *12154:DI[2] *12154:BEN[2] 0
20 *12154:DI[2] *480:58 2.11157e-05
21 *12154:DI[2] *560:346 2.11157e-05
22 *415:10 *12124:AD[0] 4.82774e-05
23 *415:10 *424:28 0.000926257
24 *415:10 *424:30 9.84539e-05
25 *415:10 *438:18 1.50266e-05
26 *415:10 *438:22 0.00367749
27 *415:10 *502:20 0.000578229
28 *415:10 *502:22 2.34364e-05
29 *415:10 *524:20 0.000711923
30 *415:18 *12124:AD[3] 2.31209e-05
31 *415:18 *424:34 0.000628606
32 *415:18 *424:38 5.02657e-05
33 *415:18 *438:38 0.000262856
34 *415:18 *438:42 2.05503e-05
35 *415:18 *502:20 7.60871e-06
36 *415:18 *502:22 0.000826543
37 *415:18 *506:38 2.11157e-05
38 *415:56 *424:14 0.000147239
39 *415:56 *438:74 0.000341215
40 *415:56 *502:58 3.40475e-05
41 *415:56 *636:130 0.000187986
42 *415:60 *438:82 0.000293769
43 *415:60 *506:62 0
44 *415:60 *520:52 0.00307704
45 *415:78 *438:82 0
46 *415:78 *506:62 0.000130957
47 *905:DIODE *415:56 6.17437e-06
48 *131:26 *415:18 0.000420293
49 *131:26 *415:22 2.12234e-05
50 *133:22 *12124:DI[2] 2.62931e-05
51 *208:19 *12124:DI[2] 8.23322e-05
52 *225:42 *12134:DI[2] 2.11157e-05
53 *225:44 *415:24 0
54 *228:13 *12134:DI[2] 2.11157e-05
55 *240:13 *12134:DI[2] 2.80448e-05
56 *240:15 *415:24 0.0159583
57 *272:9 *12144:DI[2] 0
58 *304:17 *12154:DI[2] 3.65335e-05
59 *304:17 *415:80 0.00355609
60 *306:25 *415:80 0
61 *307:55 *415:56 0.000584976
62 *395:50 *415:10 0.00146663
63 *395:50 *415:56 0.000779687
64 *395:58 *415:56 0.00142589
65 *400:80 *415:56 0.000652984
66 *402:54 *415:10 0.000112681
67 *402:54 *415:56 3.14524e-05
68 *402:56 *415:60 0.020404
69 *409:14 *415:60 0.0212575
70 *409:28 *415:60 0.000173005
71 *409:50 *415:10 0.00674223
72 *409:50 *415:18 0.000719629
73 *409:54 *415:18 0.00053147
74 *409:54 *415:22 2.50227e-05
*RES
1 *12072:X *415:8 39.5743
2 *415:8 *415:10 92.5825
3 *415:10 *415:18 39.0361
4 *415:18 *415:22 8.67321
5 *415:22 *415:24 61.88
6 *415:24 *12134:DI[2] 24.8229
7 *415:18 *12124:DI[2] 36.8846
8 *415:8 *415:56 49.7793
9 *415:56 *415:58 15
10 *415:58 *415:60 292.424
11 *415:60 *415:62 15
12 *415:62 *12144:DI[2] 20.7246
13 *415:62 *415:78 27.2568
14 *415:78 *415:80 61.88
15 *415:80 *12154:DI[2] 25.3718
16 *12154:DI[2] *415:91 0.184545
*END

*D_NET *416 0.00148882
*CONN
*I *12078:A I *D sky130_fd_sc_hd__dlygate4sd3_1
*I *12073:X O *D sky130_fd_sc_hd__dlygate4sd3_1
*CAP
1 *12078:A 0
2 *12073:X 0.000691918
3 *416:10 0.000691918
4 *416:10 *12073:A 7.51453e-06
5 *416:10 *422:10 0
6 *416:10 *452:8 0
7 *416:10 *598:24 0
8 wbs_dat_o[16] *416:10 8.33469e-05
9 *929:DIODE *416:10 1.41244e-05
10 *46:11 *416:10 0
11 *153:40 *416:10 0
12 *367:10 *416:10 0
*RES
1 *12073:X *416:10 49.9936
2 *416:10 *12078:A 38
*END

*D_NET *417 0.180472
*CONN
*I *12124:DI[16] I *D CF_SRAM_1024x32
*I *12134:DI[16] I *D CF_SRAM_1024x32
*I *12154:DI[16] I *D CF_SRAM_1024x32
*I *12144:DI[16] I *D CF_SRAM_1024x32
*I *12074:X O *D sky130_fd_sc_hd__buf_12
*CAP
1 *12124:DI[16] 0.00217565
2 *12134:DI[16] 7.90567e-05
3 *12154:DI[16] 0.000178607
4 *12144:DI[16] 0.00178677
5 *12074:X 0
6 *417:102 0.019675
7 *417:100 0.0196164
8 *417:96 0.00243553
9 *417:90 0.000522278
10 *417:78 0.000653469
11 *417:70 0.00194255
12 *417:68 0.00193045
13 *417:64 0.000919414
14 *417:51 3.36227e-06
15 *417:40 0.0200842
16 *417:38 0.0199401
17 *417:22 0.0052986
18 *417:20 0.00352603
19 *417:18 0.00738185
20 *417:16 0.00760089
21 *417:10 0.00147595
22 *417:4 0.00177251
23 *12124:DI[16] *509:20 1.05235e-05
24 *12154:DI[16] *432:54 1.19354e-05
25 *12154:DI[16] *480:58 4.80465e-05
26 *417:10 *11823:S 0.000156951
27 *417:10 *509:68 0.000428406
28 *417:10 *635:48 0.000476659
29 *417:10 *635:59 0.000213615
30 *417:10 *636:47 0.000213529
31 *417:18 *515:62 0.00255546
32 *417:18 *517:56 0.0207615
33 *417:22 *509:68 0
34 *417:22 *515:62 0.000185018
35 *417:22 *517:56 0.000778718
36 *417:40 *639:158 0
37 *417:64 *513:50 2.31209e-05
38 *417:64 *517:56 0.000551629
39 *417:68 *11875:S 9.5877e-05
40 *417:68 *635:10 0.000175903
41 *417:68 *636:130 5.62191e-05
42 *417:70 *438:74 0.000446003
43 *417:70 *502:10 0.00016629
44 *417:70 *504:68 0.00407992
45 *417:70 *509:8 0.00445095
46 *417:70 *509:68 0.000434859
47 *417:78 *515:10 0.000479915
48 *417:102 *441:20 3.09672e-05
49 *417:102 *547:28 0.00230602
50 *417:102 *547:52 0
51 *417:102 *579:26 0.000324963
52 *980:DIODE *417:10 3.64467e-05
53 *178:16 *417:96 6.17437e-06
54 *193:12 *12124:DI[16] 0
55 *225:18 *12134:DI[16] 2.35771e-05
56 *228:9 *12134:DI[16] 4.9002e-05
57 *231:13 *12134:DI[16] 4.9002e-05
58 *257:9 *12144:DI[16] 0.000763873
59 *257:31 *417:16 4.46015e-05
60 *259:23 *417:10 0.000308883
61 *261:23 *417:10 0.000355725
62 *289:17 *12154:DI[16] 0
63 *289:17 *417:40 0.000513526
64 *290:17 *417:40 0
65 *293:27 *417:10 8.52135e-05
66 *293:29 *417:10 0.000234376
67 *293:35 *417:10 0.000698459
68 *313:29 *417:64 2.31209e-05
69 *362:74 *417:102 0.000167355
70 *369:10 *417:78 0.000127898
71 *371:70 *417:10 3.19892e-06
72 *387:10 *417:78 0.000477653
73 *387:10 *417:96 0.000471246
74 *387:10 *417:100 4.94189e-05
75 *389:8 *417:90 0.00013007
76 *389:52 *417:18 0.0149979
77 *389:52 *417:64 0.000967414
78 *393:12 *417:90 0.00013007
79 *393:12 *417:96 0.000479014
80 *393:12 *417:100 4.73448e-05
81 *393:49 *417:64 0.000769661
*RES
1 *12074:X *417:4 23
2 *417:4 *417:10 46.7964
3 *417:10 *417:16 33.48
4 *417:16 *417:18 275.117
5 *417:18 *417:20 0.621429
6 *417:20 *417:22 53.3704
7 *417:22 *12144:DI[16] 43.3164
8 *417:22 *417:38 8.32107
9 *417:38 *417:40 60.7637
10 *417:40 *12154:DI[16] 25.7239
11 *12154:DI[16] *417:51 0.203
12 *417:4 *417:64 49.2229
13 *417:64 *417:68 19.4329
14 *417:68 *417:70 65.6436
15 *417:70 *417:78 39.4871
16 *417:78 *417:90 49.4536
17 *417:90 *417:96 22.5814
18 *417:96 *417:100 8.67321
19 *417:100 *417:102 60.8496
20 *417:102 *12134:DI[16] 24.7089
21 *417:96 *12124:DI[16] 42.4879
*END

*D_NET *418 0.0730238
*CONN
*I *12080:A I *D sky130_fd_sc_hd__buf_12
*I *12174:X O *D sky130_fd_sc_hd__buf_12
*CAP
1 *12080:A 0
2 *12174:X 0.000129339
3 *418:16 0.00652787
4 *418:14 0.00652787
5 *418:12 0.00161938
6 *418:10 0.00161938
7 *418:8 0.000129339
8 *418:8 *604:12 0
9 *418:12 *452:12 0.00634877
10 *418:12 *574:12 0.00761655
11 *418:12 *591:18 0.000572748
12 *418:12 *622:22 0.00174516
13 *418:16 *452:24 0.00180865
14 *418:16 *564:38 0.00122339
15 *418:16 *574:16 0.00124443
16 *418:16 *625:170 0.000610161
17 *418:16 *625:236 0.000632364
18 wbs_dat_o[13] *418:8 0.000184858
19 wbs_dat_o[6] *418:16 0.000191157
20 *788:DIODE *418:16 0.0001797
21 *839:DIODE *418:16 6.42902e-05
22 *11993:A *418:8 0
23 *111:10 *418:16 0.000657797
24 *111:14 *418:16 0.00257844
25 *115:10 *418:16 0.000200098
26 *121:18 *418:16 0.00683738
27 *183:12 *418:16 0.00163696
28 *220:45 *418:16 0.000207473
29 *221:40 *418:16 0.00014434
30 *225:70 *418:16 0.000299077
31 *225:74 *418:16 0.000111852
32 *229:25 *418:16 0.00103482
33 *229:27 *418:16 9.7937e-05
34 *240:31 *418:16 2.49312e-05
35 *248:27 *418:16 7.23805e-05
36 *407:12 *418:12 0.00019478
37 *407:16 *418:16 0.0199502
*RES
1 *12174:X *418:8 40.61
2 *418:8 *418:10 15
3 *418:10 *418:12 100.195
4 *418:12 *418:14 15
5 *418:14 *418:16 267.774
6 *418:16 *12080:A 38
*END

*D_NET *419 0.00141746
*CONN
*I *12064:A I *D sky130_fd_sc_hd__dlygate4sd3_1
*I *12075:X O *D sky130_fd_sc_hd__dlygate4sd3_1
*CAP
1 *12064:A 0.000118274
2 *12075:X 0.000261327
3 *419:8 0.000379601
4 *12064:A *582:6 0.00035768
5 *419:8 *583:14 3.89353e-05
6 *419:8 *584:10 1.36972e-05
7 *31:9 *419:8 0.000147874
8 *408:10 *12064:A 0.000100069
*RES
1 *12075:X *419:8 42.7229
2 *419:8 *12064:A 41.9564
*END

*D_NET *420 0.000900328
*CONN
*I *12198:A I *D sky130_fd_sc_hd__buf_12
*I *12076:X O *D sky130_fd_sc_hd__dlygate4sd3_1
*CAP
1 *12198:A 0
2 *12076:X 0.000231494
3 *420:10 0.000231494
4 *420:10 *12244:A 0.000180972
5 *420:10 *543:10 0.000127134
6 *420:10 *619:10 0.000129234
*RES
1 *12076:X *420:10 41.9564
2 *420:10 *12198:A 38
*END

*D_NET *421 0.000561273
*CONN
*I *12073:A I *D sky130_fd_sc_hd__dlygate4sd3_1
*I *12077:X O *D sky130_fd_sc_hd__dlygate4sd3_1
*CAP
1 *12073:A 0.000163246
2 *12077:X 0.000103386
3 *421:8 0.000266633
4 *929:DIODE *421:8 2.04934e-05
5 *416:10 *12073:A 7.51453e-06
*RES
1 *12077:X *421:8 39.9057
2 *421:8 *12073:A 41.0036
*END

*D_NET *422 0.000803727
*CONN
*I *12178:A I *D sky130_fd_sc_hd__buf_12
*I *12078:X O *D sky130_fd_sc_hd__dlygate4sd3_1
*CAP
1 *12178:A 0
2 *12078:X 0.00034265
3 *422:10 0.00034265
4 wbs_dat_o[16] *422:10 0
5 *929:DIODE *422:10 7.59666e-05
6 *153:40 *422:10 4.24597e-05
7 *416:10 *422:10 0
*RES
1 *12078:X *422:10 43.6964
2 *422:10 *12178:A 38
*END

*D_NET *423 0.00126126
*CONN
*I *12096:A I *D sky130_fd_sc_hd__dlygate4sd3_1
*I *12079:X O *D sky130_fd_sc_hd__dlygate4sd3_1
*CAP
1 *12096:A 0.000367398
2 *12079:X 0.00016868
3 *423:10 0.000536078
4 *12096:A *12182:A 5.3304e-05
5 *423:10 *559:10 6.79006e-05
6 *423:10 *602:8 6.79006e-05
*RES
1 *12079:X *423:10 41.0036
2 *423:10 *12096:A 43.3857
*END

*D_NET *424 0.195746
*CONN
*I *12154:DI[1] I *D CF_SRAM_1024x32
*I *12144:DI[1] I *D CF_SRAM_1024x32
*I *12124:DI[1] I *D CF_SRAM_1024x32
*I *12134:DI[1] I *D CF_SRAM_1024x32
*I *12081:X O *D sky130_fd_sc_hd__buf_12
*CAP
1 *12154:DI[1] 0.000150427
2 *12144:DI[1] 0.00151076
3 *12124:DI[1] 0.00159112
4 *12134:DI[1] 0.000111616
5 *12081:X 0.000244305
6 *424:103 0
7 *424:92 0.0135972
8 *424:90 0.0146394
9 *424:70 0.0027034
10 *424:68 0.0151226
11 *424:66 0.0151936
12 *424:40 0.0175332
13 *424:38 0.0174409
14 *424:34 0.00241093
15 *424:30 0.00210393
16 *424:28 0.00244216
17 *424:14 0.00145399
18 *12144:DI[1] *12144:BEN[1] 0
19 *12144:DI[1] *438:82 6.84987e-06
20 *12154:DI[1] *12154:BEN[0] 2.11157e-05
21 *12154:DI[1] *480:58 2.11157e-05
22 *424:14 *458:18 3.74254e-05
23 *424:14 *504:66 2.55744e-05
24 *424:28 *438:18 0.00107033
25 *424:28 *502:10 2.34364e-05
26 *424:28 *524:20 0.0015872
27 *424:30 *12124:AD[0] 4.82774e-05
28 *424:30 *12124:AD[2] 0.000120992
29 *424:30 *438:22 0.00367215
30 *424:30 *502:10 0.00394205
31 *424:30 *502:20 0.000526078
32 *424:30 *504:82 0.000100834
33 *424:30 *504:84 0.000197617
34 *424:30 *524:20 0.000246133
35 *424:34 *12124:AD[3] 2.11157e-05
36 *424:34 *12124:AD[4] 2.31209e-05
37 *424:34 *502:20 2.55241e-05
38 *424:34 *502:22 0.000889598
39 *424:34 *504:84 0.000104869
40 *424:66 *458:18 4.01424e-05
41 *424:66 *504:66 0.000104003
42 *424:68 *502:60 0.0248738
43 *424:68 *504:66 0.00074782
44 *424:68 *524:20 3.37624e-05
45 *131:26 *424:34 0.00125592
46 *131:26 *424:38 4.75766e-05
47 *137:24 *12124:DI[1] 7.3578e-05
48 *197:17 *12124:DI[1] 0.000401893
49 *225:42 *12134:DI[1] 1.97898e-05
50 *228:13 *12134:DI[1] 1.97898e-05
51 *229:11 *12134:DI[1] 3.02187e-05
52 *229:13 *424:40 0.0127955
53 *261:9 *12144:DI[1] 8.8477e-05
54 *282:23 *424:90 0.000223658
55 *282:23 *424:92 0.0296659
56 *283:27 *424:68 0.0007557
57 *293:13 *12154:DI[1] 3.65335e-05
58 *293:15 *424:92 0.000969147
59 *306:25 *424:92 0
60 *360:12 *424:34 0.000325173
61 *395:50 *424:28 0.000229559
62 *400:74 *424:14 4.67488e-05
63 *402:54 *424:14 0.000149872
64 *415:10 *424:28 0.000926257
65 *415:10 *424:30 9.84539e-05
66 *415:18 *424:34 0.000628606
67 *415:18 *424:38 5.02657e-05
68 *415:56 *424:14 0.000147239
*RES
1 *12081:X *424:14 49.3644
2 *424:14 *424:28 40.5753
3 *424:28 *424:30 59.305
4 *424:30 *424:34 28.4096
5 *424:34 *424:38 8.67321
6 *424:38 *424:40 61.7941
7 *424:40 *12134:DI[1] 24.8021
8 *424:34 *12124:DI[1] 37.3404
9 *424:14 *424:66 8.22773
10 *424:66 *424:68 60.4763
11 *424:68 *424:70 8
12 *424:70 *12144:DI[1] 43.843
13 *424:70 *424:90 2.98667
14 *424:90 *424:92 59.1752
15 *424:92 *12154:DI[1] 25.3718
16 *12154:DI[1] *424:103 0.156154
*END

*D_NET *425 0.000956456
*CONN
*I *12085:A I *D sky130_fd_sc_hd__dlygate4sd3_1
*I *12082:X O *D sky130_fd_sc_hd__dlygate4sd3_1
*CAP
1 *12085:A 0
2 *12082:X 0.000404817
3 *425:10 0.000404817
4 *425:10 *12082:A 0.000146822
5 *425:10 *463:8 0
6 wbs_dat_o[17] *425:10 0
7 *1062:DIODE *425:10 0
8 *155:66 *425:10 0
*RES
1 *12082:X *425:10 45.3536
2 *425:10 *12085:A 38
*END

*D_NET *426 0.175565
*CONN
*I *12144:DI[17] I *D CF_SRAM_1024x32
*I *12154:DI[17] I *D CF_SRAM_1024x32
*I *12124:DI[17] I *D CF_SRAM_1024x32
*I *12134:DI[17] I *D CF_SRAM_1024x32
*I *12083:X O *D sky130_fd_sc_hd__buf_12
*CAP
1 *12144:DI[17] 6.51557e-05
2 *12154:DI[17] 0.000178286
3 *12124:DI[17] 0.000125202
4 *12134:DI[17] 3.8389e-05
5 *12083:X 0
6 *426:85 9.26342e-07
7 *426:74 0.0205002
8 *426:72 0.0204642
9 *426:56 0.000452298
10 *426:52 0.01008
11 *426:50 0.0100911
12 *426:32 0.020974
13 *426:30 0.0209121
14 *426:16 0.000366071
15 *426:10 0.00333435
16 *426:8 0.00306989
17 *426:6 0.00411822
18 *426:4 0.00386132
19 *12124:DI[17] *639:22 2.11157e-05
20 *426:6 *443:8 0.000467723
21 *426:6 *443:10 0.00107692
22 *426:6 *449:6 0.00125818
23 *426:10 *432:14 0.0131133
24 *426:16 *12134:BEN[17] 0
25 *426:32 *504:82 3.59467e-05
26 *426:50 *443:10 8.89523e-05
27 *426:52 *432:50 0
28 *426:52 *449:64 0
29 *426:72 *480:58 2.33476e-05
30 *426:72 *639:174 2.33476e-05
31 *426:74 *639:138 0
32 *426:74 *639:156 0
33 *426:74 *639:158 0
34 *1012:DIODE *426:6 9.84794e-05
35 *12124:CLKin *12124:DI[17] 0
36 *12134:WLBI *426:16 0
37 *12134:CLKin *426:16 1.69268e-05
38 *12144:CLKin *12144:DI[17] 0
39 *12154:WLBI *426:56 7.87782e-05
40 *133:16 *12124:DI[17] 2.31209e-05
41 *175:10 *426:52 9.74235e-05
42 *178:45 *426:32 0.00549752
43 *179:24 *426:74 0.00306508
44 *179:44 *426:74 0.000386663
45 *194:18 *12124:DI[17] 1.33439e-05
46 *195:17 *426:32 0
47 *226:16 *426:16 0
48 *226:16 *426:30 0
49 *228:9 *426:30 2.11066e-05
50 *231:13 *426:30 2.11066e-05
51 *237:11 *426:10 0.00022529
52 *258:9 *12144:DI[17] 8.82386e-05
53 *258:9 *426:85 1.3523e-05
54 *286:11 *426:52 0
55 *287:26 *426:6 0.00116831
56 *290:17 *12154:DI[17] 1.32547e-05
57 *297:11 *426:52 0
58 *357:10 *426:52 0.015894
59 *365:14 *426:32 5.05107e-05
60 *369:72 *426:32 0.000157269
61 *382:88 *426:10 0.0138941
*RES
1 *12083:X *426:4 23
2 *426:4 *426:6 76.85
3 *426:6 *426:8 15
4 *426:8 *426:10 180.794
5 *426:10 *426:16 19.6814
6 *426:16 *12134:DI[17] 0.766429
7 *426:16 *426:30 24.4189
8 *426:30 *426:32 65.3147
9 *426:32 *12124:DI[17] 25.3096
10 *426:6 *426:50 18.48
11 *426:50 *426:52 272.704
12 *426:52 *426:56 19.9093
13 *426:56 *12154:DI[17] 2.87929
14 *426:56 *426:72 23.8182
15 *426:72 *426:74 65.5723
16 *426:74 *12144:DI[17] 24.4189
17 *12144:DI[17] *426:85 0.169167
*END

*D_NET *427 0.001371
*CONN
*I *12082:A I *D sky130_fd_sc_hd__dlygate4sd3_1
*I *12084:X O *D sky130_fd_sc_hd__dlygate4sd3_1
*CAP
1 *12082:A 0.000412767
2 *12084:X 9.43614e-05
3 *427:8 0.000507129
4 *12082:A *606:28 1.24376e-05
5 wbs_dat_o[17] *427:8 0.000197479
6 *12084:A *427:8 0
7 *425:10 *12082:A 0.000146822
*RES
1 *12084:X *427:8 40.61
2 *427:8 *12082:A 45.3121
*END

*D_NET *428 0.000309927
*CONN
*I *12179:A I *D sky130_fd_sc_hd__buf_12
*I *12085:X O *D sky130_fd_sc_hd__dlygate4sd3_1
*CAP
1 *12179:A 0
2 *12085:X 0.000126203
3 *428:8 0.000126203
4 *1062:DIODE *428:8 2.46071e-05
5 *155:66 *428:8 3.29127e-05
*RES
1 *12085:X *428:8 39.9057
2 *428:8 *12179:A 38
*END

*D_NET *429 0.0700502
*CONN
*I *11983:A I *D sky130_fd_sc_hd__buf_12
*I *12175:X O *D sky130_fd_sc_hd__buf_12
*CAP
1 *11983:A 0.000550283
2 *12175:X 0.000333217
3 *429:18 0.00602603
4 *429:16 0.00547575
5 *429:14 0.00111073
6 *429:12 0.00111073
7 *429:10 0.000333217
8 *11983:A *11987:A 0
9 *429:10 *592:12 0.000228909
10 *429:10 *600:12 0.000397725
11 *429:14 *597:14 0.00108007
12 *429:14 *630:49 0.00169695
13 *429:14 *630:64 0.00061587
14 *429:14 *634:42 0.000400193
15 *429:18 *540:18 0.000106491
16 *202:11 *11983:A 0.000562237
17 *310:25 *11983:A 6.71297e-05
18 *341:10 *429:18 0.0245541
19 *352:16 *429:18 0.0254006
*RES
1 *12175:X *429:10 45.9543
2 *429:10 *429:12 15
3 *429:12 *429:14 36.83
4 *429:14 *429:16 15
5 *429:16 *429:18 332.568
6 *429:18 *11983:A 48.15
*END

*D_NET *430 0.0766039
*CONN
*I *12058:A I *D sky130_fd_sc_hd__buf_12
*I *12176:X O *D sky130_fd_sc_hd__buf_12
*CAP
1 *12058:A 0
2 *12176:X 7.01705e-05
3 *430:28 0.000458301
4 *430:16 0.00756795
5 *430:14 0.01641
6 *430:10 0.00937052
7 *430:14 *452:12 0.000291037
8 *430:14 *579:14 8.15458e-05
9 *430:14 *581:14 0.00165748
10 *430:16 *441:20 0.0172968
11 *430:16 *452:24 0.018689
12 *430:16 *554:57 0.000356488
13 *430:16 *564:59 0.000131293
14 *430:16 *625:26 0.00010439
15 *430:28 *547:28 9.93968e-05
16 *430:28 *578:10 2.11066e-05
17 wbs_dat_o[14] *430:10 4.71078e-05
18 *11971:A *430:10 0
19 *112:10 *430:16 0.000642962
20 *145:10 *430:16 0.000435681
21 *148:10 *430:16 0.000282337
22 *181:51 *430:16 0.000232926
23 *185:10 *430:28 2.11066e-05
24 *220:21 *430:16 0.000104065
25 *223:17 *430:16 0.000397229
26 *396:12 *430:14 0.000110155
27 *407:12 *430:14 0.0017248
*RES
1 *12176:X *430:10 47.3775
2 *430:10 *430:14 28.2776
3 *430:14 *430:16 47.0213
4 *430:16 *430:28 34.767
5 *430:28 *12058:A 23
*END

*D_NET *431 0.000940846
*CONN
*I *12089:A I *D sky130_fd_sc_hd__dlygate4sd3_1
*I *12086:X O *D sky130_fd_sc_hd__dlygate4sd3_1
*CAP
1 *12089:A 0
2 *12086:X 6.18737e-05
3 *431:6 6.18737e-05
4 *431:6 *12228:A 0.000408549
5 *80:8 *431:6 0.000408549
*RES
1 *12086:X *431:6 27.4329
2 *431:6 *12089:A 23
*END

*D_NET *432 0.170607
*CONN
*I *12144:DI[18] I *D CF_SRAM_1024x32
*I *12154:DI[18] I *D CF_SRAM_1024x32
*I *12124:DI[18] I *D CF_SRAM_1024x32
*I *12134:DI[18] I *D CF_SRAM_1024x32
*I *12087:X O *D sky130_fd_sc_hd__buf_12
*CAP
1 *12144:DI[18] 0.00014154
2 *12154:DI[18] 0.000119734
3 *12124:DI[18] 0.000117909
4 *12134:DI[18] 0.00011446
5 *12087:X 0.00110581
6 *432:74 0.0168149
7 *432:72 0.0167129
8 *432:58 0.000303119
9 *432:54 0.00635015
10 *432:52 0.00623385
11 *432:50 0.00524315
12 *432:45 3.68846e-06
13 *432:34 0.0243228
14 *432:32 0.0242236
15 *432:18 0.00034475
16 *432:14 0.00470334
17 *432:12 0.00970378
18 *432:10 0.00264692
19 *432:8 0.00375273
20 *12124:DI[18] *639:34 4.82774e-05
21 *12144:DI[18] *12144:BEN[18] 0
22 *432:50 *12154:BEN[8] 0.000200705
23 *432:50 *480:58 0
24 *432:50 *557:353 0.000176928
25 *432:54 *12154:AD[0] 4.36401e-06
26 *432:54 *12154:AD[1] 2.13226e-05
27 *432:54 *12154:AD[2] 2.61527e-06
28 *432:54 *12154:EN 1.19354e-05
29 *432:54 *12154:AD[3] 3.87221e-06
30 *432:54 *12154:AD[4] 4.36401e-06
31 *432:54 *12154:AD[5] 4.35681e-06
32 *432:54 *12154:AD[6] 4.36401e-06
33 *432:54 *12154:AD[7] 4.36401e-06
34 *432:54 *12154:AD[8] 4.36401e-06
35 *432:54 *12154:AD[9] 4.35681e-06
36 *432:54 *12154:BEN[0] 0.000381136
37 *432:54 *12154:DI[0] 4.36401e-06
38 *432:54 *480:58 0
39 *432:54 *560:266 4.84329e-05
40 *432:54 *560:278 0.000435436
41 *432:54 *560:290 0.000381136
42 *432:54 *560:302 0.000435436
43 *432:54 *560:314 0.000473854
44 *432:54 *560:334 0.000536515
45 *432:54 *560:346 0.000381136
46 *432:54 *639:162 4.84329e-05
47 *432:54 *639:174 0.000371461
48 *432:54 *639:194 0.000256741
49 *432:72 *480:64 4.70095e-05
50 *432:72 *484:55 0.000102396
51 *432:74 *12144:BEN[18] 4.07923e-06
52 *903:DIODE *432:8 7.88926e-05
53 *11917:A1 *432:8 0
54 *11917:A1 *432:10 0.000182826
55 *12154:R_WB *432:54 4.36401e-06
56 *12154:DI[8] *432:54 4.36401e-06
57 *12154:DI[16] *432:54 1.19354e-05
58 *133:16 *12124:DI[18] 5.09165e-05
59 *167:16 *432:14 0
60 *175:6 *432:10 0.00476426
61 *195:17 *12124:DI[18] 0
62 *227:15 *12134:DI[18] 0
63 *228:9 *432:32 2.11066e-05
64 *231:13 *432:32 2.11066e-05
65 *237:11 *432:14 0.00371156
66 *259:9 *12144:DI[18] 0
67 *282:21 *432:54 1.19317e-05
68 *289:17 *432:54 3.87221e-06
69 *290:17 *432:54 1.33927e-05
70 *291:13 *12154:DI[18] 0.000139692
71 *291:13 *432:58 4.21048e-05
72 *291:15 *432:74 0.0167871
73 *292:15 *432:74 0.000203391
74 *312:17 *432:54 4.35681e-06
75 *357:10 *432:50 0
76 *357:10 *432:54 0
77 *382:88 *432:14 9.57482e-05
78 *382:88 *432:50 0.00394818
79 *400:18 *432:34 2.94498e-05
80 *426:10 *432:14 0.0131133
81 *426:52 *432:50 0
*RES
1 *12087:X *432:8 42.4611
2 *432:8 *432:10 58.5075
3 *432:10 *432:12 15
4 *432:12 *432:14 173.399
5 *432:14 *432:18 18.0036
6 *432:18 *12134:DI[18] 1.84357
7 *432:18 *432:32 23.3211
8 *432:32 *432:34 65.3147
9 *432:34 *12124:DI[18] 25.2475
10 *12124:DI[18] *432:45 0.203
11 *432:12 *432:50 127.838
12 *432:50 *432:52 0.621429
13 *432:52 *432:54 153.462
14 *432:54 *432:58 17.0507
15 *432:58 *12154:DI[18] 2.42357
16 *432:58 *432:72 24.3775
17 *432:72 *432:74 65.4864
18 *432:74 *12144:DI[18] 25.5996
*END

*D_NET *433 0.00141436
*CONN
*I *12086:A I *D sky130_fd_sc_hd__dlygate4sd3_1
*I *12088:X O *D sky130_fd_sc_hd__dlygate4sd3_1
*CAP
1 *12086:A 0
2 *12088:X 0.00051853
3 *433:10 0.00051853
4 *433:10 *606:28 0.000322288
5 wbs_dat_o[19] *433:10 0
6 *1086:DIODE *433:10 0
7 *49:11 *433:10 5.50106e-05
*RES
1 *12088:X *433:10 48.2536
2 *433:10 *12086:A 38
*END

*D_NET *434 0.000333538
*CONN
*I *12180:A I *D sky130_fd_sc_hd__buf_12
*I *12089:X O *D sky130_fd_sc_hd__dlygate4sd3_1
*CAP
1 *12180:A 0
2 *12089:X 9.34763e-05
3 *434:8 9.34763e-05
4 *1074:DIODE *434:8 1.05441e-05
5 *157:65 *434:8 0.000136041
*RES
1 *12089:X *434:8 39.9057
2 *434:8 *12180:A 38
*END

*D_NET *435 0.00327309
*CONN
*I *12071:A I *D sky130_fd_sc_hd__dlygate4sd3_1
*I *12090:X O *D sky130_fd_sc_hd__dlygate4sd3_1
*CAP
1 *12071:A 0
2 *12090:X 0.000757026
3 *435:10 0.000757026
4 *435:10 *11847:B1 0
5 *435:10 *622:10 0.000465924
6 *435:10 *628:120 5.3304e-05
7 *435:10 *631:18 0.000305431
8 *435:10 *631:20 0.000483113
9 *435:10 *631:22 0.000171931
10 *435:10 *631:30 0.000106199
11 *28:13 *435:10 0.000140259
12 *61:15 *435:10 3.28795e-05
*RES
1 *12090:X *435:10 41.415
2 *435:10 *12071:A 23
*END

*D_NET *436 0.00230989
*CONN
*I *12194:A I *D sky130_fd_sc_hd__buf_12
*I *12092:X O *D sky130_fd_sc_hd__dlygate4sd3_1
*CAP
1 *12194:A 0
2 *12092:X 6.07859e-05
3 *436:12 0.000665202
4 *436:8 0.000725988
5 *436:12 *593:10 0.000192536
6 *436:12 *617:24 8.92251e-05
7 *436:12 *631:139 0.000157384
8 *681:DIODE *436:12 2.15628e-05
9 *12092:A *436:8 6.17437e-06
10 *109:12 *436:12 0
11 *217:27 *436:12 0.000105177
12 *414:10 *436:12 0.000285852
*RES
1 *12092:X *436:8 38.6214
2 *436:8 *436:12 28.1743
3 *436:12 *12194:A 23
*END

*D_NET *437 0.000633246
*CONN
*I *12103:A I *D sky130_fd_sc_hd__dlygate4sd3_1
*I *12093:X O *D sky130_fd_sc_hd__dlygate4sd3_1
*CAP
1 *12103:A 0
2 *12093:X 0.00030221
3 *437:10 0.00030221
4 *437:10 *446:10 2.88265e-05
*RES
1 *12093:X *437:10 41.9564
2 *437:10 *12103:A 38
*END

*D_NET *438 0.180846
*CONN
*I *12154:DI[0] I *D CF_SRAM_1024x32
*I *12144:DI[0] I *D CF_SRAM_1024x32
*I *12124:DI[0] I *D CF_SRAM_1024x32
*I *12134:DI[0] I *D CF_SRAM_1024x32
*I *12094:X O *D sky130_fd_sc_hd__buf_12
*CAP
1 *12154:DI[0] 0.000135798
2 *12144:DI[0] 0.000979721
3 *12124:DI[0] 0.0017337
4 *12134:DI[0] 0.000110518
5 *12094:X 0.000219248
6 *438:109 7.90385e-06
7 *438:98 0.018304
8 *438:96 0.0182423
9 *438:82 0.0157749
10 *438:80 0.0149811
11 *438:74 0.00212557
12 *438:72 0.00195859
13 *438:44 0.0213316
14 *438:42 0.0212357
15 *438:38 0.00348277
16 *438:22 0.00275534
17 *438:20 0.0010209
18 *438:18 0.00113317
19 *438:8 0.00113317
20 *438:6 0.000304442
21 *12154:DI[0] *480:58 2.11157e-05
22 *438:18 *443:40 2.93791e-05
23 *438:18 *449:24 0
24 *438:18 *502:10 0.0028249
25 *438:22 *524:20 0.000270987
26 *438:38 *520:18 0.000143485
27 *438:38 *524:20 0.000115083
28 *438:38 *524:36 2.55744e-05
29 *438:38 *577:16 4.78311e-05
30 *438:44 *502:38 0
31 *438:74 *502:10 0.000164291
32 *438:74 *502:58 0.00025369
33 *438:74 *509:68 0.000491634
34 *438:74 *635:29 0.000585313
35 *438:74 *636:20 0.00047846
36 *438:74 *636:32 0.000108681
37 *438:74 *636:43 0.00146569
38 *438:74 *636:130 0.000191148
39 *438:80 *506:60 0.000168472
40 *438:82 *506:62 0
41 *438:82 *511:52 0.00299893
42 *438:96 *506:62 0
43 *438:98 *12144:AD[3] 2.56801e-05
44 *438:98 *502:80 0.00531228
45 *905:DIODE *438:74 2.3529e-05
46 *11845:A0 *438:74 0.000102597
47 *12124:ScanInDL *12124:DI[0] 8.37372e-06
48 *12124:ScanInCC *12124:DI[0] 0
49 *12144:ScanInDL *12144:DI[0] 0.00112835
50 *12144:DI[1] *438:82 6.84987e-06
51 *12154:ScanInDL *12154:DI[0] 5.73557e-05
52 *181:47 *438:38 4.81059e-05
53 *186:19 *12124:DI[0] 4.85338e-05
54 *218:17 *12134:DI[0] 3.02187e-05
55 *218:17 *438:44 0.000188149
56 *225:42 *12134:DI[0] 1.8464e-05
57 *228:13 *12134:DI[0] 1.8464e-05
58 *250:9 *12144:DI[0] 0
59 *250:11 *438:82 0
60 *275:21 *438:74 0.000143368
61 *278:29 *438:74 0.000185212
62 *282:21 *12154:DI[0] 3.65335e-05
63 *282:21 *438:98 0.00192259
64 *283:27 *438:74 0.00181299
65 *307:55 *438:74 0.00073478
66 *308:55 *438:80 4.67488e-05
67 *309:72 *438:74 8.29264e-05
68 *313:73 *438:74 0.000186206
69 *382:46 *438:38 0.000539513
70 *395:50 *438:18 0.00192813
71 *395:58 *438:74 1.06693e-05
72 *409:14 *438:82 0.0185947
73 *409:28 *438:82 0.000166364
74 *409:50 *438:38 0.000256824
75 *409:50 *438:42 2.24608e-05
76 *415:10 *438:18 1.50266e-05
77 *415:10 *438:22 0.00367749
78 *415:18 *438:38 0.000262856
79 *415:18 *438:42 2.05503e-05
80 *415:56 *438:74 0.000341215
81 *415:60 *438:82 0.000293769
82 *415:78 *438:82 0
83 *417:70 *438:74 0.000446003
84 *424:28 *438:18 0.00107033
85 *424:30 *438:22 0.00367215
86 *432:54 *12154:DI[0] 4.36401e-06
*RES
1 *12094:X *438:6 25.5271
2 *438:6 *438:8 15
3 *438:8 *438:18 46.2418
4 *438:18 *438:20 8
5 *438:20 *438:22 48.7407
6 *438:22 *438:38 39.933
7 *438:38 *438:42 8.32107
8 *438:42 *438:44 62.0517
9 *438:44 *12134:DI[0] 24.7814
10 *438:38 *12124:DI[0] 35.6832
11 *438:6 *438:72 16.0979
12 *438:72 *438:74 61.4179
13 *438:74 *438:80 33.9564
14 *438:80 *438:82 279.394
15 *438:82 *12144:DI[0] 34.1089
16 *438:82 *438:96 9.02536
17 *438:96 *438:98 62.4811
18 *438:98 *12154:DI[0] 25.3718
19 *12154:DI[0] *438:109 0.155357
*END

*D_NET *439 0.0023485
*CONN
*I *12079:A I *D sky130_fd_sc_hd__dlygate4sd3_1
*I *12095:X O *D sky130_fd_sc_hd__dlygate4sd3_1
*CAP
1 *12079:A 0.000278761
2 *12095:X 0.000542445
3 *439:8 0.000821207
4 *12079:A *588:16 0
5 *12079:A *602:8 0
6 *12079:A *631:44 1.12863e-05
7 *439:8 *588:6 0.000694797
*RES
1 *12095:X *439:8 45.7679
2 *439:8 *12079:A 42.7229
*END

*D_NET *440 0.000129328
*CONN
*I *12182:A I *D sky130_fd_sc_hd__buf_12
*I *12096:X O *D sky130_fd_sc_hd__dlygate4sd3_1
*CAP
1 *12182:A 3.80122e-05
2 *12096:X 3.80122e-05
3 *12096:A *12182:A 5.3304e-05
*RES
1 *12096:X *12182:A 46.6214
*END

*D_NET *441 0.078996
*CONN
*I *12036:A I *D sky130_fd_sc_hd__buf_12
*I *12177:X O *D sky130_fd_sc_hd__buf_12
*CAP
1 *12036:A 0.00025856
2 *12177:X 0
3 *441:20 0.00926789
4 *441:14 0.0151919
5 *441:10 0.00768366
6 *441:6 0.00150107
7 *12036:A *578:10 2.11066e-05
8 *441:10 *12225:A 0
9 *441:10 *608:8 0.000164545
10 *441:14 *627:35 0.00201978
11 *441:20 *554:77 0.000259217
12 *441:20 *564:10 0.000131084
13 *441:20 *564:73 0.000219641
14 *441:20 *578:10 0.000542919
15 *785:DIODE *441:10 0
16 *112:14 *441:20 0.000120999
17 *149:10 *441:20 0.000265953
18 *151:26 *441:14 0.000569538
19 *151:44 *441:10 0
20 *151:52 *441:10 0
21 *151:54 *441:10 0
22 *154:16 *441:10 0.000712215
23 *180:25 *441:20 0.000271242
24 *180:36 *441:20 0.000362552
25 *180:52 *441:20 0.000291481
26 *181:51 *441:20 0.000840153
27 *182:19 *441:14 0.000884819
28 *185:10 *12036:A 2.11066e-05
29 *198:15 *441:14 0.000693954
30 *199:25 *441:14 0
31 *202:19 *441:14 0.00158547
32 *202:39 *441:10 4.08209e-05
33 *204:27 *441:14 0.00962158
34 *205:31 *441:14 0.0024237
35 *209:17 *441:14 0.00102153
36 *221:22 *441:20 0.000131084
37 *227:21 *441:14 0
38 *228:43 *441:10 0.000110184
39 *243:27 *441:20 0.00443851
40 *366:10 *441:10 0
41 *367:10 *441:10 0
42 *417:102 *441:20 3.09672e-05
43 *430:16 *441:20 0.0172968
*RES
1 *12177:X *441:6 38
2 *441:6 *441:10 33.6754
3 *441:10 *441:14 31.6264
4 *441:14 *441:20 49.3261
5 *441:20 *12036:A 49.3246
*END

*D_NET *442 0.00096949
*CONN
*I *12100:A I *D sky130_fd_sc_hd__dlygate4sd3_1
*I *12097:X O *D sky130_fd_sc_hd__dlygate4sd3_1
*CAP
1 *12100:A 0
2 *12097:X 0.000456134
3 *442:10 0.000456134
4 *442:10 *603:22 0
5 wbs_dat_o[19] *442:10 0
6 *49:11 *442:10 5.72217e-05
7 *159:61 *442:10 0
*RES
1 *12097:X *442:10 44.7736
2 *442:10 *12100:A 38
*END

*D_NET *443 0.176685
*CONN
*I *12144:DI[19] I *D CF_SRAM_1024x32
*I *12154:DI[19] I *D CF_SRAM_1024x32
*I *12124:DI[19] I *D CF_SRAM_1024x32
*I *12134:DI[19] I *D CF_SRAM_1024x32
*I *12098:X O *D sky130_fd_sc_hd__buf_12
*CAP
1 *12144:DI[19] 0.000136101
2 *12154:DI[19] 0.000129981
3 *12124:DI[19] 0.000111575
4 *12134:DI[19] 3.64321e-05
5 *12098:X 0.000408445
6 *443:76 0.0225337
7 *443:74 0.0224273
8 *443:60 0.000713245
9 *443:56 0.00765966
10 *443:51 3.4245e-06
11 *443:40 0.0227549
12 *443:38 0.0227135
13 *443:24 0.000878407
14 *443:18 0.0027027
15 *443:16 0.00344929
16 *443:12 0.008628
17 *443:10 0.00322129
18 *443:8 0.00362973
19 *12124:DI[19] *639:46 4.82774e-05
20 *12144:DI[19] *12144:BEN[19] 0
21 *443:10 *449:6 0.00224742
22 *443:16 *449:64 0.000327903
23 *443:16 *462:56 0.00152209
24 *443:18 *462:12 0.00339522
25 *443:18 *462:54 0.000173765
26 *443:18 *462:56 0
27 *443:18 *529:28 0.00380831
28 *443:24 *12134:BEN[19] 0
29 *443:38 *547:88 4.35681e-06
30 *443:40 *580:28 0.000253669
31 *443:40 *581:26 0.000411501
32 *443:56 *449:64 0.0224765
33 *443:56 *462:56 0.00698644
34 *443:56 *462:60 0.00282508
35 *443:74 *484:55 0.000103868
36 *443:74 *639:206 0.000102785
37 *443:76 *12144:BEN[19] 5.95675e-06
38 *1012:DIODE *443:10 5.70419e-05
39 *133:16 *12124:DI[19] 5.09165e-05
40 *173:16 *443:16 0
41 *175:10 *443:16 0
42 *196:9 *12124:DI[19] 0
43 *196:9 *443:51 0
44 *228:7 *443:24 0
45 *228:7 *443:38 0
46 *230:15 *443:40 0
47 *231:13 *443:38 2.11066e-05
48 *236:11 *443:18 0.00588362
49 *239:11 *443:18 0.00091014
50 *241:11 *443:16 0
51 *241:11 *443:18 0.000938545
52 *260:7 *12144:DI[19] 9.83101e-06
53 *260:7 *443:76 0.000125621
54 *292:15 *12154:DI[19] 9.79314e-05
55 *294:15 *443:76 0
56 *347:8 *443:56 9.63918e-05
57 *426:6 *443:8 0.000467723
58 *426:6 *443:10 0.00107692
59 *426:50 *443:10 8.89523e-05
60 *438:18 *443:40 2.93791e-05
*RES
1 *12098:X *443:8 32.9325
2 *443:8 *443:10 66.1304
3 *443:10 *443:12 15
4 *443:12 *443:16 41.1904
5 *443:16 *443:18 117.253
6 *443:18 *443:24 26.8279
7 *443:24 *12134:DI[19] 0.725
8 *443:24 *443:38 24.4189
9 *443:38 *443:40 65.3147
10 *443:40 *12124:DI[19] 25.2475
11 *12124:DI[19] *443:51 0.169167
12 *443:12 *443:56 296.297
13 *443:56 *443:60 25.15
14 *443:60 *12154:DI[19] 2.44429
15 *443:60 *443:74 24.3775
16 *443:74 *443:76 65.4864
17 *443:76 *12144:DI[19] 25.5789
*END

*D_NET *444 0.000390459
*CONN
*I *12097:A I *D sky130_fd_sc_hd__dlygate4sd3_1
*I *12099:X O *D sky130_fd_sc_hd__dlygate4sd3_1
*CAP
1 *12097:A 7.86566e-05
2 *12099:X 7.86566e-05
3 *49:11 *12097:A 0.000233146
*RES
1 *12099:X *12097:A 48.5271
*END

*D_NET *445 0.00129404
*CONN
*I *12181:A I *D sky130_fd_sc_hd__buf_12
*I *12100:X O *D sky130_fd_sc_hd__dlygate4sd3_1
*CAP
1 *12181:A 3.79925e-05
2 *12100:X 0.00030258
3 *445:8 0.000340572
4 *159:59 *445:8 0.000149499
5 *159:61 *445:8 6.07611e-06
6 *164:26 *12181:A 0.000139352
7 *168:26 *445:8 0.000178622
8 *205:60 *12181:A 0.000139352
*RES
1 *12100:X *445:8 42.7229
2 *445:8 *12181:A 39.5743
*END

*D_NET *446 0.000786656
*CONN
*I *12093:A I *D sky130_fd_sc_hd__dlygate4sd3_1
*I *12101:X O *D sky130_fd_sc_hd__dlygate4sd3_1
*CAP
1 *12093:A 0
2 *12101:X 0.00036918
3 *446:10 0.00036918
4 *446:10 *447:8 0
5 wbs_dat_o[0] *446:10 0
6 *12101:A *446:10 1.94693e-05
7 *437:10 *446:10 2.88265e-05
*RES
1 *12101:X *446:10 43.8207
2 *446:10 *12093:A 38
*END

*D_NET *447 0.000563266
*CONN
*I *12170:A I *D sky130_fd_sc_hd__buf_12
*I *12103:X O *D sky130_fd_sc_hd__dlygate4sd3_1
*CAP
1 *12170:A 0.000103071
2 *12103:X 9.44564e-05
3 *447:8 0.000197528
4 wbs_dat_o[0] *447:8 0.000168211
5 *446:10 *447:8 0
*RES
1 *12103:X *447:8 40.2579
2 *447:8 *12170:A 39.5743
*END

*D_NET *448 0.000540813
*CONN
*I *12107:A I *D sky130_fd_sc_hd__dlygate4sd3_1
*I *12104:X O *D sky130_fd_sc_hd__dlygate4sd3_1
*CAP
1 *12107:A 0
2 *12104:X 0.000164917
3 *448:10 0.000164917
4 *448:10 *12104:A 1.40958e-05
5 *448:10 *450:8 0
6 *1099:DIODE *448:10 0.000196884
*RES
1 *12104:X *448:10 41.0036
2 *448:10 *12107:A 38
*END

*D_NET *449 0.174013
*CONN
*I *12144:DI[20] I *D CF_SRAM_1024x32
*I *12154:DI[20] I *D CF_SRAM_1024x32
*I *12134:DI[20] I *D CF_SRAM_1024x32
*I *12124:DI[20] I *D CF_SRAM_1024x32
*I *12105:X O *D sky130_fd_sc_hd__buf_12
*CAP
1 *12144:DI[20] 0.000135123
2 *12154:DI[20] 0.000130292
3 *12134:DI[20] 0.00138639
4 *12124:DI[20] 0.000110306
5 *12105:X 0.000391108
6 *449:84 0.0219885
7 *449:82 0.0218831
8 *449:68 0.000674112
9 *449:64 0.00608274
10 *449:62 0.00556863
11 *449:60 0.00169984
12 *449:35 6.849e-06
13 *449:24 0.0216798
14 *449:22 0.0229627
15 *449:20 0.00669735
16 *449:10 0.00863679
17 *449:6 0.000630714
18 *12124:DI[20] *639:58 2.11066e-05
19 *12134:DI[20] *547:100 5.23117e-06
20 *12144:DI[20] *12144:BEN[20] 0
21 *449:64 *462:60 0
22 *449:82 *484:55 0.000103868
23 *449:82 *639:218 0.000102785
24 *449:84 *12144:BEN[20] 9.0331e-06
25 *133:16 *12124:DI[20] 2.31116e-05
26 *169:12 *449:60 0
27 *173:12 *449:60 0
28 *175:10 *449:64 0
29 *198:9 *12124:DI[20] 0
30 *198:9 *449:35 0
31 *230:15 *12134:DI[20] 2.14654e-05
32 *231:13 *12134:DI[20] 2.5747e-05
33 *232:13 *12134:DI[20] 0
34 *232:17 *449:20 0.000572194
35 *235:17 *449:20 0.00188513
36 *262:7 *12144:DI[20] 9.83101e-06
37 *262:7 *449:84 0.000125621
38 *284:24 *449:20 0.000131765
39 *284:26 *449:20 2.26654e-05
40 *287:26 *449:6 0.000425087
41 *287:26 *449:20 0
42 *294:15 *12154:DI[20] 0.000103274
43 *294:15 *449:84 0
44 *297:11 *449:64 0.0234505
45 *303:23 *449:84 0
46 *426:6 *449:6 0.00125818
47 *426:52 *449:64 0
48 *438:18 *449:24 0
49 *443:10 *449:6 0.00224742
50 *443:16 *449:64 0.000327903
51 *443:56 *449:64 0.0224765
*RES
1 *12105:X *449:6 47.4429
2 *449:6 *449:10 19.3707
3 *449:10 *449:20 42.4563
4 *449:20 *449:22 8
5 *449:22 *449:24 61.3219
6 *449:24 *12124:DI[20] 24.8954
7 *12124:DI[20] *449:35 0.145
8 *449:22 *12134:DI[20] 28.4677
9 *449:10 *449:60 48.6607
10 *449:60 *449:62 15
11 *449:62 *449:64 311.791
12 *449:64 *449:68 24.6736
13 *449:68 *12154:DI[20] 2.465
14 *449:68 *449:82 24.3775
15 *449:82 *449:84 65.4864
16 *449:84 *12144:DI[20] 25.5582
*END

*D_NET *450 0.00106524
*CONN
*I *12104:A I *D sky130_fd_sc_hd__dlygate4sd3_1
*I *12106:X O *D sky130_fd_sc_hd__dlygate4sd3_1
*CAP
1 *12104:A 0.000161191
2 *12106:X 0.000123333
3 *450:8 0.000284523
4 *12104:A *12183:A 0.00010018
5 *12104:A *606:28 0.000300125
6 *1099:DIODE *12104:A 8.1796e-05
7 *1099:DIODE *450:8 0
8 *83:10 *450:8 0
9 *448:10 *12104:A 1.40958e-05
10 *448:10 *450:8 0
*RES
1 *12106:X *450:8 40.2579
2 *450:8 *12104:A 43.8621
*END

*D_NET *451 0.000685776
*CONN
*I *12183:A I *D sky130_fd_sc_hd__buf_12
*I *12107:X O *D sky130_fd_sc_hd__dlygate4sd3_1
*CAP
1 *12183:A 0.000131597
2 *12107:X 0.000114162
3 *451:8 0.000245759
4 *12183:A *606:28 9.40782e-05
5 *12104:A *12183:A 0.00010018
6 *83:10 *451:8 0
*RES
1 *12107:X *451:8 39.9057
2 *451:8 *12183:A 41.6457
*END

*D_NET *452 0.0993047
*CONN
*I *12074:A I *D sky130_fd_sc_hd__buf_12
*I *12178:X O *D sky130_fd_sc_hd__buf_12
*CAP
1 *12074:A 0
2 *12178:X 0.000124888
3 *452:34 0.000153614
4 *452:24 0.0161694
5 *452:22 0.0160158
6 *452:20 0.00296479
7 *452:12 0.00580971
8 *452:10 0.00284492
9 *452:8 0.000124888
10 *452:12 *591:18 0.00261972
11 *452:12 *604:14 0.00397152
12 *452:20 *580:12 5.85423e-05
13 *452:20 *580:16 0.000212932
14 *452:20 *597:14 0.000130199
15 *452:20 *623:20 0
16 *452:24 *554:14 0.000115675
17 *452:24 *564:38 0.000173453
18 *452:24 *574:16 0.00043359
19 *452:24 *578:26 0.000141169
20 *452:24 *625:43 0.000242562
21 *452:34 *550:28 4.51815e-05
22 wbs_dat_o[16] *452:8 0
23 wbs_dat_o[8] *452:20 4.24315e-05
24 *37:17 *452:20 0
25 *46:11 *452:8 4.90891e-05
26 *111:10 *452:24 0.000102381
27 *111:14 *452:24 0.000270035
28 *112:10 *452:24 0.000363843
29 *115:10 *452:24 0.00121863
30 *115:10 *452:34 0.000337345
31 *117:14 *452:24 0.000623733
32 *121:18 *452:24 0.00148419
33 *145:10 *452:24 0.000236054
34 *147:10 *452:24 0.000577173
35 *181:51 *452:24 0.00265062
36 *183:12 *452:24 0.000148623
37 *195:23 *452:20 0.00276622
38 *229:25 *452:24 0.000113929
39 *290:27 *452:34 0.000339951
40 *330:16 *452:24 0.000601295
41 *362:76 *452:24 0.003984
42 *365:20 *452:24 0.00143197
43 *396:12 *452:12 0.000728743
44 *407:16 *452:24 0.00174443
45 *416:10 *452:8 0
46 *418:12 *452:12 0.00634877
47 *418:16 *452:24 0.00180865
48 *430:14 *452:12 0.000291037
49 *430:16 *452:24 0.018689
*RES
1 *12178:X *452:8 40.2579
2 *452:8 *452:10 15
3 *452:10 *452:12 109.724
4 *452:12 *452:20 44.3239
5 *452:20 *452:22 8
6 *452:22 *452:24 60.8571
7 *452:24 *452:34 35.6457
8 *452:34 *12074:A 23
*END

*D_NET *453 0.000604762
*CONN
*I *12111:A I *D sky130_fd_sc_hd__dlygate4sd3_1
*I *12108:X O *D sky130_fd_sc_hd__dlygate4sd3_1
*CAP
1 *12111:A 0
2 *12108:X 0.000276007
3 *453:8 0.000276007
4 *453:8 *455:10 0
5 *453:8 *456:10 5.27481e-05
6 *453:8 *507:8 0
7 *453:8 *518:12 0
*RES
1 *12108:X *453:8 42.7229
2 *453:8 *12111:A 38
*END

*D_NET *454 0.18052
*CONN
*I *12144:DI[21] I *D CF_SRAM_1024x32
*I *12154:DI[21] I *D CF_SRAM_1024x32
*I *12134:DI[21] I *D CF_SRAM_1024x32
*I *12124:DI[21] I *D CF_SRAM_1024x32
*I *12109:X O *D sky130_fd_sc_hd__buf_12
*CAP
1 *12144:DI[21] 0.000134144
2 *12154:DI[21] 0.000161743
3 *12134:DI[21] 0.000240564
4 *12124:DI[21] 0.000124305
5 *12109:X 0
6 *454:72 0.0217299
7 *454:70 0.0216268
8 *454:56 0.00090219
9 *454:52 0.0199388
10 *454:50 0.0192295
11 *454:35 7.82742e-06
12 *454:24 0.0245696
13 *454:22 0.0244842
14 *454:18 0.00101253
15 *454:16 0.000740827
16 *454:14 0.000733698
17 *454:8 0.00156944
18 *454:4 0.000835745
19 *12124:DI[21] *639:74 4.82774e-05
20 *12134:DI[21] *12134:BEN[21] 1.72682e-05
21 *454:8 *12109:A 0.00051067
22 *454:14 *12134:BEN[25] 6.38845e-05
23 *454:14 *12134:DI[25] 1.85916e-05
24 *454:14 *458:12 0.00219581
25 *454:14 *471:52 4.77554e-05
26 *454:14 *471:54 4.2885e-05
27 *454:14 *471:100 9.41704e-05
28 *454:14 *550:82 0.0008696
29 *454:14 *550:92 0.000874035
30 *454:14 *550:102 0.000148925
31 *454:18 *458:12 0.00253167
32 *454:18 *458:16 0.000102781
33 *454:18 *547:116 0.000127144
34 *454:18 *547:132 0.000613477
35 *454:22 *547:116 0.000102781
36 *454:52 *458:46 0.0284986
37 *454:52 *489:10 0.000215086
38 *454:52 *498:16 0.00051291
39 *454:70 *480:64 0.000102785
40 *454:70 *639:234 0.000102785
41 *133:16 *12124:DI[21] 5.09165e-05
42 *199:17 *12124:DI[21] 0
43 *199:17 *454:24 5.58125e-05
44 *231:11 *12134:DI[21] 0
45 *232:13 *454:24 0
46 *238:9 *454:8 0
47 *263:7 *12144:DI[21] 9.83101e-06
48 *263:7 *454:72 0.000125621
49 *295:19 *12154:DI[21] 0.000128419
50 *295:19 *454:72 0.000764961
51 *303:23 *454:72 0
52 *382:88 *454:18 0.00339797
53 *382:88 *454:22 0.000102781
*RES
1 *12109:X *454:4 23
2 *454:4 *454:8 28.485
3 *454:8 *454:14 45.1186
4 *454:14 *454:16 15
5 *454:16 *454:18 44.1629
6 *454:18 *454:22 9.3775
7 *454:22 *454:24 65.5723
8 *454:24 *12124:DI[21] 25.2475
9 *12124:DI[21] *454:35 0.165714
10 *454:18 *12134:DI[21] 19.2671
11 *454:4 *454:50 15
12 *454:50 *454:52 380.459
13 *454:52 *454:56 28.0086
14 *454:56 *12154:DI[21] 2.96214
15 *454:56 *454:70 24.3775
16 *454:70 *454:72 65.5723
17 *454:72 *12144:DI[21] 25.5375
*END

*D_NET *455 0.00166368
*CONN
*I *12108:A I *D sky130_fd_sc_hd__dlygate4sd3_1
*I *12110:X O *D sky130_fd_sc_hd__dlygate4sd3_1
*CAP
1 *12108:A 0.000188144
2 *12110:X 0.000298018
3 *455:10 0.000486162
4 *12108:A *606:28 0.000196437
5 *455:10 *507:8 0.000339381
6 wbs_dat_o[21] *12108:A 0.00014196
7 *12110:A *455:10 1.35751e-05
8 *453:8 *455:10 0
*RES
1 *12110:X *455:10 43.6964
2 *455:10 *12108:A 43.3857
*END

*D_NET *456 0.000644862
*CONN
*I *12184:A I *D sky130_fd_sc_hd__buf_12
*I *12111:X O *D sky130_fd_sc_hd__dlygate4sd3_1
*CAP
1 *12184:A 0
2 *12111:X 0.000296057
3 *456:10 0.000296057
4 *453:8 *456:10 5.27481e-05
*RES
1 *12111:X *456:10 41.9564
2 *456:10 *12184:A 38
*END

*D_NET *457 0.00222329
*CONN
*I *12116:A I *D sky130_fd_sc_hd__dlygate4sd3_1
*I *12112:X O *D sky130_fd_sc_hd__dlygate4sd3_1
*CAP
1 *12116:A 0
2 *12112:X 0.000615189
3 *457:12 0.000160716
4 *457:6 0.000775905
5 *457:6 *608:22 0.000279105
6 *457:12 *464:14 0
7 *85:8 *457:6 0.000392374
*RES
1 *12112:X *457:6 35.5321
2 *457:6 *457:12 32.61
3 *457:12 *12116:A 23
*END

*D_NET *458 0.185127
*CONN
*I *12144:DI[22] I *D CF_SRAM_1024x32
*I *12154:DI[22] I *D CF_SRAM_1024x32
*I *12134:DI[22] I *D CF_SRAM_1024x32
*I *12124:DI[22] I *D CF_SRAM_1024x32
*I *12114:X O *D sky130_fd_sc_hd__buf_12
*CAP
1 *12144:DI[22] 0.000132461
2 *12154:DI[22] 0.000208292
3 *12134:DI[22] 0.000210282
4 *12124:DI[22] 0.000104407
5 *12114:X 4.29745e-05
6 *458:66 0.0261836
7 *458:64 0.0261105
8 *458:50 0.000883637
9 *458:46 0.010083
10 *458:44 0.00946696
11 *458:29 8.80585e-06
12 *458:18 0.0234889
13 *458:16 0.0234244
14 *458:12 0.00164479
15 *458:10 0.00221477
16 *458:6 0.000854378
17 *12134:DI[22] *12134:BEN[22] 0
18 *12144:DI[22] *639:379 2.11066e-05
19 *12154:DI[22] *639:252 3.18322e-05
20 *458:10 *12114:A 0.000221992
21 *458:10 *484:18 0
22 *458:12 *12134:BEN[23] 0.000871311
23 *458:12 *12134:BEN[25] 0.000485804
24 *458:12 *467:28 9.5706e-05
25 *458:12 *471:100 5.02282e-05
26 *458:12 *476:36 7.23298e-05
27 *458:12 *480:34 4.67227e-05
28 *458:12 *480:56 0.00087735
29 *458:12 *484:30 0.000102785
30 *458:12 *484:53 7.76431e-05
31 *458:12 *547:132 0.000248424
32 *458:12 *550:43 1.05658e-05
33 *458:12 *550:102 0.000136958
34 *458:16 *547:132 0.000102781
35 *458:18 *504:66 1.66359e-05
36 *458:46 *462:56 0
37 *458:46 *462:60 0.00220486
38 *458:46 *489:10 0.000710737
39 *458:46 *493:10 0.00045544
40 *458:46 *498:16 0.000366587
41 *458:64 *480:64 5.01385e-05
42 *458:64 *480:66 1.32265e-05
43 *458:64 *639:252 2.11157e-05
44 *123:18 *12124:DI[22] 2.19246e-05
45 *133:16 *12124:DI[22] 5.09165e-05
46 *200:7 *12124:DI[22] 5.2894e-05
47 *232:13 *12134:DI[22] 0
48 *234:15 *458:12 0.000166509
49 *264:9 *12144:DI[22] 0
50 *296:17 *12154:DI[22] 0.000178227
51 *296:17 *458:66 0.00262093
52 *358:8 *458:46 0.0155154
53 *382:88 *458:12 0.000758851
54 *424:14 *458:18 3.74254e-05
55 *424:66 *458:18 4.01424e-05
56 *454:14 *458:12 0.00219581
57 *454:18 *458:12 0.00253167
58 *454:18 *458:16 0.000102781
59 *454:52 *458:46 0.0284986
*RES
1 *12114:X *458:6 23.6214
2 *458:6 *458:10 27.5321
3 *458:10 *458:12 67.4043
4 *458:12 *458:16 9.3775
5 *458:16 *458:18 65.4864
6 *458:18 *12124:DI[22] 25.2475
7 *12124:DI[22] *458:29 0.186429
8 *458:12 *12134:DI[22] 18.77
9 *458:6 *458:44 15
10 *458:44 *458:46 386.094
11 *458:46 *458:50 26.5793
12 *458:50 *12154:DI[22] 3.93571
13 *458:50 *458:64 24.3775
14 *458:64 *458:66 65.744
15 *458:66 *12144:DI[22] 25.5168
*END

*D_NET *459 0.000638778
*CONN
*I *12112:A I *D sky130_fd_sc_hd__dlygate4sd3_1
*I *12115:X O *D sky130_fd_sc_hd__dlygate4sd3_1
*CAP
1 *12112:A 0
2 *12115:X 0.000238478
3 *459:10 0.000238478
4 *459:10 *606:28 1.99429e-05
5 wbs_dat_o[22] *459:10 0.000141879
*RES
1 *12115:X *459:10 41.9564
2 *459:10 *12112:A 38
*END

*D_NET *460 9.70205e-05
*CONN
*I *12185:A I *D sky130_fd_sc_hd__buf_12
*I *12116:X O *D sky130_fd_sc_hd__dlygate4sd3_1
*CAP
1 *12185:A 1.95323e-05
2 *12116:X 1.95323e-05
3 *12185:A *12234:A 5.79559e-05
*RES
1 *12116:X *12185:A 46.6214
*END

*D_NET *461 0.00173099
*CONN
*I *12120:A I *D sky130_fd_sc_hd__dlygate4sd3_1
*I *12117:X O *D sky130_fd_sc_hd__dlygate4sd3_1
*CAP
1 *12120:A 0
2 *12117:X 0.000781996
3 *461:10 0.000781996
4 *461:10 *464:14 0.000166993
*RES
1 *12117:X *461:10 48.15
2 *461:10 *12120:A 38
*END

*D_NET *462 0.184152
*CONN
*I *12144:DI[23] I *D CF_SRAM_1024x32
*I *12154:DI[23] I *D CF_SRAM_1024x32
*I *12124:DI[23] I *D CF_SRAM_1024x32
*I *12134:DI[23] I *D CF_SRAM_1024x32
*I *12118:X O *D sky130_fd_sc_hd__buf_12
*CAP
1 *12144:DI[23] 7.96011e-05
2 *12154:DI[23] 0.000153813
3 *12124:DI[23] 0.000134108
4 *12134:DI[23] 5.92276e-05
5 *12118:X 0.000354134
6 *462:84 0.0233454
7 *462:82 0.0232955
8 *462:68 0.00131721
9 *462:60 0.00598509
10 *462:58 0.00487863
11 *462:56 0.00880324
12 *462:54 0.00901307
13 *462:32 0.0205049
14 *462:30 0.0204065
15 *462:16 0.00076391
16 *462:12 0.00337504
17 *462:10 0.0028232
18 *12144:DI[23] *12144:BEN[23] 2.11157e-05
19 *462:10 *12118:A 0.00021677
20 *462:12 *471:26 0.000689999
21 *462:12 *572:8 0.00302938
22 *462:30 *12134:BEN[23] 4.82774e-05
23 *462:32 *502:58 4.35184e-05
24 *462:32 *504:14 9.12162e-05
25 *462:32 *504:66 0.000402596
26 *462:56 *484:14 0.00406274
27 *462:56 *493:10 0.000889119
28 *462:56 *498:16 0.000266724
29 *462:82 *480:66 0.000102785
30 *462:82 *484:55 0.000103868
31 *845:DIODE *462:12 0.000219891
32 *133:14 *12124:DI[23] 2.11066e-05
33 *171:16 *462:12 0.000142219
34 *201:7 *12124:DI[23] 1.04148e-05
35 *233:15 *12134:DI[23] 3.09646e-05
36 *233:15 *462:32 0
37 *234:15 *462:32 0
38 *236:11 *462:12 0.00295845
39 *239:11 *462:56 0.00480628
40 *241:11 *462:12 0.0121382
41 *241:11 *462:54 0.000165853
42 *265:7 *12144:DI[23] 2.65663e-05
43 *265:7 *462:84 0.000125621
44 *297:9 *12154:DI[23] 0
45 *297:9 *462:68 0
46 *297:11 *462:60 0
47 *297:11 *462:68 0
48 *313:23 *462:32 0.00490262
49 *347:8 *462:60 0.000194318
50 *358:8 *462:56 0.00361907
51 *358:8 *462:60 0.00242259
52 *443:16 *462:56 0.00152209
53 *443:18 *462:12 0.00339522
54 *443:18 *462:54 0.000173765
55 *443:18 *462:56 0
56 *443:56 *462:56 0.00698644
57 *443:56 *462:60 0.00282508
58 *449:64 *462:60 0
59 *458:46 *462:56 0
60 *458:46 *462:60 0.00220486
*RES
1 *12118:X *462:10 43.4064
2 *462:10 *462:12 164.244
3 *462:12 *462:16 24.1971
4 *462:16 *12134:DI[23] 1.305
5 *462:16 *462:30 23.6732
6 *462:30 *462:32 65.4005
7 *462:32 *12124:DI[23] 25.5375
8 *462:12 *462:54 34.785
9 *462:54 *462:56 293.366
10 *462:56 *462:58 0.621429
11 *462:58 *462:60 150.22
12 *462:60 *462:68 36.4289
13 *462:68 *12154:DI[23] 2.52714
14 *462:68 *462:82 24.3775
15 *462:82 *462:84 65.4864
16 *462:84 *12144:DI[23] 24.6675
*END

*D_NET *463 0.0655508
*CONN
*I *12083:A I *D sky130_fd_sc_hd__buf_12
*I *12179:X O *D sky130_fd_sc_hd__buf_12
*CAP
1 *12083:A 0
2 *12179:X 0.000571576
3 *463:26 0.000978445
4 *463:16 0.0242656
5 *463:14 0.0263781
6 *463:8 0.00366257
7 *463:8 *11904:C1 4.9808e-05
8 *463:8 *601:24 0
9 *463:14 *485:14 0.00312961
10 *463:14 *611:12 0.000130115
11 *463:14 *630:129 1.0334e-05
12 *463:14 *630:152 7.95489e-05
13 *463:14 *634:167 0.000230016
14 *163:16 *463:26 0.00142532
15 *207:23 *463:16 0.000110915
16 *287:26 *463:26 0.00346384
17 *304:23 *463:26 0.001065
18 *425:10 *463:8 0
*RES
1 *12179:X *463:8 46.7725
2 *463:8 *463:14 24.8573
3 *463:14 *463:16 78.6277
4 *463:16 *463:26 38.2121
5 *463:26 *12083:A 23
*END

*D_NET *464 0.00252095
*CONN
*I *12117:A I *D sky130_fd_sc_hd__dlygate4sd3_1
*I *12119:X O *D sky130_fd_sc_hd__dlygate4sd3_1
*CAP
1 *12117:A 0
2 *12119:X 0.000237758
3 *464:14 0.000641953
4 *464:8 0.000879711
5 *464:14 *541:8 8.94382e-05
6 wbs_dat_o[23] *464:8 0.000361027
7 *54:13 *464:8 0.000144067
8 *457:12 *464:14 0
9 *461:10 *464:14 0.000166993
*RES
1 *12119:X *464:8 44.815
2 *464:8 *464:14 27.1179
3 *464:14 *12117:A 23
*END

*D_NET *465 9.83573e-05
*CONN
*I *12187:A I *D sky130_fd_sc_hd__buf_12
*I *12120:X O *D sky130_fd_sc_hd__dlygate4sd3_1
*CAP
1 *12187:A 2.05299e-05
2 *12120:X 2.05299e-05
3 *12187:A *608:22 5.72975e-05
*RES
1 *12120:X *12187:A 46.6214
*END

*D_NET *466 0.00229811
*CONN
*I *11939:A I *D sky130_fd_sc_hd__dlygate4sd3_1
*I *12121:X O *D sky130_fd_sc_hd__dlygate4sd3_1
*CAP
1 *11939:A 0.000335801
2 *12121:X 0.000793445
3 *466:8 0.00112925
4 *11939:A *472:10 2.8337e-05
5 *11939:A *609:44 1.12863e-05
6 *56:13 *11939:A 0
*RES
1 *12121:X *466:8 47.6736
2 *466:8 *11939:A 43.075
*END

*D_NET *467 0.203246
*CONN
*I *12154:DI[24] I *D CF_SRAM_1024x32
*I *12144:DI[24] I *D CF_SRAM_1024x32
*I *12124:DI[24] I *D CF_SRAM_1024x32
*I *12134:DI[24] I *D CF_SRAM_1024x32
*I *12122:X O *D sky130_fd_sc_hd__buf_12
*CAP
1 *12154:DI[24] 0.000472237
2 *12144:DI[24] 9.53265e-05
3 *12124:DI[24] 0.000127591
4 *12134:DI[24] 7.44709e-05
5 *12122:X 0
6 *467:56 0.0204062
7 *467:54 0.0207831
8 *467:52 0.00928904
9 *467:50 0.00928904
10 *467:34 0.0196492
11 *467:32 0.0221145
12 *467:28 0.00286372
13 *467:12 0.00177452
14 *467:8 0.00846736
15 *467:6 0.00703811
16 *12154:DI[24] *480:66 2.11157e-05
17 *12154:DI[24] *484:55 2.11157e-05
18 *12154:DI[24] *638:180 0
19 *467:8 *627:144 0.000194523
20 *467:12 *529:26 1.84661e-05
21 *467:28 *550:35 0.000116297
22 *467:32 *550:35 0.00131469
23 *467:34 *511:12 7.51431e-06
24 *467:34 *513:50 8.36764e-05
25 *467:34 *515:60 0
26 *467:34 *520:12 1.14105e-05
27 *467:34 *550:28 0
28 *467:34 *550:35 0
29 *467:52 *476:56 0.0333638
30 *467:52 *489:34 7.34173e-05
31 *467:52 *489:59 0.000305104
32 *467:52 *493:51 0.000389246
33 *467:52 *498:26 0.000186784
34 *467:52 *498:47 0.028958
35 *467:56 *638:160 4.07923e-06
36 *467:56 *638:178 0.000111547
37 *467:56 *638:180 0
38 *133:14 *12124:DI[24] 2.11066e-05
39 *202:11 *12124:DI[24] 1.18615e-05
40 *234:15 *12134:DI[24] 4.47484e-05
41 *234:15 *467:28 0
42 *234:15 *467:32 0
43 *238:11 *467:8 0.0127637
44 *266:9 *12144:DI[24] 0
45 *298:15 *12154:DI[24] 0.00022055
46 *298:15 *467:56 0.00246248
47 *307:19 *467:52 0
48 *458:12 *467:28 9.5706e-05
*RES
1 *12122:X *467:6 38
2 *467:6 *467:8 169.878
3 *467:8 *467:12 32.2964
4 *467:12 *12134:DI[24] 1.67786
5 *467:12 *467:28 26.2198
6 *467:28 *467:32 9.63947
7 *467:32 *467:34 55.3971
8 *467:34 *12124:DI[24] 25.5168
9 *467:28 *467:50 8
10 *467:50 *467:52 81.928
11 *467:52 *467:54 8
12 *467:54 *467:56 64.6707
13 *467:56 *12144:DI[24] 24.6468
14 *467:54 *12154:DI[24] 25.9949
*END

*D_NET *468 0.000399247
*CONN
*I *12121:A I *D sky130_fd_sc_hd__dlygate4sd3_1
*I *12123:X O *D sky130_fd_sc_hd__dlygate4sd3_1
*CAP
1 *12121:A 6.90001e-05
2 *12123:X 0.000130623
3 *468:8 0.000199623
*RES
1 *12123:X *468:8 39.9057
2 *468:8 *12121:A 39.0979
*END

*D_NET *469 6.69045e-05
*CONN
*I *12188:A I *D sky130_fd_sc_hd__buf_12
*I *11939:X O *D sky130_fd_sc_hd__dlygate4sd3_1
*CAP
1 *12188:A 3.34522e-05
2 *11939:X 3.34522e-05
*RES
1 *11939:X *12188:A 46.6214
*END

*D_NET *470 0.00018179
*CONN
*I *11943:A I *D sky130_fd_sc_hd__dlygate4sd3_1
*I *11940:X O *D sky130_fd_sc_hd__dlygate4sd3_1
*CAP
1 *11943:A 9.0895e-05
2 *11940:X 9.0895e-05
*RES
1 *11940:X *11943:A 47.0979
*END

*D_NET *471 0.22121
*CONN
*I *12124:DI[25] I *D CF_SRAM_1024x32
*I *12144:DI[25] I *D CF_SRAM_1024x32
*I *12154:DI[25] I *D CF_SRAM_1024x32
*I *12134:DI[25] I *D CF_SRAM_1024x32
*I *11941:X O *D sky130_fd_sc_hd__buf_12
*CAP
1 *12124:DI[25] 0.000193575
2 *12144:DI[25] 9.43481e-05
3 *12154:DI[25] 8.97117e-05
4 *12134:DI[25] 0.000887295
5 *11941:X 8.62478e-05
6 *471:102 0.0164069
7 *471:100 0.0168998
8 *471:72 0.0205002
9 *471:70 0.0204058
10 *471:56 0.000116933
11 *471:54 0.0175887
12 *471:52 0.0177412
13 *471:42 0.00092337
14 *471:30 0.00356747
15 *471:28 0.00273737
16 *471:26 0.000248975
17 *471:18 0.00114074
18 *471:8 0.000978009
19 *12144:DI[25] *12144:BEN[25] 0
20 *12154:DI[25] *480:66 8.22421e-06
21 *12154:DI[25] *484:65 1.23487e-05
22 *471:18 *11963:A 9.02461e-05
23 *471:18 *476:14 0.0007086
24 *471:18 *489:10 0.000463729
25 *471:18 *493:8 9.41704e-05
26 *471:18 *569:22 0.0012692
27 *471:42 *12134:BEN[25] 0
28 *471:52 *12134:BEN[25] 0.000230551
29 *471:54 *480:66 1.44992e-05
30 *471:54 *484:53 2.96687e-05
31 *471:54 *484:55 0.0309102
32 *471:54 *489:59 0.00531684
33 *471:54 *550:82 0.0008696
34 *471:54 *550:92 0.000863891
35 *471:54 *550:102 0.00087708
36 *471:54 *550:114 0.00087708
37 *471:72 *12144:BEN[25] 6.4e-06
38 *471:72 *638:180 0
39 *471:100 *12134:BEN[25] 4.00259e-06
40 *471:102 *515:60 0
41 *471:102 *524:12 1.81937e-05
42 *471:102 *550:28 0
43 *471:102 *550:35 0
44 *471:102 *636:18 1.97345e-05
45 *12134:ScanInCC *471:26 1.91029e-06
46 *203:9 *12124:DI[25] 0
47 *235:15 *12134:DI[25] 8.57025e-05
48 *235:15 *471:102 0
49 *236:11 *471:26 0.000685546
50 *236:11 *471:30 0.0104556
51 *239:11 *471:30 0.0104556
52 *239:23 *471:18 0.0017016
53 *258:19 *12124:DI[25] 2.11157e-05
54 *267:9 *12144:DI[25] 0
55 *281:15 *12124:DI[25] 2.31209e-05
56 *299:15 *12154:DI[25] 1.59042e-05
57 *299:15 *471:72 0.00328072
58 *300:13 *471:72 0
59 *307:25 *471:102 0.000875084
60 *307:27 *471:102 0.0289301
61 *307:37 *471:102 0.000392948
62 *382:88 *471:100 5.02282e-05
63 *454:14 *12134:DI[25] 1.85916e-05
64 *454:14 *471:52 4.77554e-05
65 *454:14 *471:54 4.2885e-05
66 *454:14 *471:100 9.41704e-05
67 *458:12 *471:100 5.02282e-05
68 *462:12 *471:26 0.000689999
*RES
1 *11941:X *471:8 39.0979
2 *471:8 *471:18 48.3914
3 *471:18 *471:26 40.0464
4 *471:26 *471:28 15
5 *471:28 *471:30 137.833
6 *471:30 *12134:DI[25] 27.5321
7 *12134:DI[25] *471:42 1.57429
8 *471:42 *471:52 19.5261
9 *471:52 *471:54 452.296
10 *471:54 *471:56 0.621429
11 *471:56 *12154:DI[25] 16.6261
12 *471:56 *471:70 8
13 *471:70 *471:72 65.4005
14 *471:72 *12144:DI[25] 24.6261
15 *471:42 *471:100 27.832
16 *471:100 *471:102 64.1555
17 *471:102 *12124:DI[25] 26.0968
*END

*D_NET *472 0.00152021
*CONN
*I *11940:A I *D sky130_fd_sc_hd__dlygate4sd3_1
*I *11942:X O *D sky130_fd_sc_hd__dlygate4sd3_1
*CAP
1 *11940:A 0
2 *11942:X 0.000667193
3 *472:10 0.000667193
4 *472:10 *552:8 0
5 *472:10 *563:10 1.59094e-05
6 *11939:A *472:10 2.8337e-05
7 *56:13 *472:10 0.000141573
*RES
1 *11942:X *472:10 46.7207
2 *472:10 *11940:A 38
*END

*D_NET *473 0.0004797
*CONN
*I *12189:A I *D sky130_fd_sc_hd__buf_12
*I *11943:X O *D sky130_fd_sc_hd__dlygate4sd3_1
*CAP
1 *12189:A 0
2 *11943:X 0.00023985
3 *473:10 0.00023985
*RES
1 *11943:X *473:10 41.0036
2 *473:10 *12189:A 38
*END

*D_NET *474 0.059407
*CONN
*I *12087:A I *D sky130_fd_sc_hd__buf_12
*I *12180:X O *D sky130_fd_sc_hd__buf_12
*CAP
1 *12087:A 0
2 *12180:X 0
3 *474:26 0.00382371
4 *474:16 0.0265164
5 *474:14 0.0244128
6 *474:6 0.00172008
7 *474:14 *627:41 0
8 *474:14 *632:248 0
9 *474:26 *637:133 0.000146201
10 *1000:DIODE *474:26 5.04995e-05
11 *163:6 *474:26 0.000168364
12 *165:14 *474:26 0.0013211
13 *171:10 *474:26 0
14 *230:23 *474:14 0.000120255
15 *269:34 *474:26 0.000504027
16 *287:26 *474:26 0.000623498
17 *300:25 *474:26 0
18 *301:25 *474:26 0
19 *302:23 *474:26 0
*RES
1 *12180:X *474:6 38
2 *474:6 *474:14 34.0783
3 *474:14 *474:16 77.3584
4 *474:16 *474:26 43.3641
5 *474:26 *12087:A 23
*END

*D_NET *475 0.000831285
*CONN
*I *11947:A I *D sky130_fd_sc_hd__dlygate4sd3_1
*I *11944:X O *D sky130_fd_sc_hd__dlygate4sd3_1
*CAP
1 *11947:A 0.000253788
2 *11944:X 9.49491e-05
3 *475:8 0.000348737
4 *475:8 *611:36 0
5 *58:9 *475:8 0.00013381
*RES
1 *11944:X *475:8 39.9057
2 *475:8 *11947:A 42.4329
*END

*D_NET *476 0.210478
*CONN
*I *12154:DI[26] I *D CF_SRAM_1024x32
*I *12144:DI[26] I *D CF_SRAM_1024x32
*I *12124:DI[26] I *D CF_SRAM_1024x32
*I *12134:DI[26] I *D CF_SRAM_1024x32
*I *11945:X O *D sky130_fd_sc_hd__buf_12
*CAP
1 *12154:DI[26] 0.000748287
2 *12144:DI[26] 7.07008e-05
3 *12124:DI[26] 7.70982e-05
4 *12134:DI[26] 0.000209972
5 *11945:X 0
6 *476:64 0.0182355
7 *476:62 0.0208602
8 *476:58 0.00344363
9 *476:56 0.0133011
10 *476:54 0.0133011
11 *476:38 0.0292348
12 *476:36 0.0297777
13 *476:20 0.00180622
14 *476:16 0.00880932
15 *476:14 0.00941234
16 *476:6 0.00157931
17 *12154:DI[26] *638:209 2.11066e-05
18 *476:14 *489:10 0.000281281
19 *476:14 *498:12 2.5343e-05
20 *476:14 *569:22 0.00084025
21 *476:16 *480:18 0.0115003
22 *476:16 *489:10 2.34898e-05
23 *476:16 *498:16 0.00225042
24 *476:56 *498:47 0.000923892
25 *476:64 *638:309 4.07923e-06
26 *204:17 *12124:DI[26] 7.55265e-05
27 *204:17 *476:38 0.000260114
28 *236:9 *12134:DI[26] 1.63191e-05
29 *236:9 *476:20 5.53318e-05
30 *268:7 *12144:DI[26] 2.65663e-05
31 *268:7 *476:64 0.000125621
32 *287:22 *476:56 0.00278785
33 *292:17 *476:56 0.00137725
34 *300:13 *12154:DI[26] 0.000131883
35 *300:13 *476:62 0
36 *300:13 *476:64 0
37 *301:15 *12154:DI[26] 0.000531505
38 *301:15 *476:62 0.00186746
39 *303:23 *476:56 0
40 *307:19 *476:56 0
41 *312:21 *476:56 0.00226858
42 *382:88 *476:36 7.23298e-05
43 *458:12 *476:36 7.23298e-05
44 *467:52 *476:56 0.0333638
45 *471:18 *476:14 0.0007086
*RES
1 *11945:X *476:6 38
2 *476:6 *476:14 30.5846
3 *476:14 *476:16 152.095
4 *476:16 *476:20 27.5321
5 *476:20 *12134:DI[26] 3.14857
6 *476:20 *476:36 25.2406
7 *476:36 *476:38 64.4989
8 *476:38 *12124:DI[26] 24.6468
9 *476:36 *476:54 8
10 *476:54 *476:56 81.928
11 *476:56 *476:58 8
12 *476:58 *476:62 9.46773
13 *476:62 *476:64 55.3971
14 *476:64 *12144:DI[26] 24.4189
15 *476:58 *12154:DI[26] 28.6407
*END

*D_NET *477 0.00206776
*CONN
*I *11944:A I *D sky130_fd_sc_hd__dlygate4sd3_1
*I *11946:X O *D sky130_fd_sc_hd__dlygate4sd3_1
*CAP
1 *11944:A 0
2 *11946:X 0.000760149
3 *477:16 0.00015705
4 *477:10 0.000917199
5 wbs_dat_o[27] *477:16 0
6 *58:9 *477:16 0
7 *236:23 *477:10 0.000233359
*RES
1 *11946:X *477:10 37.1271
2 *477:10 *477:16 32.9621
3 *477:16 *11944:A 23
*END

*D_NET *478 0.000646371
*CONN
*I *12190:A I *D sky130_fd_sc_hd__buf_12
*I *11947:X O *D sky130_fd_sc_hd__dlygate4sd3_1
*CAP
1 *12190:A 0
2 *11947:X 0.000276087
3 *478:8 0.000276087
4 wbs_dat_o[26] *478:8 6.12832e-05
5 *644:DIODE *478:8 3.29127e-05
6 *236:23 *478:8 0
*RES
1 *11947:X *478:8 43.075
2 *478:8 *12190:A 38
*END

*D_NET *479 0.00069683
*CONN
*I *11952:A I *D sky130_fd_sc_hd__dlygate4sd3_1
*I *11948:X O *D sky130_fd_sc_hd__dlygate4sd3_1
*CAP
1 *11952:A 0
2 *11948:X 0.000339745
3 *479:10 0.000339745
4 *479:10 *11948:A 1.73399e-05
5 *479:10 *482:8 0
6 *479:10 *612:34 0
*RES
1 *11948:X *479:10 43.3443
2 *479:10 *11952:A 38
*END

*D_NET *480 0.225356
*CONN
*I *12144:DI[27] I *D CF_SRAM_1024x32
*I *12154:DI[27] I *D CF_SRAM_1024x32
*I *12124:DI[27] I *D CF_SRAM_1024x32
*I *12134:DI[27] I *D CF_SRAM_1024x32
*I *11950:X O *D sky130_fd_sc_hd__buf_12
*CAP
1 *12144:DI[27] 6.95175e-05
2 *12154:DI[27] 0.000139264
3 *12124:DI[27] 0.000131871
4 *12134:DI[27] 0.00021307
5 *11950:X 0.000165138
6 *480:82 0.0237754
7 *480:80 0.0237321
8 *480:66 0.00159463
9 *480:64 0.00301441
10 *480:58 0.00936048
11 *480:56 0.00866367
12 *480:38 0.0327202
13 *480:36 0.0325884
14 *480:34 0.000912815
15 *480:22 0.00117502
16 *480:18 0.00439241
17 *480:16 0.00345481
18 *480:14 0.000740048
19 *480:8 0.000905186
20 *12144:DI[27] *12144:BEN[27] 0
21 *12144:DI[27] *638:325 2.11157e-05
22 *480:14 *484:12 0.000493072
23 *480:14 *489:10 0.00018547
24 *480:14 *493:10 0.000557723
25 *480:14 *570:16 0.000844703
26 *480:18 *489:10 0.0124171
27 *480:18 *498:16 0.00200673
28 *480:56 *484:53 0.000545421
29 *480:56 *484:55 1.11421e-05
30 *480:56 *489:34 4.80465e-05
31 *480:56 *550:128 0.000872504
32 *480:56 *550:148 0.000516432
33 *480:58 *12154:AD[0] 2.11157e-05
34 *480:58 *12154:AD[1] 4.79458e-06
35 *480:58 *12154:AD[2] 4.30894e-05
36 *480:58 *12154:EN 4.80465e-05
37 *480:58 *12154:BEN[15] 2.13261e-05
38 *480:58 *12154:BEN[8] 0.000303342
39 *480:58 *12154:AD[3] 2.05503e-05
40 *480:58 *12154:AD[4] 2.11157e-05
41 *480:58 *12154:AD[5] 2.11066e-05
42 *480:58 *12154:AD[6] 2.11157e-05
43 *480:58 *12154:AD[7] 2.05503e-05
44 *480:58 *12154:AD[8] 2.11157e-05
45 *480:58 *12154:AD[9] 2.11066e-05
46 *480:58 *12154:BEN[0] 0.00034587
47 *480:58 *484:55 0.0234239
48 *480:58 *550:148 0.000281946
49 *480:58 *557:293 0.000434074
50 *480:58 *557:305 0.000306288
51 *480:58 *557:317 0.0004676
52 *480:58 *557:329 0.000358472
53 *480:58 *557:341 0.000386592
54 *480:58 *557:353 0.000385879
55 *480:58 *560:266 4.84329e-05
56 *480:58 *560:278 0.00040017
57 *480:58 *560:290 0.00034587
58 *480:58 *560:302 0.00040017
59 *480:58 *560:314 0.000357434
60 *480:58 *560:334 0.000336165
61 *480:58 *560:346 0.000332857
62 *480:58 *639:174 0.000249173
63 *480:58 *639:194 0.000138663
64 *480:64 *484:55 8.18326e-05
65 *480:64 *639:194 0.000410808
66 *480:64 *639:206 0.000948421
67 *480:64 *639:218 0.000798376
68 *480:64 *639:234 0.000646437
69 *480:64 *639:252 0.000206378
70 *480:66 *12154:BEN[23] 0.000829678
71 *480:66 *484:55 0.00120561
72 *480:66 *484:71 0.00024737
73 *480:66 *638:184 0.000102781
74 *480:66 *638:196 0.000757703
75 *480:66 *638:209 0.00089453
76 *480:66 *638:221 0.000393556
77 *480:66 *639:252 0.000370786
78 *480:80 *484:71 3.20491e-05
79 *480:80 *638:221 7.53756e-05
80 *12154:R_WB *480:58 2.11157e-05
81 *12154:DI[3] *480:58 4.30119e-05
82 *12154:DI[12] *480:58 2.11066e-05
83 *12154:DI[0] *480:58 2.11157e-05
84 *12154:DI[4] *480:58 0.000200356
85 *12154:DI[14] *480:58 4.80465e-05
86 *12154:DI[11] *480:58 2.11157e-05
87 *12154:DI[5] *480:58 2.11157e-05
88 *12154:DI[1] *480:58 2.11157e-05
89 *12154:DI[9] *480:58 2.11157e-05
90 *12154:DI[6] *480:58 2.11157e-05
91 *12154:DI[15] *480:58 4.80465e-05
92 *12154:DI[2] *480:58 2.11157e-05
93 *12154:DI[7] *480:58 2.11157e-05
94 *12154:DI[13] *480:58 2.05503e-05
95 *12154:DI[8] *480:58 2.11157e-05
96 *12154:DI[24] *480:66 2.11157e-05
97 *12154:DI[16] *480:58 4.80465e-05
98 *12154:DI[25] *480:66 8.22421e-06
99 *179:44 *480:58 4.80465e-05
100 *237:9 *12134:DI[27] 0
101 *237:9 *480:22 0
102 *239:23 *480:14 0.000923637
103 *269:10 *12144:DI[27] 2.25988e-05
104 *281:15 *12124:DI[27] 8.22421e-06
105 *282:21 *480:58 4.80427e-05
106 *283:17 *480:58 7.53717e-05
107 *284:20 *480:58 2.11066e-05
108 *285:17 *480:58 2.11066e-05
109 *287:22 *480:58 4.80465e-05
110 *288:22 *480:58 2.11066e-05
111 *289:17 *480:58 2.05503e-05
112 *290:17 *480:58 0.00030899
113 *291:13 *480:64 2.05503e-05
114 *292:15 *480:64 4.79458e-06
115 *293:13 *480:58 2.11157e-05
116 *295:19 *480:64 2.11066e-05
117 *296:17 *480:64 2.05503e-05
118 *298:15 *480:66 2.44302e-05
119 *299:15 *480:66 2.31044e-05
120 *300:13 *480:66 0.00032023
121 *301:15 *12154:DI[27] 7.07839e-05
122 *301:15 *480:66 0.000800783
123 *302:15 *480:82 0
124 *304:17 *480:58 4.80427e-05
125 *307:17 *480:58 2.11157e-05
126 *308:13 *480:58 2.11157e-05
127 *309:13 *480:58 2.11157e-05
128 *310:13 *480:58 2.11157e-05
129 *311:17 *480:58 2.11157e-05
130 *312:17 *480:58 2.11066e-05
131 *313:17 *480:58 2.11066e-05
132 *382:88 *480:34 4.67227e-05
133 *382:88 *480:56 0.00347397
134 *382:88 *480:58 0.00143996
135 *426:72 *480:58 2.33476e-05
136 *432:50 *480:58 0
137 *432:54 *480:58 0
138 *432:72 *480:64 4.70095e-05
139 *454:70 *480:64 0.000102785
140 *458:12 *480:34 4.67227e-05
141 *458:12 *480:56 0.00087735
142 *458:64 *480:64 5.01385e-05
143 *458:64 *480:66 1.32265e-05
144 *462:82 *480:66 0.000102785
145 *471:54 *480:66 1.44992e-05
146 *476:16 *480:18 0.0115003
*RES
1 *11950:X *480:8 40.0507
2 *480:8 *480:14 41.0171
3 *480:14 *480:16 15
4 *480:16 *480:18 163.539
5 *480:18 *480:22 27.0557
6 *480:22 *12134:DI[27] 3.08643
7 *480:22 *480:34 15.6732
8 *480:34 *480:36 8
9 *480:36 *480:38 65.6581
10 *480:38 *12124:DI[27] 25.3304
11 *480:34 *480:56 46.3171
12 *480:56 *480:58 306.509
13 *480:58 *480:64 48.3471
14 *480:64 *480:66 56.3118
15 *480:66 *12154:DI[27] 17.7343
16 *480:66 *480:80 9.02536
17 *480:80 *480:82 65.5723
18 *480:82 *12144:DI[27] 24.4189
*END

*D_NET *481 0.00191077
*CONN
*I *11948:A I *D sky130_fd_sc_hd__dlygate4sd3_1
*I *11951:X O *D sky130_fd_sc_hd__dlygate4sd3_1
*CAP
1 *11948:A 0.000401654
2 *11951:X 0.000240753
3 *481:8 0.000642406
4 *11948:A *12191:A 0.000234102
5 *481:8 *482:8 0.000368925
6 *481:8 *568:8 5.58975e-06
7 wbs_dat_o[27] *481:8 0
8 *479:10 *11948:A 1.73399e-05
*RES
1 *11951:X *481:8 43.4271
2 *481:8 *11948:A 45.7886
*END

*D_NET *482 0.00122955
*CONN
*I *12191:A I *D sky130_fd_sc_hd__buf_12
*I *11952:X O *D sky130_fd_sc_hd__dlygate4sd3_1
*CAP
1 *12191:A 8.36879e-05
2 *11952:X 0.00021392
3 *482:8 0.000297608
4 *482:8 *612:34 3.13081e-05
5 *11948:A *12191:A 0.000234102
6 *479:10 *482:8 0
7 *481:8 *482:8 0.000368925
*RES
1 *11952:X *482:8 43.075
2 *482:8 *12191:A 40.5271
*END

*D_NET *483 6.87633e-05
*CONN
*I *11956:A I *D sky130_fd_sc_hd__dlygate4sd3_1
*I *11953:X O *D sky130_fd_sc_hd__dlygate4sd3_1
*CAP
1 *11956:A 3.43816e-05
2 *11953:X 3.43816e-05
*RES
1 *11953:X *11956:A 46.6214
*END

*D_NET *484 0.222015
*CONN
*I *12144:DI[28] I *D CF_SRAM_1024x32
*I *12154:DI[28] I *D CF_SRAM_1024x32
*I *12124:DI[28] I *D CF_SRAM_1024x32
*I *12134:DI[28] I *D CF_SRAM_1024x32
*I *11954:X O *D sky130_fd_sc_hd__buf_12
*CAP
1 *12144:DI[28] 7.55265e-05
2 *12154:DI[28] 7.76472e-05
3 *12124:DI[28] 7.65417e-05
4 *12134:DI[28] 0.000143383
5 *11954:X 0.000213601
6 *484:85 0.0288869
7 *484:83 0.0288399
8 *484:71 0.00127911
9 *484:65 0.00134252
10 *484:55 0.00747856
11 *484:53 0.00764654
12 *484:34 0.0229196
13 *484:32 0.0228431
14 *484:30 0.000367269
15 *484:18 0.000875494
16 *484:14 0.00459419
17 *484:12 0.00442837
18 *484:8 0.00075018
19 *12144:DI[28] *638:337 2.11157e-05
20 *484:8 *11954:A 9.41704e-05
21 *484:12 *493:10 1.11421e-05
22 *484:12 *570:16 0.00041353
23 *484:14 *493:10 0.0131269
24 *484:14 *498:16 0.00101265
25 *484:30 *550:102 0.000103868
26 *484:53 *489:34 4.80465e-05
27 *484:53 *550:102 0.000372001
28 *484:53 *550:114 0.000887224
29 *484:53 *550:128 7.91605e-05
30 *484:55 *12134:DI[31] 0.000155136
31 *484:55 *493:30 7.60729e-05
32 *484:55 *550:128 0.000373516
33 *484:55 *550:148 0.000177228
34 *484:55 *639:206 0.000176294
35 *484:55 *639:218 0.000217666
36 *484:55 *639:234 0.000803733
37 *484:55 *639:252 0.000493878
38 *484:71 *638:221 0.000142267
39 *484:71 *638:233 0.000222032
40 *484:83 *638:233 9.9342e-06
41 *12154:DI[24] *484:55 2.11157e-05
42 *12154:DI[25] *484:65 1.23487e-05
43 *135:16 *484:34 0
44 *206:9 *12124:DI[28] 0
45 *236:11 *484:12 0.000251603
46 *238:9 *12134:DI[28] 3.18796e-05
47 *238:9 *484:18 0.000226584
48 *239:11 *484:14 0.00453016
49 *239:21 *484:12 0.000977234
50 *239:21 *484:14 1.62615e-05
51 *281:11 *12124:DI[28] 2.11157e-05
52 *291:13 *484:55 7.57281e-06
53 *292:15 *484:55 0.000513929
54 *294:15 *484:55 0.000258059
55 *298:15 *484:55 2.44302e-05
56 *299:15 *484:55 2.31044e-05
57 *299:15 *484:65 2.50354e-05
58 *300:13 *484:71 0.000324088
59 *301:15 *484:71 0.000809375
60 *302:15 *12154:DI[28] 2.175e-05
61 *302:15 *484:71 0.000425941
62 *303:15 *484:85 0
63 *432:72 *484:55 0.000102396
64 *443:74 *484:55 0.000103868
65 *449:82 *484:55 0.000103868
66 *458:10 *484:18 0
67 *458:12 *484:30 0.000102785
68 *458:12 *484:53 7.76431e-05
69 *462:56 *484:14 0.00406274
70 *462:82 *484:55 0.000103868
71 *471:54 *484:53 2.96687e-05
72 *471:54 *484:55 0.0309102
73 *480:14 *484:12 0.000493072
74 *480:56 *484:53 0.000545421
75 *480:56 *484:55 1.11421e-05
76 *480:58 *484:55 0.0234239
77 *480:64 *484:55 8.18326e-05
78 *480:66 *484:55 0.00120561
79 *480:66 *484:71 0.00024737
80 *480:80 *484:71 3.20491e-05
*RES
1 *11954:X *484:8 41.0036
2 *484:8 *484:12 20.4346
3 *484:12 *484:14 172.871
4 *484:14 *484:18 26.5793
5 *484:18 *12134:DI[28] 2.58929
6 *484:18 *484:30 16.3775
7 *484:30 *484:32 8
8 *484:32 *484:34 65.4864
9 *484:34 *12124:DI[28] 24.4189
10 *484:30 *484:53 17.69
11 *484:53 *484:55 404.208
12 *484:55 *484:65 33.7493
13 *484:65 *484:71 33.9404
14 *484:71 *12154:DI[28] 16.5018
15 *484:71 *484:83 8.39357
16 *484:83 *484:85 65.4864
17 *484:85 *12144:DI[28] 24.4189
*END

*D_NET *485 0.0634079
*CONN
*I *12098:A I *D sky130_fd_sc_hd__buf_12
*I *12181:X O *D sky130_fd_sc_hd__buf_12
*CAP
1 *12098:A 0
2 *12181:X 4.75979e-05
3 *485:26 0.000677546
4 *485:16 0.0234431
5 *485:14 0.0268169
6 *485:10 0.00409893
7 *485:14 *507:14 0.00364394
8 *485:14 *611:28 0.000232591
9 *485:14 *634:167 0.000164663
10 *111:37 *485:14 0.000112764
11 *162:14 *485:10 7.71219e-06
12 *164:26 *485:14 0.000131951
13 *173:10 *485:26 0
14 *182:42 *485:14 0.000130115
15 *304:23 *485:26 0.000250549
16 *311:23 *485:26 0.00051996
17 *463:14 *485:14 0.00312961
*RES
1 *12181:X *485:10 46.6732
2 *485:10 *485:14 20.292
3 *485:14 *485:16 77.9931
4 *485:16 *485:26 37.8011
5 *485:26 *12098:A 23
*END

*D_NET *486 0.00232495
*CONN
*I *11953:A I *D sky130_fd_sc_hd__dlygate4sd3_1
*I *11955:X O *D sky130_fd_sc_hd__dlygate4sd3_1
*CAP
1 *11953:A 0.000380343
2 *11955:X 0.000473764
3 *486:8 0.000854106
4 *486:8 *569:10 0.00049742
5 wbs_dat_o[28] *11953:A 0
6 *59:17 *11953:A 0
7 *59:17 *486:8 0.000119313
*RES
1 *11955:X *486:8 45.7679
2 *486:8 *11953:A 44.4836
*END

*D_NET *487 0.000752627
*CONN
*I *12192:A I *D sky130_fd_sc_hd__buf_12
*I *11956:X O *D sky130_fd_sc_hd__dlygate4sd3_1
*CAP
1 *12192:A 0
2 *11956:X 0.000311279
3 *487:8 0.000311279
4 *487:8 *613:20 0.00013007
5 wbs_dat_o[28] *487:8 0
*RES
1 *11956:X *487:8 43.075
2 *487:8 *12192:A 38
*END

*D_NET *488 0.00172937
*CONN
*I *11961:A I *D sky130_fd_sc_hd__dlygate4sd3_1
*I *11957:X O *D sky130_fd_sc_hd__dlygate4sd3_1
*CAP
1 *11961:A 0
2 *11957:X 0.000556216
3 *488:10 0.000556216
4 *488:10 *11957:A 0.000102389
5 *488:10 *568:16 0
6 *488:10 *569:10 0.000267798
7 *488:10 *570:12 0
8 wbs_dat_o[29] *488:10 0.000246748
*RES
1 *11957:X *488:10 49.0407
2 *488:10 *11961:A 38
*END

*D_NET *489 0.211165
*CONN
*I *12154:DI[29] I *D CF_SRAM_1024x32
*I *12144:DI[29] I *D CF_SRAM_1024x32
*I *12124:DI[29] I *D CF_SRAM_1024x32
*I *12134:DI[29] I *D CF_SRAM_1024x32
*I *11958:X O *D sky130_fd_sc_hd__buf_12
*CAP
1 *12154:DI[29] 0.000175099
2 *12144:DI[29] 7.37919e-05
3 *12124:DI[29] 7.20809e-05
4 *12134:DI[29] 0.00018063
5 *11958:X 8.37538e-05
6 *489:63 0.0205858
7 *489:61 0.0206871
8 *489:59 0.020392
9 *489:42 0.0195321
10 *489:40 0.0228049
11 *489:34 0.0241307
12 *489:14 0.00129582
13 *489:10 0.004801
14 *489:8 0.00416349
15 *12144:DI[29] *12144:BEN[29] 0
16 *12144:DI[29] *638:349 2.11157e-05
17 *12154:DI[29] *12154:BEN[29] 0
18 *12154:DI[29] *638:245 4.98856e-06
19 *489:10 *493:10 0.0145728
20 *489:10 *498:16 0.00183844
21 *489:59 *493:51 0.0341692
22 *135:16 *489:42 0
23 *207:11 *12124:DI[29] 9.83101e-06
24 *239:9 *12134:DI[29] 3.99477e-05
25 *239:9 *489:14 0.000207617
26 *239:23 *489:10 6.48049e-05
27 *271:9 *12144:DI[29] 0
28 *281:11 *12124:DI[29] 2.11157e-05
29 *303:15 *12154:DI[29] 2.5604e-05
30 *303:15 *489:63 0
31 *305:13 *12154:DI[29] 2.12991e-05
32 *305:13 *489:63 0.00110171
33 *454:52 *489:10 0.000215086
34 *458:46 *489:10 0.000710737
35 *467:52 *489:34 7.34173e-05
36 *467:52 *489:59 0.000305104
37 *471:18 *489:10 0.000463729
38 *471:54 *489:59 0.00531684
39 *476:14 *489:10 0.000281281
40 *476:16 *489:10 2.34898e-05
41 *480:14 *489:10 0.00018547
42 *480:18 *489:10 0.0124171
43 *480:56 *489:34 4.80465e-05
44 *484:53 *489:34 4.80465e-05
*RES
1 *11958:X *489:8 39.0979
2 *489:8 *489:10 197.697
3 *489:10 *489:14 27.0557
4 *489:14 *12134:DI[29] 3.08643
5 *489:14 *489:34 32.5524
6 *489:34 *489:40 18.1547
7 *489:40 *489:42 55.3971
8 *489:42 *12124:DI[29] 24.4189
9 *489:34 *489:59 81.928
10 *489:59 *489:61 8
11 *489:61 *489:63 65.1859
12 *489:63 *12144:DI[29] 24.4189
13 *489:61 *12154:DI[29] 24.6689
*END

*D_NET *490 0.0017795
*CONN
*I *11957:A I *D sky130_fd_sc_hd__dlygate4sd3_1
*I *11959:X O *D sky130_fd_sc_hd__dlygate4sd3_1
*CAP
1 *11957:A 0.000257134
2 *11959:X 0.000423272
3 *490:10 0.000680406
4 *490:10 *12240:A 1.21972e-05
5 *490:10 *491:10 0.000167266
6 wbs_dat_o[29] *490:10 0.000136841
7 *488:10 *11957:A 0.000102389
*RES
1 *11959:X *490:10 44.2143
2 *490:10 *11957:A 41.9564
*END

*D_NET *491 0.00107146
*CONN
*I *12193:A I *D sky130_fd_sc_hd__buf_12
*I *11961:X O *D sky130_fd_sc_hd__dlygate4sd3_1
*CAP
1 *12193:A 0
2 *11961:X 0.000271365
3 *491:10 0.000271365
4 *491:10 *569:14 0.00036146
5 *490:10 *491:10 0.000167266
*RES
1 *11961:X *491:10 43.6964
2 *491:10 *12193:A 38
*END

*D_NET *492 0.00139115
*CONN
*I *11965:A I *D sky130_fd_sc_hd__dlygate4sd3_1
*I *11962:X O *D sky130_fd_sc_hd__dlygate4sd3_1
*CAP
1 *11965:A 0
2 *11962:X 0.000619948
3 *492:10 0.000619948
4 *492:10 *11962:A 3.7122e-06
5 *492:10 *495:10 0
6 *492:10 *572:8 0.000101651
7 wbs_dat_o[30] *492:10 4.58924e-05
*RES
1 *11962:X *492:10 47.6321
2 *492:10 *11965:A 38
*END

*D_NET *493 0.216367
*CONN
*I *12154:DI[30] I *D CF_SRAM_1024x32
*I *12144:DI[30] I *D CF_SRAM_1024x32
*I *12124:DI[30] I *D CF_SRAM_1024x32
*I *12134:DI[30] I *D CF_SRAM_1024x32
*I *11963:X O *D sky130_fd_sc_hd__buf_12
*CAP
1 *12154:DI[30] 0.000236443
2 *12144:DI[30] 7.37919e-05
3 *12124:DI[30] 6.46306e-05
4 *12134:DI[30] 0.000142449
5 *11963:X 9.96485e-05
6 *493:59 0.017883
7 *493:57 0.0209408
8 *493:53 0.00336805
9 *493:51 0.00827166
10 *493:49 0.00827166
11 *493:32 0.0227941
12 *493:30 0.0230125
13 *493:14 0.00125644
14 *493:10 0.00495994
15 *493:8 0.00422867
16 *12144:DI[30] *12144:BEN[30] 0
17 *12144:DI[30] *638:361 2.11157e-05
18 *12154:DI[30] *12154:BEN[30] 1.28274e-05
19 *493:10 *498:16 0.00193067
20 *493:30 *550:128 7.53756e-05
21 *493:51 *498:26 0.000181531
22 *493:51 *498:47 0.034128
23 *209:9 *12124:DI[30] 2.50821e-05
24 *241:9 *12134:DI[30] 0
25 *241:9 *493:14 0
26 *273:9 *12144:DI[30] 0
27 *281:11 *12124:DI[30] 2.11157e-05
28 *305:13 *12154:DI[30] 2.62944e-05
29 *305:13 *493:57 0
30 *306:15 *12154:DI[30] 0
31 *306:15 *493:57 0
32 *458:46 *493:10 0.00045544
33 *462:56 *493:10 0.000889119
34 *467:52 *493:51 0.000389246
35 *471:18 *493:8 9.41704e-05
36 *480:14 *493:10 0.000557723
37 *484:12 *493:10 1.11421e-05
38 *484:14 *493:10 0.0131269
39 *484:55 *493:30 7.60729e-05
40 *489:10 *493:10 0.0145728
41 *489:59 *493:51 0.0341692
*RES
1 *11963:X *493:8 39.5743
2 *493:8 *493:10 203.684
3 *493:10 *493:14 27.0557
4 *493:14 *12134:DI[30] 2.27857
5 *493:14 *493:30 24.5536
6 *493:30 *493:32 65.0141
7 *493:32 *12124:DI[30] 24.4189
8 *493:30 *493:49 8
9 *493:49 *493:51 82.0549
10 *493:51 *493:53 8
11 *493:53 *493:57 9.856
12 *493:57 *493:59 55.3971
13 *493:59 *12144:DI[30] 24.4189
14 *493:53 *12154:DI[30] 25.2135
*END

*D_NET *494 0.00133979
*CONN
*I *11962:A I *D sky130_fd_sc_hd__dlygate4sd3_1
*I *11964:X O *D sky130_fd_sc_hd__dlygate4sd3_1
*CAP
1 *11962:A 0.000164004
2 *11964:X 0.000395505
3 *494:10 0.000559509
4 *494:10 *495:10 5.25997e-05
5 *494:10 *615:22 1.57571e-05
6 wbs_dat_o[30] *494:10 0.000148698
7 *492:10 *11962:A 3.7122e-06
*RES
1 *11964:X *494:10 44.2143
2 *494:10 *11962:A 41.0036
*END

*D_NET *495 0.000780245
*CONN
*I *12195:A I *D sky130_fd_sc_hd__buf_12
*I *11965:X O *D sky130_fd_sc_hd__dlygate4sd3_1
*CAP
1 *12195:A 0
2 *11965:X 0.000363823
3 *495:10 0.000363823
4 wbs_dat_o[30] *495:10 0
5 *492:10 *495:10 0
6 *494:10 *495:10 5.25997e-05
*RES
1 *11965:X *495:10 43.6964
2 *495:10 *12195:A 38
*END

*D_NET *496 0.0696005
*CONN
*I *12081:A I *D sky130_fd_sc_hd__buf_12
*I *12182:X O *D sky130_fd_sc_hd__buf_12
*CAP
1 *12081:A 0.000155423
2 *12182:X 0.000132736
3 *496:36 0.00560383
4 *496:34 0.00544841
5 *496:32 0.000736478
6 *496:20 0.00218173
7 *496:14 0.00281967
8 *496:8 0.00150715
9 *496:14 *588:16 4.6318e-06
10 *496:14 *628:75 0
11 *496:14 *628:86 0
12 *496:20 *557:12 0.00110633
13 *496:32 *557:12 5.50049e-05
14 *496:32 *575:30 0.000749726
15 *496:36 *571:18 0.0221656
16 *496:36 *575:36 0.00309661
17 *496:36 *575:38 0.000229116
18 *496:36 *576:24 0.0183417
19 *496:36 *618:14 8.5315e-05
20 *496:36 *631:212 1.13013e-05
21 *678:DIODE *496:8 2.93747e-05
22 *678:DIODE *496:14 4.48835e-05
23 *113:18 *496:20 0.000192885
24 *116:22 *496:20 0.000766606
25 *116:28 *496:14 0
26 *124:28 *496:20 0.00105411
27 *126:22 *496:14 0.00143064
28 *144:24 *496:32 0.000105749
29 *205:11 *496:36 0
30 *351:38 *496:20 0.00154549
*RES
1 *12182:X *496:8 40.5271
2 *496:8 *496:14 43.4614
3 *496:14 *496:20 48.7821
4 *496:20 *496:32 43.6714
5 *496:32 *496:34 15
6 *496:34 *496:36 292.776
7 *496:36 *12081:A 40.0507
*END

*D_NET *497 6.87633e-05
*CONN
*I *11969:A I *D sky130_fd_sc_hd__dlygate4sd3_1
*I *11966:X O *D sky130_fd_sc_hd__dlygate4sd3_1
*CAP
1 *11969:A 3.43816e-05
2 *11966:X 3.43816e-05
*RES
1 *11966:X *11969:A 46.6214
*END

*D_NET *498 0.208558
*CONN
*I *12134:DI[31] I *D CF_SRAM_1024x32
*I *12154:DI[31] I *D CF_SRAM_1024x32
*I *12144:DI[31] I *D CF_SRAM_1024x32
*I *12124:DI[31] I *D CF_SRAM_1024x32
*I *11967:X O *D sky130_fd_sc_hd__buf_12
*CAP
1 *12134:DI[31] 0.000143753
2 *12154:DI[31] 0.000274865
3 *12144:DI[31] 6.04219e-05
4 *12124:DI[31] 6.21705e-05
5 *11967:X 7.52485e-05
6 *498:55 0.0181825
7 *498:53 0.0211483
8 *498:49 0.00330111
9 *498:47 0.00917503
10 *498:30 0.022702
11 *498:28 0.0226398
12 *498:26 0.00955027
13 *498:20 0.00163237
14 *498:16 0.0126118
15 *498:12 0.0115737
16 *12134:DI[31] *550:148 0.000153328
17 *12144:DI[31] *12144:BEN[31] 2.11157e-05
18 *12154:DI[31] *12154:BEN[31] 4.755e-05
19 *210:9 *12124:DI[31] 2.71067e-05
20 *242:9 *12134:DI[31] 0
21 *274:10 *12144:DI[31] 3.06338e-05
22 *274:10 *498:55 0.00035296
23 *281:11 *12124:DI[31] 2.11157e-05
24 *303:23 *498:47 0
25 *306:15 *12154:DI[31] 2.67189e-05
26 *306:15 *498:53 0
27 *454:52 *498:16 0.00051291
28 *458:46 *498:16 0.000366587
29 *462:56 *498:16 0.000266724
30 *467:52 *498:26 0.000186784
31 *467:52 *498:47 0.028958
32 *476:14 *498:12 2.5343e-05
33 *476:16 *498:16 0.00225042
34 *476:56 *498:47 0.000923892
35 *480:18 *498:16 0.00200673
36 *484:14 *498:16 0.00101265
37 *484:55 *12134:DI[31] 0.000155136
38 *489:10 *498:16 0.00183844
39 *493:10 *498:16 0.00193067
40 *493:51 *498:26 0.000181531
41 *493:51 *498:47 0.034128
*RES
1 *11967:X *498:12 46.42
2 *498:12 *498:16 45.5013
3 *498:16 *498:20 10.5032
4 *498:20 *498:26 9.1368
5 *498:26 *498:28 8
6 *498:28 *498:30 64.8424
7 *498:30 *12124:DI[31] 24.4189
8 *498:26 *498:47 82.0549
9 *498:47 *498:49 8
10 *498:49 *498:53 9.68427
11 *498:53 *498:55 55.3971
12 *498:55 *12144:DI[31] 24.4189
13 *498:49 *12154:DI[31] 25.3023
14 *498:20 *12134:DI[31] 26.5318
*END

*D_NET *499 0.000503342
*CONN
*I *11966:A I *D sky130_fd_sc_hd__dlygate4sd3_1
*I *11968:X O *D sky130_fd_sc_hd__dlygate4sd3_1
*CAP
1 *11966:A 5.145e-05
2 *11968:X 6.64111e-05
3 *499:8 0.000117861
4 *499:8 *12243:A 0.00013381
5 *499:8 *573:10 0.00013381
*RES
1 *11968:X *499:8 39.9057
2 *499:8 *11966:A 38.6214
*END

*D_NET *500 0.000713335
*CONN
*I *12196:A I *D sky130_fd_sc_hd__buf_12
*I *11969:X O *D sky130_fd_sc_hd__dlygate4sd3_1
*CAP
1 *12196:A 0
2 *11969:X 0.000356667
3 *500:10 0.000356667
4 wbs_dat_o[31] *500:10 0
*RES
1 *11969:X *500:10 43.6964
2 *500:10 *12196:A 38
*END

*D_NET *501 0.000375278
*CONN
*I *12000:A I *D sky130_fd_sc_hd__dlygate4sd3_1
*I *11970:X O *D sky130_fd_sc_hd__dlygate4sd3_1
*CAP
1 *12000:A 0
2 *11970:X 9.98058e-05
3 *501:8 9.98058e-05
4 *501:8 *596:16 8.78333e-05
5 *501:8 *618:14 8.78333e-05
*RES
1 *11970:X *501:8 40.61
2 *501:8 *12000:A 38
*END

*D_NET *502 0.199998
*CONN
*I *12154:AD[3] I *D CF_SRAM_1024x32
*I *12144:AD[3] I *D CF_SRAM_1024x32
*I *12134:AD[3] I *D CF_SRAM_1024x32
*I *12124:AD[3] I *D CF_SRAM_1024x32
*I *11972:X O *D sky130_fd_sc_hd__buf_12
*CAP
1 *12154:AD[3] 0.000163208
2 *12144:AD[3] 0.00140471
3 *12134:AD[3] 8.99431e-05
4 *12124:AD[3] 0.00139416
5 *11972:X 0.000120266
6 *502:80 0.0233868
7 *502:62 0.0246283
8 *502:60 0.00630347
9 *502:58 0.0065972
10 *502:38 0.016356
11 *502:36 0.0162661
12 *502:31 7.87003e-07
13 *502:22 0.00170895
14 *502:20 0.000607991
15 *502:10 0.00237095
16 *502:8 0.00249254
17 *12124:AD[3] *12124:AD[9] 0
18 *12134:AD[3] *12134:AD[9] 0
19 *12144:AD[3] *12144:AD[9] 0
20 *12154:AD[3] *12154:AD[9] 0
21 *502:10 *504:68 0.00452649
22 *502:10 *504:84 0.00119377
23 *502:10 *509:20 3.08869e-05
24 *502:38 *509:40 0.0165786
25 *502:58 *504:66 2.66772e-05
26 *502:60 *524:20 0.00143678
27 *502:60 *524:52 0.0246599
28 *12124:ScanInCC *12124:AD[3] 0.00106961
29 *12124:ScanInCC *502:31 1.32314e-05
30 *12134:ScanInCC *12134:AD[3] 0.000120953
31 *12144:ScanInCC *12144:AD[3] 0.000403861
32 *12154:ScanInCC *12154:AD[3] 0.000180559
33 *201:7 *502:8 0.000261206
34 *218:17 *502:38 9.10417e-05
35 *225:42 *12134:AD[3] 1.68067e-05
36 *228:13 *12134:AD[3] 1.68067e-05
37 *258:23 *502:8 0.000132311
38 *282:21 *502:80 0.000462243
39 *311:27 *502:60 0.000653937
40 *369:10 *502:10 1.84049e-05
41 *369:18 *502:10 0.000524269
42 *369:20 *502:10 1.11421e-05
43 *395:50 *502:10 7.45278e-05
44 *395:50 *502:58 7.18001e-05
45 *395:58 *502:60 0.00292156
46 *415:10 *502:20 0.000578229
47 *415:10 *502:22 2.34364e-05
48 *415:18 *12124:AD[3] 2.31209e-05
49 *415:18 *502:20 7.60871e-06
50 *415:18 *502:22 0.000826543
51 *415:56 *502:58 3.40475e-05
52 *417:70 *502:10 0.00016629
53 *424:28 *502:10 2.34364e-05
54 *424:30 *502:10 0.00394205
55 *424:30 *502:20 0.000526078
56 *424:34 *12124:AD[3] 2.11157e-05
57 *424:34 *502:20 2.55241e-05
58 *424:34 *502:22 0.000889598
59 *424:68 *502:60 0.0248738
60 *432:54 *12154:AD[3] 3.87221e-06
61 *438:18 *502:10 0.0028249
62 *438:44 *502:38 0
63 *438:74 *502:10 0.000164291
64 *438:74 *502:58 0.00025369
65 *438:98 *12144:AD[3] 2.56801e-05
66 *438:98 *502:80 0.00531228
67 *462:32 *502:58 4.35184e-05
68 *480:58 *12154:AD[3] 2.05503e-05
*RES
1 *11972:X *502:8 41.0036
2 *502:8 *502:10 92.7586
3 *502:10 *502:20 39.4354
4 *502:20 *502:22 12.1179
5 *502:22 *12124:AD[3] 36.4289
6 *12124:AD[3] *502:31 0.15037
7 *502:22 *502:36 8
8 *502:36 *502:38 61.88
9 *502:38 *12134:AD[3] 24.7555
10 *502:8 *502:58 19.761
11 *502:58 *502:60 61.2379
12 *502:60 *502:62 8
13 *502:62 *12144:AD[3] 43.7372
14 *502:62 *502:80 62.0947
15 *502:80 *12154:AD[3] 25.9052
*END

*D_NET *503 0.000769391
*CONN
*I *12005:A I *D sky130_fd_sc_hd__dlygate4sd3_1
*I *11973:X O *D sky130_fd_sc_hd__dlygate4sd3_1
*CAP
1 *12005:A 0.000183797
2 *11973:X 0.000113564
3 *503:8 0.000297361
4 *503:8 *621:20 8.78333e-05
5 *319:14 *503:8 8.68369e-05
*RES
1 *11973:X *503:8 40.61
2 *503:8 *12005:A 41.0036
*END

*D_NET *504 0.194452
*CONN
*I *12134:AD[4] I *D CF_SRAM_1024x32
*I *12124:AD[4] I *D CF_SRAM_1024x32
*I *12154:AD[4] I *D CF_SRAM_1024x32
*I *12144:AD[4] I *D CF_SRAM_1024x32
*I *11974:X O *D sky130_fd_sc_hd__buf_12
*CAP
1 *12134:AD[4] 9.00079e-05
2 *12124:AD[4] 0.00147534
3 *12154:AD[4] 0.000161261
4 *12144:AD[4] 0.000883403
5 *11974:X 0.000139642
6 *504:100 0.014588
7 *504:98 0.014498
8 *504:84 0.00203277
9 *504:82 0.00140065
10 *504:68 0.0021531
11 *504:66 0.00224478
12 *504:40 0.016374
13 *504:20 0.0170962
14 *504:18 0.00928026
15 *504:16 0.00928026
16 *504:14 0.00107454
17 *12124:AD[4] *12124:AD[5] 0.000399012
18 *12124:AD[4] *506:38 0.000477257
19 *12134:AD[4] *12134:AD[5] 5.56933e-05
20 *12144:AD[4] *12144:AD[5] 0.000242975
21 *12154:AD[4] *12154:AD[5] 5.49244e-05
22 *504:14 *506:8 2.11066e-05
23 *504:18 *511:20 0.000318523
24 *504:18 *511:52 0.0148141
25 *504:40 *12144:AD[5] 0.000172247
26 *504:40 *506:82 0.0172929
27 *504:40 *520:76 0
28 *504:66 *524:20 0.0007517
29 *504:68 *509:8 2.15604e-05
30 *504:82 *524:20 0.000418656
31 *504:84 *12124:AD[2] 0.000120992
32 *504:84 *509:20 0.000126148
33 *504:100 *506:40 0.0326995
34 *504:100 *520:38 0
35 *203:11 *504:14 2.5343e-05
36 *228:9 *12134:AD[4] 2.11157e-05
37 *231:13 *12134:AD[4] 2.11157e-05
38 *250:11 *504:18 0.00145211
39 *257:11 *12144:AD[4] 1.09886e-05
40 *257:11 *504:18 0.000973382
41 *273:11 *504:18 0.000992348
42 *355:8 *504:18 0.0010129
43 *360:10 *504:84 0.000211933
44 *360:12 *12124:AD[4] 2.11157e-05
45 *360:12 *504:84 0.00141014
46 *369:10 *504:68 0.000359779
47 *369:20 *504:84 2.15604e-05
48 *369:72 *504:82 8.732e-05
49 *369:74 *504:18 0.0153687
50 *417:70 *504:68 0.00407992
51 *424:14 *504:66 2.55744e-05
52 *424:30 *504:82 0.000100834
53 *424:30 *504:84 0.000197617
54 *424:34 *12124:AD[4] 2.31209e-05
55 *424:34 *504:84 0.000104869
56 *424:66 *504:66 0.000104003
57 *424:68 *504:66 0.00074782
58 *426:32 *504:82 3.59467e-05
59 *432:54 *12154:AD[4] 4.36401e-06
60 *458:18 *504:66 1.66359e-05
61 *462:32 *504:14 9.12162e-05
62 *462:32 *504:66 0.000402596
63 *480:58 *12154:AD[4] 2.11157e-05
64 *502:10 *504:68 0.00452649
65 *502:10 *504:84 0.00119377
66 *502:58 *504:66 2.66772e-05
*RES
1 *11974:X *504:14 47.1273
2 *504:14 *504:16 8
3 *504:16 *504:18 63.5227
4 *504:18 *504:20 8
5 *504:20 *12144:AD[4] 38.9448
6 *504:20 *504:40 62.9963
7 *504:40 *12154:AD[4] 25.6048
8 *504:14 *504:66 27.1043
9 *504:66 *504:68 60.0093
10 *504:68 *504:82 34.2027
11 *504:82 *504:84 24.0907
12 *504:84 *12124:AD[4] 37.6562
13 *504:84 *504:98 8
14 *504:98 *504:100 61.6224
15 *504:100 *12134:AD[4] 24.6934
*END

*D_NET *505 0.000441979
*CONN
*I *12007:A I *D sky130_fd_sc_hd__dlygate4sd3_1
*I *11975:X O *D sky130_fd_sc_hd__dlygate4sd3_1
*CAP
1 *12007:A 4.03741e-05
2 *11975:X 0.00011116
3 *505:8 0.000151534
4 *12007:A *592:12 0.000100061
5 *341:10 *505:8 3.88504e-05
*RES
1 *11975:X *505:8 39.9057
2 *505:8 *12007:A 39.0979
*END

*D_NET *506 0.19243
*CONN
*I *12154:AD[5] I *D CF_SRAM_1024x32
*I *12144:AD[5] I *D CF_SRAM_1024x32
*I *12134:AD[5] I *D CF_SRAM_1024x32
*I *12124:AD[5] I *D CF_SRAM_1024x32
*I *11976:X O *D sky130_fd_sc_hd__buf_12
*CAP
1 *12154:AD[5] 0.00017651
2 *12144:AD[5] 0.00144824
3 *12134:AD[5] 6.79522e-05
4 *12124:AD[5] 0.000576081
5 *11976:X 0
6 *506:82 0.0115308
7 *506:64 0.0128025
8 *506:62 0.0100143
9 *506:60 0.0105514
10 *506:54 0.00336673
11 *506:40 0.012108
12 *506:38 0.0128235
13 *506:27 7.58282e-06
14 *506:22 0.00135189
15 *506:20 0.000912731
16 *506:18 0.00153692
17 *506:8 0.00407509
18 *506:6 0.00628055
19 *12124:AD[5] *12124:AD[6] 0
20 *12134:AD[5] *12134:AD[6] 0
21 *12144:AD[5] *12144:AD[6] 0.000151964
22 *12154:AD[5] *12154:AD[6] 0
23 *506:8 *637:12 0.000462818
24 *506:20 *575:38 0.00362
25 *506:38 *12124:AD[6] 0
26 *506:40 *515:28 0.00549674
27 *506:54 *637:12 0.000610622
28 *506:62 *12144:AD[6] 2.21614e-05
29 *506:62 *12144:AD[7] 2.21614e-05
30 *506:62 *12144:AD[8] 2.27197e-05
31 *506:62 *12144:AD[9] 2.27197e-05
32 *506:62 *509:68 0.0102042
33 *506:82 *509:74 0.0112734
34 *12124:AD[4] *12124:AD[5] 0.000399012
35 *12124:AD[4] *506:38 0.000477257
36 *12134:AD[4] *12134:AD[5] 5.56933e-05
37 *12144:AD[4] *12144:AD[5] 0.000242975
38 *12154:AD[4] *12154:AD[5] 5.49244e-05
39 *129:10 *506:54 0.000342288
40 *203:11 *506:8 0.000429696
41 *203:11 *506:18 0.000159975
42 *203:11 *506:54 7.20415e-05
43 *205:11 *506:20 0.00362225
44 *228:9 *12134:AD[5] 1.54809e-05
45 *231:13 *12134:AD[5] 1.54809e-05
46 *250:11 *506:54 0.00169367
47 *283:27 *506:62 0.00370429
48 *311:27 *506:62 2.56923e-05
49 *369:74 *506:8 0.000628741
50 *369:74 *506:54 0.000534421
51 *395:58 *506:62 0.0040478
52 *395:77 *506:62 2.05503e-05
53 *400:18 *506:8 0.00214674
54 *400:20 *506:18 0.000105035
55 *400:74 *506:8 0.0013259
56 *400:82 *506:62 0
57 *400:101 *506:62 2.05503e-05
58 *402:56 *506:62 0
59 *402:72 *506:62 0.000194078
60 *409:50 *506:38 2.31209e-05
61 *415:18 *506:38 2.11157e-05
62 *415:60 *506:62 0
63 *415:78 *506:62 0.000130957
64 *432:54 *12154:AD[5] 4.35681e-06
65 *438:80 *506:60 0.000168472
66 *438:82 *506:62 0
67 *438:96 *506:62 0
68 *480:58 *12154:AD[5] 2.11066e-05
69 *504:14 *506:8 2.11066e-05
70 *504:40 *12144:AD[5] 0.000172247
71 *504:40 *506:82 0.0172929
72 *504:100 *506:40 0.0326995
*RES
1 *11976:X *506:6 38
2 *506:6 *506:8 64.0589
3 *506:8 *506:18 38.5654
4 *506:18 *506:20 47.6843
5 *506:20 *506:22 15
6 *506:22 *12124:AD[5] 9.19714
7 *12124:AD[5] *506:27 0.160536
8 *506:22 *506:38 34.4239
9 *506:38 *506:40 61.9659
10 *506:40 *12134:AD[5] 24.2584
11 *506:6 *506:54 48.3886
12 *506:54 *506:60 36.815
13 *506:60 *506:62 293.656
14 *506:62 *506:64 8
15 *506:64 *12144:AD[5] 43.6101
16 *506:64 *506:82 61.7941
17 *506:82 *12154:AD[5] 25.9259
*END

*D_NET *507 0.0629701
*CONN
*I *12105:A I *D sky130_fd_sc_hd__buf_12
*I *12183:X O *D sky130_fd_sc_hd__buf_12
*CAP
1 *12105:A 0
2 *12183:X 0.000522339
3 *507:26 0.000725905
4 *507:16 0.0236105
5 *507:14 0.0263963
6 *507:8 0.00403401
7 *507:14 *518:18 0.000328203
8 *507:14 *541:12 0.000148806
9 *507:14 *611:28 0.000146458
10 *507:14 *612:26 0.000250695
11 *507:14 *615:14 0.000368814
12 *669:DIODE *507:8 0
13 *1012:DIODE *507:26 9.28078e-06
14 *12110:A *507:8 0.000393505
15 *164:24 *507:8 9.28078e-06
16 *164:24 *507:14 0.000217777
17 *166:14 *507:14 0.000467211
18 *176:22 *507:14 0.000302659
19 *182:84 *507:14 0.000134607
20 *304:23 *507:26 0.00046017
21 *311:23 *507:26 0.00046017
22 *453:8 *507:8 0
23 *455:10 *507:8 0.000339381
24 *485:14 *507:14 0.00364394
*RES
1 *12183:X *507:8 48.1811
2 *507:8 *507:14 25.716
3 *507:14 *507:16 78.2469
4 *507:16 *507:26 37.6978
5 *507:26 *12105:A 23
*END

*D_NET *508 0.00183239
*CONN
*I *12002:A I *D sky130_fd_sc_hd__dlygate4sd3_1
*I *11977:X O *D sky130_fd_sc_hd__dlygate4sd3_1
*CAP
1 *12002:A 0
2 *11977:X 0.000414786
3 *508:10 0.000414786
4 *508:10 *11977:A 0.000343684
5 *508:10 *532:8 0.000149053
6 wbs_dat_o[7] *508:10 9.64943e-05
7 *12001:A *508:10 0
8 *69:13 *508:10 0.000413591
*RES
1 *11977:X *508:10 47.7357
2 *508:10 *12002:A 38
*END

*D_NET *509 0.208736
*CONN
*I *12144:AD[6] I *D CF_SRAM_1024x32
*I *12154:AD[6] I *D CF_SRAM_1024x32
*I *12124:AD[6] I *D CF_SRAM_1024x32
*I *12134:AD[6] I *D CF_SRAM_1024x32
*I *11978:X O *D sky130_fd_sc_hd__buf_12
*CAP
1 *12144:AD[6] 0.00149825
2 *12154:AD[6] 0.000157759
3 *12124:AD[6] 0.00252522
4 *12134:AD[6] 0.000389984
5 *11978:X 0
6 *509:74 0.0100591
7 *509:72 0.00990139
8 *509:70 0.00154399
9 *509:68 0.0144413
10 *509:58 0.00252522
11 *509:40 0.0231351
12 *509:38 0.0229137
13 *509:34 0.00113842
14 *509:28 0.0015773
15 *509:20 0.000813379
16 *509:8 0.00195688
17 *509:6 0.0161465
18 *12124:AD[6] *12124:AD[7] 0.000997835
19 *12124:AD[6] *12124:AD[8] 0
20 *12134:AD[6] *12134:AD[7] 0.000119078
21 *12134:AD[6] *12134:AD[9] 0.000200768
22 *12144:AD[6] *12144:AD[7] 0.000341707
23 *12154:AD[6] *12154:AD[7] 0.00013856
24 *509:8 *12217:A 8.63978e-05
25 *509:8 *517:10 0.00543053
26 *509:8 *547:28 0.000283695
27 *509:34 *517:18 6.17437e-06
28 *509:34 *578:10 0.000879581
29 *509:38 *578:10 0.000486957
30 *509:68 *11823:S 0.000149184
31 *509:68 *12144:AD[7] 2.05503e-05
32 *509:68 *12144:AD[8] 2.11066e-05
33 *509:68 *12144:AD[9] 2.11066e-05
34 *509:68 *517:10 0.0012468
35 *509:68 *517:56 0
36 *509:68 *635:29 0.000577828
37 *509:68 *635:37 0.00026813
38 *509:68 *635:48 0.000646113
39 *509:68 *635:59 0.000204439
40 *509:68 *636:20 0.00047846
41 *509:68 *636:43 0.00147569
42 *509:68 *636:47 2.64173e-05
43 *509:68 *636:66 0.000665647
44 *509:68 *636:68 0
45 *509:68 *636:87 0
46 *509:74 *12144:AD[7] 0.000518192
47 *509:74 *515:84 0.0323759
48 *12124:AD[5] *12124:AD[6] 0
49 *12124:DI[16] *509:20 1.05235e-05
50 *12134:AD[5] *12134:AD[6] 0
51 *12144:AD[5] *12144:AD[6] 0.000151964
52 *12154:AD[5] *12154:AD[6] 0
53 *185:10 *509:34 0.000869438
54 *185:10 *509:38 0.000489653
55 *225:18 *12134:AD[6] 9.12438e-05
56 *225:30 *12134:AD[6] 0.00011794
57 *225:42 *12134:AD[6] 7.23207e-05
58 *228:13 *12134:AD[6] 1.82348e-05
59 *259:23 *509:68 0.00041834
60 *278:29 *509:68 0.000185212
61 *283:27 *509:68 1.42006e-05
62 *293:35 *509:68 2.30462e-05
63 *309:72 *509:68 8.29264e-05
64 *313:73 *509:68 0.000189157
65 *360:10 *509:28 0.000168472
66 *369:10 *509:8 0.000412479
67 *369:18 *509:8 0.000136691
68 *369:20 *509:20 0.000191276
69 *371:70 *509:68 0
70 *382:88 *12134:AD[6] 0.000438267
71 *387:10 *509:28 0.00108929
72 *393:12 *509:28 0.00108713
73 *393:49 *509:68 0
74 *417:10 *509:68 0.000428406
75 *417:22 *509:68 0
76 *417:70 *509:8 0.00445095
77 *417:70 *509:68 0.000434859
78 *432:54 *12154:AD[6] 4.36401e-06
79 *438:74 *509:68 0.000491634
80 *480:58 *12154:AD[6] 2.11157e-05
81 *502:10 *509:20 3.08869e-05
82 *502:38 *509:40 0.0165786
83 *504:68 *509:8 2.15604e-05
84 *504:84 *509:20 0.000126148
85 *506:38 *12124:AD[6] 0
86 *506:62 *12144:AD[6] 2.21614e-05
87 *506:62 *509:68 0.0102042
88 *506:82 *509:74 0.0112734
*RES
1 *11978:X *509:6 38
2 *509:6 *509:8 73.0386
3 *509:8 *509:20 49.4329
4 *509:20 *509:28 48.5393
5 *509:28 *509:34 36.0871
6 *509:34 *509:38 14.6596
7 *509:38 *509:40 59.3899
8 *509:40 *12134:AD[6] 31.7052
9 *509:34 *509:58 15
10 *509:58 *12124:AD[6] 37.1252
11 *509:6 *509:68 353.52
12 *509:68 *509:70 0.621429
13 *509:70 *509:72 8
14 *509:72 *509:74 61.7083
15 *509:74 *12154:AD[6] 25.8948
16 *509:70 *12144:AD[6] 38.5884
*END

*D_NET *510 0.00264212
*CONN
*I *12009:A I *D sky130_fd_sc_hd__dlygate4sd3_1
*I *11979:X O *D sky130_fd_sc_hd__dlygate4sd3_1
*CAP
1 *12009:A 4.24639e-05
2 *11979:X 0.00037709
3 *510:10 0.000419554
4 *12009:A *592:12 2.64616e-05
5 *510:10 *11979:A 0.000182826
6 *510:10 *618:10 0.000262913
7 *510:10 *619:16 0.000516897
8 *510:10 *620:22 0.000408839
9 *32:9 *510:10 0.000405076
*RES
1 *11979:X *510:10 49.6414
2 *510:10 *12009:A 38.6214
*END

*D_NET *511 0.21821
*CONN
*I *12154:AD[2] I *D CF_SRAM_1024x32
*I *12144:AD[2] I *D CF_SRAM_1024x32
*I *12134:AD[2] I *D CF_SRAM_1024x32
*I *12124:AD[2] I *D CF_SRAM_1024x32
*I *11980:X O *D sky130_fd_sc_hd__buf_12
*CAP
1 *12154:AD[2] 0.000151791
2 *12144:AD[2] 0.000874729
3 *12134:AD[2] 0.000153784
4 *12124:AD[2] 0.00169635
5 *11980:X 0.000146793
6 *511:83 0
7 *511:72 0.0117242
8 *511:67 0
9 *511:54 0.0124472
10 *511:52 0.00954495
11 *511:47 0
12 *511:36 0.0111587
13 *511:20 0.0158711
14 *511:14 0.0127147
15 *511:12 0.000146793
16 *12124:AD[2] *12124:AD[1] 0.000307401
17 *12134:AD[2] *12134:AD[0] 0
18 *12134:AD[2] *12134:AD[1] 8.21829e-05
19 *12144:AD[2] *12144:AD[1] 0.00135701
20 *12154:AD[2] *12154:AD[1] 0.000179508
21 *511:20 *12124:AD[1] 0.000109192
22 *511:20 *520:18 0.00754291
23 *511:20 *520:38 0.000295457
24 *511:20 *524:20 2.35619e-05
25 *511:20 *524:36 1.89413e-05
26 *511:20 *577:16 0.00503317
27 *511:36 *520:38 0.0327093
28 *511:36 *524:36 0.00850017
29 *511:52 *520:18 0.000434083
30 *511:52 *520:52 0.0254337
31 *511:52 *524:52 2.56994e-05
32 *511:72 *12144:AD[0] 2.1297e-05
33 *511:72 *520:76 0.0332865
34 *511:72 *524:72 0.00565151
35 *139:22 *12124:AD[2] 0.000254034
36 *181:47 *511:20 1.58405e-05
37 *225:18 *12134:AD[2] 0.000102785
38 *228:9 *12134:AD[2] 9.92606e-05
39 *257:11 *12144:AD[2] 2.15048e-05
40 *350:8 *12124:AD[2] 2.94414e-05
41 *351:8 *12124:AD[2] 0.000135464
42 *369:74 *511:20 0.00077675
43 *395:10 *511:20 0.000655435
44 *409:14 *511:12 4.97925e-05
45 *424:30 *12124:AD[2] 0.000120992
46 *432:54 *12154:AD[2] 2.61527e-06
47 *438:82 *511:52 0.00299893
48 *467:34 *511:12 7.51431e-06
49 *480:58 *12154:AD[2] 4.30894e-05
50 *504:18 *511:20 0.000318523
51 *504:18 *511:52 0.0148141
52 *504:84 *12124:AD[2] 0.000120992
*RES
1 *11980:X *511:12 46.858
2 *511:12 *511:14 8
3 *511:14 *511:20 27.3741
4 *511:20 *12124:AD[2] 46.7645
5 *511:20 *511:36 61.88
6 *511:36 *12134:AD[2] 26.4282
7 *12134:AD[2] *511:47 0.213684
8 *511:14 *511:52 63.5227
9 *511:52 *511:54 8
10 *511:54 *12144:AD[2] 39.5063
11 *12144:AD[2] *511:67 0.15037
12 *511:54 *511:72 62.6099
13 *511:72 *12154:AD[2] 25.7239
14 *12154:AD[2] *511:83 0.15037
*END

*D_NET *512 0.000488691
*CONN
*I *11996:A I *D sky130_fd_sc_hd__dlygate4sd3_1
*I *11981:X O *D sky130_fd_sc_hd__dlygate4sd3_1
*CAP
1 *11996:A 0
2 *11981:X 0.000194315
3 *512:10 0.000194315
4 *512:10 *630:64 0.000100061
*RES
1 *11981:X *512:10 41.0036
2 *512:10 *11996:A 38
*END

*D_NET *513 0.20859
*CONN
*I *12154:AD[8] I *D CF_SRAM_1024x32
*I *12144:AD[8] I *D CF_SRAM_1024x32
*I *12134:AD[8] I *D CF_SRAM_1024x32
*I *12124:AD[8] I *D CF_SRAM_1024x32
*I *11983:X O *D sky130_fd_sc_hd__buf_12
*CAP
1 *12154:AD[8] 0.000175016
2 *12144:AD[8] 0.00158283
3 *12134:AD[8] 0.00013421
4 *12124:AD[8] 0.00191709
5 *11983:X 0
6 *513:77 0.010558
7 *513:75 0.0115091
8 *513:54 0.00270892
9 *513:52 0.0116331
10 *513:50 0.0117947
11 *513:28 0.0194761
12 *513:26 0.0193419
13 *513:12 0.00194597
14 *513:10 0.00327194
15 *513:8 0.00339416
16 *513:4 0.000312672
17 *12124:AD[8] *12124:AD[7] 0
18 *12124:AD[8] *12124:AD[9] 6.79359e-05
19 *12124:AD[8] *517:28 4.15283e-06
20 *12134:AD[8] *12134:AD[7] 0
21 *12134:AD[8] *12134:AD[9] 0.000196668
22 *12144:AD[8] *12144:AD[7] 6.6172e-05
23 *12144:AD[8] *12144:AD[9] 0.00149407
24 *12144:AD[8] *515:84 6.98299e-06
25 *12144:AD[8] *517:76 0.000213388
26 *12154:AD[8] *12154:AD[7] 0
27 *12154:AD[8] *12154:AD[9] 5.49244e-05
28 *513:10 *515:10 0.00224907
29 *513:10 *515:22 0.000743526
30 *513:10 *515:26 2.05503e-05
31 *513:10 *517:10 0.00781805
32 *513:10 *517:28 6.39383e-05
33 *513:10 *635:10 0.000186054
34 *513:10 *635:29 0.000179149
35 *513:28 *515:28 1.79829e-05
36 *513:28 *517:28 0.000185355
37 *513:28 *517:38 0.0323552
38 *513:52 *515:62 0.025234
39 *513:75 *515:84 0.000455804
40 *513:75 *517:76 0.00276125
41 *513:77 *515:84 0.00777706
42 *513:77 *517:76 0.0155262
43 *981:DIODE *513:10 0.000160906
44 *11976:A *513:8 0.000300209
45 *12124:AD[6] *12124:AD[8] 0
46 *178:16 *513:10 0.00018199
47 *178:18 *513:10 0.000185913
48 *181:51 *513:52 0
49 *228:13 *12134:AD[8] 0.000106886
50 *282:27 *513:52 0.000199945
51 *310:25 *513:8 0.000148185
52 *362:76 *513:52 0.00669442
53 *369:20 *12124:AD[8] 2.27289e-05
54 *369:20 *513:10 0.000109747
55 *371:18 *513:10 0.00284857
56 *389:52 *513:50 2.11157e-05
57 *417:64 *513:50 2.31209e-05
58 *432:54 *12154:AD[8] 4.36401e-06
59 *467:34 *513:50 8.36764e-05
60 *480:58 *12154:AD[8] 2.11157e-05
61 *506:62 *12144:AD[8] 2.27197e-05
62 *509:68 *12144:AD[8] 2.11066e-05
*RES
1 *11983:X *513:4 23
2 *513:4 *513:8 18.48
3 *513:8 *513:10 118.993
4 *513:10 *513:12 0.621429
5 *513:12 *12124:AD[8] 40.0798
6 *513:12 *513:26 8
7 *513:26 *513:28 61.4507
8 *513:28 *12134:AD[8] 26.0191
9 *513:4 *513:50 31.6776
10 *513:50 *513:52 60.4763
11 *513:52 *513:54 8
12 *513:54 *12144:AD[8] 47.0734
13 *513:54 *513:75 5.4768
14 *513:75 *513:77 55.3112
15 *513:77 *12154:AD[8] 25.8948
*END

*D_NET *514 0.000700677
*CONN
*I *11998:A I *D sky130_fd_sc_hd__dlygate4sd3_1
*I *11984:X O *D sky130_fd_sc_hd__dlygate4sd3_1
*CAP
1 *11998:A 0
2 *11984:X 0.000325002
3 *514:10 0.000325002
4 *514:10 *540:14 2.11851e-05
5 *352:8 *514:10 2.94881e-05
*RES
1 *11984:X *514:10 42.4329
2 *514:10 *11998:A 38
*END

*D_NET *515 0.205553
*CONN
*I *12154:AD[7] I *D CF_SRAM_1024x32
*I *12144:AD[7] I *D CF_SRAM_1024x32
*I *12124:AD[7] I *D CF_SRAM_1024x32
*I *12134:AD[7] I *D CF_SRAM_1024x32
*I *11985:X O *D sky130_fd_sc_hd__buf_12
*CAP
1 *12154:AD[7] 0.000150447
2 *12144:AD[7] 0.00187344
3 *12124:AD[7] 0.00176393
4 *12134:AD[7] 0.000102989
5 *11985:X 9.93713e-05
6 *515:84 0.0103974
7 *515:64 0.0121204
8 *515:62 0.0143007
9 *515:60 0.0146511
10 *515:28 0.0134323
11 *515:26 0.0133444
12 *515:22 0.00201018
13 *515:18 0.00115013
14 *515:10 0.00332578
15 *515:8 0.00285674
16 *515:8 *550:28 0.000175903
17 *515:10 *635:10 0.000186054
18 *515:10 *635:29 0.000189157
19 *515:28 *517:28 7.7703e-05
20 *515:28 *517:38 0.016965
21 *515:62 *517:56 0.0021812
22 *981:DIODE *515:10 0.000284483
23 *12124:AD[6] *12124:AD[7] 0.000997835
24 *12124:AD[8] *12124:AD[7] 0
25 *12134:AD[6] *12134:AD[7] 0.000119078
26 *12134:AD[8] *12134:AD[7] 0
27 *12144:AD[6] *12144:AD[7] 0.000341707
28 *12144:AD[8] *12144:AD[7] 6.6172e-05
29 *12144:AD[8] *515:84 6.98299e-06
30 *12154:AD[6] *12154:AD[7] 0.00013856
31 *12154:AD[8] *12154:AD[7] 0
32 *178:16 *515:18 0.00191123
33 *181:51 *515:62 0
34 *225:18 *12134:AD[7] 2.41963e-05
35 *228:13 *12134:AD[7] 2.41963e-05
36 *293:35 *515:10 0.000298656
37 *293:35 *515:60 1.37048e-05
38 *304:41 *515:8 6.70361e-05
39 *369:20 *515:22 0.000736949
40 *369:20 *515:26 2.21614e-05
41 *371:16 *515:10 0.000240952
42 *371:18 *515:10 0.000645749
43 *371:18 *515:18 1.82756e-05
44 *371:70 *515:10 0.00549031
45 *371:70 *515:60 2.11157e-05
46 *387:10 *515:10 6.71945e-05
47 *387:10 *515:18 0.00196815
48 *389:52 *515:62 0.00251678
49 *417:18 *515:62 0.00255546
50 *417:22 *515:62 0.000185018
51 *417:78 *515:10 0.000479915
52 *432:54 *12154:AD[7] 4.36401e-06
53 *467:34 *515:60 0
54 *471:102 *515:60 0
55 *480:58 *12154:AD[7] 2.05503e-05
56 *506:40 *515:28 0.00549674
57 *506:62 *12144:AD[7] 2.21614e-05
58 *509:68 *12144:AD[7] 2.05503e-05
59 *509:74 *12144:AD[7] 0.000518192
60 *509:74 *515:84 0.0323759
61 *513:10 *515:10 0.00224907
62 *513:10 *515:22 0.000743526
63 *513:10 *515:26 2.05503e-05
64 *513:28 *515:28 1.79829e-05
65 *513:52 *515:62 0.025234
66 *513:75 *515:84 0.000455804
67 *513:77 *515:84 0.00777706
*RES
1 *11985:X *515:8 40.0507
2 *515:8 *515:10 85.8918
3 *515:10 *515:18 44.4039
4 *515:18 *515:22 25.005
5 *515:22 *515:26 8.32107
6 *515:26 *515:28 61.4507
7 *515:28 *12134:AD[7] 24.8798
8 *515:22 *12124:AD[7] 39.1166
9 *515:8 *515:60 16.9352
10 *515:60 *515:62 60.0955
11 *515:62 *515:64 8
12 *515:64 *12144:AD[7] 47.1347
13 *515:64 *515:84 60.7208
14 *515:84 *12154:AD[7] 25.4598
*END

*D_NET *516 0.00026505
*CONN
*I *11991:A I *D sky130_fd_sc_hd__dlygate4sd3_1
*I *11986:X O *D sky130_fd_sc_hd__dlygate4sd3_1
*CAP
1 *11991:A 0
2 *11986:X 9.90853e-05
3 *516:8 9.90853e-05
4 *516:8 *525:14 6.68793e-05
*RES
1 *11986:X *516:8 39.9057
2 *516:8 *11991:A 38
*END

*D_NET *517 0.23021
*CONN
*I *12154:AD[9] I *D CF_SRAM_1024x32
*I *12144:AD[9] I *D CF_SRAM_1024x32
*I *12134:AD[9] I *D CF_SRAM_1024x32
*I *12124:AD[9] I *D CF_SRAM_1024x32
*I *11987:X O *D sky130_fd_sc_hd__buf_12
*CAP
1 *12154:AD[9] 0.000162812
2 *12144:AD[9] 0.00150453
3 *12134:AD[9] 0.000279105
4 *12124:AD[9] 0.00189267
5 *11987:X 0
6 *517:76 0.0232565
7 *517:58 0.0245982
8 *517:56 0.00905607
9 *517:54 0.00905607
10 *517:38 0.00937902
11 *517:28 0.00217707
12 *517:20 0.00938431
13 *517:18 0.000628643
14 *517:10 0.00329268
15 *517:8 0.00295269
16 *517:4 0.000288654
17 *981:DIODE *517:10 5.47962e-05
18 *12124:AD[3] *12124:AD[9] 0
19 *12124:AD[8] *12124:AD[9] 6.79359e-05
20 *12124:AD[8] *517:28 4.15283e-06
21 *12134:AD[3] *12134:AD[9] 0
22 *12134:AD[6] *12134:AD[9] 0.000200768
23 *12134:AD[8] *12134:AD[9] 0.000196668
24 *12134:ScanInCC *12134:AD[9] 0
25 *12144:AD[3] *12144:AD[9] 0
26 *12144:AD[8] *12144:AD[9] 0.00149407
27 *12144:AD[8] *517:76 0.000213388
28 *12154:AD[3] *12154:AD[9] 0
29 *12154:AD[8] *12154:AD[9] 5.49244e-05
30 *131:24 *12124:AD[9] 5.01289e-05
31 *178:18 *517:28 0.000194087
32 *225:30 *12134:AD[9] 0.00011693
33 *228:13 *12134:AD[9] 3.649e-05
34 *250:30 *517:56 0.000286388
35 *259:33 *517:56 9.9437e-05
36 *293:35 *517:10 5.14422e-05
37 *307:37 *517:56 2.31209e-05
38 *369:18 *517:10 8.88824e-06
39 *369:20 *517:10 0.00136289
40 *369:20 *517:28 2.64528e-05
41 *387:10 *517:18 0.000958645
42 *389:52 *517:56 0.000825994
43 *393:12 *517:18 0.000958645
44 *393:49 *517:56 0.0182366
45 *417:18 *517:56 0.0207615
46 *417:22 *517:56 0.000778718
47 *417:64 *517:56 0.000551629
48 *432:54 *12154:AD[9] 4.35681e-06
49 *480:58 *12154:AD[9] 2.11066e-05
50 *506:62 *12144:AD[9] 2.27197e-05
51 *509:8 *517:10 0.00543053
52 *509:34 *517:18 6.17437e-06
53 *509:68 *12144:AD[9] 2.11066e-05
54 *509:68 *517:10 0.0012468
55 *509:68 *517:56 0
56 *513:10 *517:10 0.00781805
57 *513:10 *517:28 6.39383e-05
58 *513:28 *517:28 0.000185355
59 *513:28 *517:38 0.0323552
60 *513:75 *517:76 0.00276125
61 *513:77 *517:76 0.0155262
62 *515:28 *517:28 7.7703e-05
63 *515:28 *517:38 0.016965
64 *515:62 *517:56 0.0021812
*RES
1 *11987:X *517:4 23
2 *517:4 *517:8 18.48
3 *517:8 *517:10 108.605
4 *517:10 *517:18 46.0018
5 *517:18 *517:20 8
6 *517:20 *517:28 26.1855
7 *517:28 *12124:AD[9] 24.6655
8 *517:20 *517:38 61.0213
9 *517:38 *12134:AD[9] 28.0595
10 *517:4 *517:54 15
11 *517:54 *517:56 331.688
12 *517:56 *517:58 8
13 *517:58 *12144:AD[9] 46.9511
14 *517:58 *517:76 60.9355
15 *517:76 *12154:AD[9] 25.6359
*END

*D_NET *518 0.0892929
*CONN
*I *12109:A I *D sky130_fd_sc_hd__buf_12
*I *12184:X O *D sky130_fd_sc_hd__buf_12
*CAP
1 *12109:A 0.000293189
2 *12184:X 0.000598523
3 *518:24 0.00644438
4 *518:22 0.00615119
5 *518:20 0.00147387
6 *518:18 0.00267794
7 *518:14 0.00120407
8 *518:12 0.000598523
9 *518:18 *541:12 0.0007744
10 *518:18 *611:28 0.00102267
11 *518:18 *612:18 0.00034176
12 *518:20 *541:12 0.000941218
13 *518:20 *552:12 0.00637363
14 *518:20 *563:14 0.00580497
15 *518:20 *611:28 0.000505397
16 *518:24 *529:20 0.0258487
17 *669:DIODE *518:12 0
18 *1107:DIODE *518:18 2.64616e-05
19 *111:46 *518:18 0.000425422
20 *111:69 *518:18 0.000127071
21 *114:62 *518:12 0.000152426
22 *164:14 *518:18 0.000111794
23 *167:16 *518:24 0.021087
24 *175:10 *518:24 0.00174772
25 *209:25 *518:12 3.39192e-05
26 *209:25 *518:18 0.000257636
27 *209:38 *518:18 0.000266428
28 *238:9 *12109:A 2.75712e-05
29 *353:10 *518:24 5.44889e-06
30 *354:10 *518:24 0.00313063
31 *453:8 *518:12 0
32 *454:8 *12109:A 0.00051067
33 *507:14 *518:18 0.000328203
*RES
1 *12184:X *518:12 46.6586
2 *518:12 *518:14 15
3 *518:14 *518:18 37.0889
4 *518:18 *518:20 82.8054
5 *518:20 *518:22 15
6 *518:22 *518:24 374.825
7 *518:24 *12109:A 43.8621
*END

*D_NET *519 0.00181617
*CONN
*I *12011:A I *D sky130_fd_sc_hd__dlygate4sd3_1
*I *11988:X O *D sky130_fd_sc_hd__dlygate4sd3_1
*CAP
1 *12011:A 0
2 *11988:X 0.000573464
3 *519:10 0.000573464
4 *519:10 *584:10 0.000340216
5 *519:10 *588:30 4.03172e-05
6 *519:10 *631:165 1.12863e-05
7 *676:DIODE *519:10 0.000230818
8 *31:9 *519:10 4.66047e-05
*RES
1 *11988:X *519:10 47.6321
2 *519:10 *12011:A 38
*END

*D_NET *520 0.226791
*CONN
*I *12154:AD[1] I *D CF_SRAM_1024x32
*I *12144:AD[1] I *D CF_SRAM_1024x32
*I *12134:AD[1] I *D CF_SRAM_1024x32
*I *12124:AD[1] I *D CF_SRAM_1024x32
*I *11989:X O *D sky130_fd_sc_hd__buf_12
*CAP
1 *12154:AD[1] 0.000196018
2 *12144:AD[1] 0.00106348
3 *12134:AD[1] 6.03643e-05
4 *12124:AD[1] 0.00143636
5 *11989:X 8.82085e-05
6 *520:76 0.0144805
7 *520:54 0.015348
8 *520:52 0.00650895
9 *520:38 0.0147963
10 *520:18 0.0185856
11 *520:14 0.00892229
12 *520:12 8.82085e-05
13 *12124:AD[1] *12124:AD[0] 0
14 *12134:AD[1] *12134:AD[0] 0
15 *12144:AD[1] *12144:AD[0] 0
16 *12154:AD[1] *12154:AD[0] 0
17 *520:18 *524:20 0.00809581
18 *520:18 *577:16 2.57039e-05
19 *520:52 *524:20 0.000506691
20 *520:52 *524:52 0.0260188
21 *12124:AD[2] *12124:AD[1] 0.000307401
22 *12124:R_WB *12124:AD[1] 2.92034e-05
23 *12134:AD[2] *12134:AD[1] 8.21829e-05
24 *12144:AD[2] *12144:AD[1] 0.00135701
25 *12154:AD[2] *12154:AD[1] 0.000179508
26 *129:10 *12124:AD[1] 2.05503e-05
27 *181:47 *12124:AD[1] 0
28 *184:8 *12124:AD[1] 2.24608e-05
29 *228:9 *12134:AD[1] 1.54809e-05
30 *231:13 *12134:AD[1] 1.54809e-05
31 *319:34 *520:18 0.00105228
32 *382:46 *12124:AD[1] 0
33 *402:10 *520:18 0.000816772
34 *402:54 *520:18 0.000141169
35 *409:14 *520:12 4.97925e-05
36 *409:14 *520:52 0.00341132
37 *415:60 *520:52 0.00307704
38 *432:54 *12154:AD[1] 2.13226e-05
39 *438:38 *520:18 0.000143485
40 *467:34 *520:12 1.14105e-05
41 *480:58 *12154:AD[1] 4.79458e-06
42 *504:40 *520:76 0
43 *504:100 *520:38 0
44 *511:20 *12124:AD[1] 0.000109192
45 *511:20 *520:18 0.00754291
46 *511:20 *520:38 0.000295457
47 *511:36 *520:38 0.0327093
48 *511:52 *520:18 0.000434083
49 *511:52 *520:52 0.0254337
50 *511:72 *520:76 0.0332865
*RES
1 *11989:X *520:12 46.7721
2 *520:12 *520:14 8
3 *520:14 *520:18 27.7307
4 *520:18 *12124:AD[1] 38.2453
5 *520:18 *520:38 62.2664
6 *520:38 *12134:AD[1] 24.2584
7 *520:14 *520:52 62.3803
8 *520:52 *520:54 8
9 *520:54 *12144:AD[1] 42.2695
10 *520:54 *520:76 62.5669
11 *520:76 *12154:AD[1] 26.5473
*END

*D_NET *521 0.000830108
*CONN
*I *11986:A I *D sky130_fd_sc_hd__dlygate4sd3_1
*I *11990:X O *D sky130_fd_sc_hd__dlygate4sd3_1
*CAP
1 *11986:A 0
2 *11990:X 0.000218075
3 *521:6 0.000218075
4 *8:9 *521:6 0.000393958
*RES
1 *11990:X *521:6 27.4329
2 *521:6 *11986:A 23
*END

*D_NET *522 0.000285515
*CONN
*I *12186:A I *D sky130_fd_sc_hd__buf_12
*I *11991:X O *D sky130_fd_sc_hd__dlygate4sd3_1
*CAP
1 *12186:A 0
2 *11991:X 0.000142758
3 *522:8 0.000142758
*RES
1 *11991:X *522:8 39.9057
2 *522:8 *12186:A 38
*END

*D_NET *523 0.00274498
*CONN
*I *12013:A I *D sky130_fd_sc_hd__dlygate4sd3_1
*I *11992:X O *D sky130_fd_sc_hd__dlygate4sd3_1
*CAP
1 *12013:A 0.000306022
2 *11992:X 0.000359152
3 *523:8 0.000665173
4 *12013:A *545:10 9.39977e-05
5 *12013:A *588:16 0.000648011
6 *523:8 *11847:A2 7.127e-05
7 *523:8 *614:8 0.000191157
8 *670:DIODE *523:8 1.44663e-05
9 *675:DIODE *523:8 7.58917e-05
10 *28:13 *523:8 0
11 *128:24 *523:8 0.00016441
12 *208:29 *523:8 5.90856e-07
13 *211:27 *523:8 0.000154839
*RES
1 *11992:X *523:8 45.8921
2 *523:8 *12013:A 45.2914
*END

*D_NET *524 0.225825
*CONN
*I *12154:AD[0] I *D CF_SRAM_1024x32
*I *12144:AD[0] I *D CF_SRAM_1024x32
*I *12134:AD[0] I *D CF_SRAM_1024x32
*I *12124:AD[0] I *D CF_SRAM_1024x32
*I *11994:X O *D sky130_fd_sc_hd__buf_12
*CAP
1 *12154:AD[0] 0.000160972
2 *12144:AD[0] 0.00141572
3 *12134:AD[0] 0.000157896
4 *12124:AD[0] 0.00161939
5 *11994:X 0.000213818
6 *524:72 0.011979
7 *524:54 0.0132338
8 *524:52 0.00645389
9 *524:36 0.011233
10 *524:20 0.0163634
11 *524:14 0.0101229
12 *524:12 0.000213818
13 *524:20 *636:18 0.00010083
14 *12124:AD[1] *12124:AD[0] 0
15 *12124:R_WB *12124:AD[0] 0.000593409
16 *12134:AD[1] *12134:AD[0] 0
17 *12134:AD[2] *12134:AD[0] 0
18 *12134:R_WB *12134:AD[0] 6.20317e-05
19 *12144:AD[1] *12144:AD[0] 0
20 *12144:R_WB *12144:AD[0] 0.000242975
21 *12144:R_WB *524:72 0.000144638
22 *12154:AD[1] *12154:AD[0] 0
23 *12154:R_WB *12154:AD[0] 7.27241e-05
24 *181:47 *524:20 4.80865e-05
25 *181:47 *524:36 0.00122699
26 *181:61 *524:72 0.000502985
27 *181:71 *524:72 0.0316255
28 *181:87 *524:36 0.031512
29 *225:18 *12134:AD[0] 4.80465e-05
30 *226:18 *524:36 0
31 *228:9 *12134:AD[0] 4.80465e-05
32 *400:80 *524:20 0.000230766
33 *400:82 *524:52 0.00271151
34 *402:56 *524:52 0.00325115
35 *409:14 *524:12 4.9808e-05
36 *409:50 *524:20 0.000925088
37 *415:10 *12124:AD[0] 4.82774e-05
38 *415:10 *524:20 0.000711923
39 *424:28 *524:20 0.0015872
40 *424:30 *12124:AD[0] 4.82774e-05
41 *424:30 *524:20 0.000246133
42 *424:68 *524:20 3.37624e-05
43 *432:54 *12154:AD[0] 4.36401e-06
44 *438:22 *524:20 0.000270987
45 *438:38 *524:20 0.000115083
46 *438:38 *524:36 2.55744e-05
47 *471:102 *524:12 1.81937e-05
48 *480:58 *12154:AD[0] 2.11157e-05
49 *502:60 *524:20 0.00143678
50 *502:60 *524:52 0.0246599
51 *504:66 *524:20 0.0007517
52 *504:82 *524:20 0.000418656
53 *511:20 *524:20 2.35619e-05
54 *511:20 *524:36 1.89413e-05
55 *511:36 *524:36 0.00850017
56 *511:52 *524:52 2.56994e-05
57 *511:72 *12144:AD[0] 2.1297e-05
58 *511:72 *524:72 0.00565151
59 *520:18 *524:20 0.00809581
60 *520:52 *524:20 0.000506691
61 *520:52 *524:52 0.0260188
*RES
1 *11994:X *524:12 46.9439
2 *524:12 *524:14 8
3 *524:14 *524:20 28.5091
4 *524:20 *12124:AD[0] 44.548
5 *524:20 *524:36 62.0517
6 *524:36 *12134:AD[0] 25.9673
7 *524:14 *524:52 61.9995
8 *524:52 *524:54 8
9 *524:54 *12144:AD[0] 43.1823
10 *524:54 *524:72 62.2664
11 *524:72 *12154:AD[0] 25.5841
*END

*D_NET *525 0.0056029
*CONN
*I *11981:A I *D sky130_fd_sc_hd__dlygate4sd3_1
*I *11995:X O *D sky130_fd_sc_hd__dlygate4sd3_1
*CAP
1 *11981:A 0
2 *11995:X 4.74413e-05
3 *525:14 0.00109141
4 *525:8 0.00113885
5 *525:14 *630:64 0.00148169
6 *525:14 *630:80 0
7 *525:14 *634:42 0.00148169
8 *655:DIODE *525:14 6.6869e-05
9 *7:13 *525:8 9.84851e-05
10 *41:9 *525:14 0.000129601
11 *516:8 *525:14 6.68793e-05
*RES
1 *11995:X *525:8 39.0979
2 *525:8 *525:14 43.1093
3 *525:14 *11981:A 23
*END

*D_NET *526 0.000475164
*CONN
*I *12175:A I *D sky130_fd_sc_hd__buf_12
*I *11996:X O *D sky130_fd_sc_hd__dlygate4sd3_1
*CAP
1 *12175:A 0
2 *11996:X 0.000216681
3 *526:10 0.000216681
4 *526:10 *540:14 1.04196e-05
5 *381:8 *526:10 3.13832e-05
*RES
1 *11996:X *526:10 41.3557
2 *526:10 *12175:A 38
*END

*D_NET *527 0.00069241
*CONN
*I *11984:A I *D sky130_fd_sc_hd__dlygate4sd3_1
*I *11997:X O *D sky130_fd_sc_hd__dlygate4sd3_1
*CAP
1 *11984:A 0.00013
2 *11997:X 0.000166396
3 *527:8 0.000296396
4 *11984:A *540:14 9.96169e-05
*RES
1 *11997:X *527:8 40.61
2 *527:8 *11984:A 41.0036
*END

*D_NET *528 0.000444862
*CONN
*I *12168:A I *D sky130_fd_sc_hd__buf_12
*I *11998:X O *D sky130_fd_sc_hd__dlygate4sd3_1
*CAP
1 *12168:A 0
2 *11998:X 0.000181226
3 *528:10 0.000181226
4 *397:6 *528:10 5.52998e-05
5 *397:12 *528:10 2.711e-05
*RES
1 *11998:X *528:10 40.5271
2 *528:10 *12168:A 38
*END

*D_NET *529 0.0877876
*CONN
*I *12114:A I *D sky130_fd_sc_hd__buf_12
*I *12185:X O *D sky130_fd_sc_hd__buf_12
*CAP
1 *12114:A 0.000126098
2 *12185:X 0.000123451
3 *529:28 0.00083991
4 *529:26 0.000941636
5 *529:20 0.00576992
6 *529:18 0.0055421
7 *529:16 0.00247889
8 *529:14 0.0049819
9 *529:10 0.00250301
10 *529:8 0.000123451
11 *529:14 *609:36 0.00314497
12 *529:16 *567:12 0.00340396
13 *529:20 *572:8 0
14 *11964:A *529:20 0.000141258
15 *172:10 *529:20 0
16 *175:10 *529:20 0.0143002
17 *176:18 *529:20 0.00880491
18 *241:11 *529:28 0.00381055
19 *242:11 *529:20 0.000853848
20 *443:18 *529:28 0.00380831
21 *458:10 *12114:A 0.000221992
22 *467:12 *529:26 1.84661e-05
23 *518:24 *529:20 0.0258487
*RES
1 *12185:X *529:8 39.5536
2 *529:8 *529:10 15
3 *529:10 *529:14 40.7761
4 *529:14 *529:16 61.8425
5 *529:16 *529:18 15
6 *529:18 *529:20 345.597
7 *529:20 *529:26 33.0036
8 *529:26 *529:28 49.0929
9 *529:28 *12114:A 40.5271
*END

*D_NET *530 0.00173511
*CONN
*I *11970:A I *D sky130_fd_sc_hd__dlygate4sd3_1
*I *11999:X O *D sky130_fd_sc_hd__dlygate4sd3_1
*CAP
1 *11970:A 0
2 *11999:X 0.000608832
3 *530:10 0.000608832
4 *530:10 *582:18 0.000259863
5 *530:10 *619:16 7.88828e-05
6 *530:10 *620:36 1.59094e-05
7 *33:13 *530:10 3.78847e-05
8 *413:10 *530:10 0.000124902
*RES
1 *11999:X *530:10 47.1557
2 *530:10 *11970:A 38
*END

*D_NET *531 0.000813254
*CONN
*I *12215:A I *D sky130_fd_sc_hd__buf_12
*I *12000:X O *D sky130_fd_sc_hd__dlygate4sd3_1
*CAP
1 *12215:A 0
2 *12000:X 0.000191213
3 *531:8 0.000191213
4 *531:8 *607:16 9.56632e-05
5 *66:9 *531:8 0.000335165
*RES
1 *12000:X *531:8 42.7229
2 *531:8 *12215:A 38
*END

*D_NET *532 0.00198233
*CONN
*I *11977:A I *D sky130_fd_sc_hd__dlygate4sd3_1
*I *12001:X O *D sky130_fd_sc_hd__dlygate4sd3_1
*CAP
1 *11977:A 0.000434953
2 *12001:X 0.000257647
3 *532:8 0.000692599
4 wbs_dat_o[7] *11977:A 4.93812e-05
5 wbs_dat_o[8] *11977:A 5.50106e-05
6 *12001:A *532:8 0
7 *508:10 *11977:A 0.000343684
8 *508:10 *532:8 0.000149053
*RES
1 *12001:X *532:8 42.7229
2 *532:8 *11977:A 46.41
*END

*D_NET *533 0.00044293
*CONN
*I *12167:A I *D sky130_fd_sc_hd__buf_12
*I *12002:X O *D sky130_fd_sc_hd__dlygate4sd3_1
*CAP
1 *12167:A 0
2 *12002:X 0.000208234
3 *533:10 0.000208234
4 *69:13 *533:10 2.64616e-05
*RES
1 *12002:X *533:10 40.5271
2 *533:10 *12167:A 38
*END

*D_NET *534 0.00136072
*CONN
*I *11973:A I *D sky130_fd_sc_hd__dlygate4sd3_1
*I *12003:X O *D sky130_fd_sc_hd__dlygate4sd3_1
*CAP
1 *11973:A 0
2 *12003:X 0.000533079
3 *534:10 0.000533079
4 *534:10 *577:12 0
5 *534:10 *621:20 0
6 wbs_dat_o[5] *534:10 2.93845e-05
7 *34:17 *534:10 0.000138048
8 *411:10 *534:10 0.000127134
*RES
1 *12003:X *534:10 46.6793
2 *534:10 *11973:A 38
*END

*D_NET *535 0.000514684
*CONN
*I *12165:A I *D sky130_fd_sc_hd__buf_12
*I *12005:X O *D sky130_fd_sc_hd__dlygate4sd3_1
*CAP
1 *12165:A 0
2 *12005:X 0.00016244
3 *535:10 0.00016244
4 *12063:A *535:10 2.64616e-05
5 *394:8 *535:10 0.000163343
6 *407:16 *535:10 0
*RES
1 *12005:X *535:10 40.8793
2 *535:10 *12165:A 38
*END

*D_NET *536 0.000608887
*CONN
*I *11975:A I *D sky130_fd_sc_hd__dlygate4sd3_1
*I *12006:X O *D sky130_fd_sc_hd__dlygate4sd3_1
*CAP
1 *11975:A 9.34867e-05
2 *12006:X 0.000114267
3 *536:8 0.000207754
4 *330:8 *536:8 0
5 *396:16 *536:8 0.000193379
*RES
1 *12006:X *536:8 40.61
2 *536:8 *11975:A 39.5743
*END

*D_NET *537 0.00116839
*CONN
*I *12166:A I *D sky130_fd_sc_hd__buf_12
*I *12007:X O *D sky130_fd_sc_hd__dlygate4sd3_1
*CAP
1 *12166:A 4.34165e-05
2 *12007:X 0.00040104
3 *537:10 0.000444457
4 *12166:A *593:22 4.96717e-05
5 *537:10 *592:12 3.22722e-05
6 *12061:A *537:10 2.64616e-05
7 *341:8 *12166:A 9.41704e-05
8 *392:10 *537:10 7.68979e-05
*RES
1 *12007:X *537:10 42.4329
2 *537:10 *12166:A 39.0979
*END

*D_NET *538 0.00283429
*CONN
*I *11979:A I *D sky130_fd_sc_hd__dlygate4sd3_1
*I *12008:X O *D sky130_fd_sc_hd__dlygate4sd3_1
*CAP
1 *11979:A 0.000268011
2 *12008:X 0.000633212
3 *538:10 0.000901223
4 *11979:A *619:16 0.000141154
5 *538:10 *549:10 0.000515558
6 *106:9 *538:10 8.02853e-05
7 *363:39 *538:10 0.000112024
8 *510:10 *11979:A 0.000182826
*RES
1 *12008:X *538:10 49.1236
2 *538:10 *11979:A 43.4064
*END

*D_NET *539 0.000924712
*CONN
*I *12214:A I *D sky130_fd_sc_hd__buf_12
*I *12009:X O *D sky130_fd_sc_hd__dlygate4sd3_1
*CAP
1 *12214:A 0
2 *12009:X 0.000323344
3 *539:10 0.000323344
4 *539:10 *575:14 0.000152064
5 *539:10 *586:8 4.12184e-05
6 *539:10 *592:12 1.05235e-05
7 *539:10 *620:22 7.42178e-05
8 *65:9 *539:10 0
*RES
1 *12009:X *539:10 43.6964
2 *539:10 *12214:A 38
*END

*D_NET *540 0.0732102
*CONN
*I *11987:A I *D sky130_fd_sc_hd__buf_12
*I *12186:X O *D sky130_fd_sc_hd__buf_12
*CAP
1 *11987:A 0.000636981
2 *12186:X 0.000433786
3 *540:18 0.00668006
4 *540:16 0.00604308
5 *540:14 0.0040351
6 *540:12 0.0040351
7 *540:10 0.000433786
8 *540:10 *593:28 0.000119467
9 *540:10 *600:14 0.000114285
10 *11983:A *11987:A 0
11 *11984:A *540:14 9.96169e-05
12 *11985:A *11987:A 0
13 *12038:A *540:14 3.71251e-05
14 *12042:A *540:14 0.000167341
15 *12048:A *540:14 2.30292e-05
16 *8:9 *540:10 0.000187609
17 *149:18 *540:18 0
18 *207:15 *540:18 0.0240585
19 *209:13 *540:18 0.000229638
20 *330:8 *540:18 0
21 *341:10 *540:18 4.16764e-05
22 *352:16 *540:18 0.0256454
23 *384:10 *540:10 5.05139e-05
24 *385:10 *540:10 0
25 *429:18 *540:18 0.000106491
26 *514:10 *540:14 2.11851e-05
27 *526:10 *540:14 1.04196e-05
*RES
1 *12186:X *540:10 47.0107
2 *540:10 *540:12 15
3 *540:12 *540:14 52.0757
4 *540:14 *540:16 15
5 *540:16 *540:18 337.498
6 *540:18 *11987:A 47.1971
*END

*D_NET *541 0.0419557
*CONN
*I *12118:A I *D sky130_fd_sc_hd__buf_12
*I *12187:X O *D sky130_fd_sc_hd__buf_12
*CAP
1 *12118:A 0.000152142
2 *12187:X 0.000533779
3 *541:16 0.00300552
4 *541:14 0.00285338
5 *541:12 0.00425324
6 *541:10 0.00425324
7 *541:8 0.000533779
8 *541:12 *563:14 0.00610238
9 *541:16 *572:8 0.012312
10 *541:16 *627:94 0
11 *171:16 *541:16 6.31731e-05
12 *172:10 *541:16 0.00572245
13 *176:18 *541:16 0
14 *242:11 *541:16 0
15 *462:10 *12118:A 0.00021677
16 *464:14 *541:8 8.94382e-05
17 *507:14 *541:12 0.000148806
18 *518:18 *541:12 0.0007744
19 *518:20 *541:12 0.000941218
*RES
1 *12187:X *541:8 46.2443
2 *541:8 *541:10 15
3 *541:10 *541:12 94.4779
4 *541:12 *541:14 15
5 *541:14 *541:16 158.257
6 *541:16 *12118:A 40.5271
*END

*D_NET *542 0.000991677
*CONN
*I *11988:A I *D sky130_fd_sc_hd__dlygate4sd3_1
*I *12010:X O *D sky130_fd_sc_hd__dlygate4sd3_1
*CAP
1 *11988:A 0
2 *12010:X 0.00010254
3 *542:6 0.00010254
4 *542:6 *588:30 0.000393298
5 *31:9 *542:6 0.000393298
*RES
1 *12010:X *542:6 27.4329
2 *542:6 *11988:A 23
*END

*D_NET *543 0.00170389
*CONN
*I *12213:A I *D sky130_fd_sc_hd__buf_12
*I *12011:X O *D sky130_fd_sc_hd__dlygate4sd3_1
*CAP
1 *12213:A 0
2 *12011:X 0.000514627
3 *543:10 0.000514627
4 *543:10 *11816:B 4.32475e-05
5 *543:10 *587:16 0.000262341
6 *543:10 *619:10 0.000212534
7 *543:10 *631:10 2.93747e-05
8 *12075:A *543:10 0
9 *110:10 *543:10 0
10 *420:10 *543:10 0.000127134
*RES
1 *12011:X *543:10 49.3307
2 *543:10 *12213:A 38
*END

*D_NET *544 0.00113683
*CONN
*I *11992:A I *D sky130_fd_sc_hd__dlygate4sd3_1
*I *12012:X O *D sky130_fd_sc_hd__dlygate4sd3_1
*CAP
1 *11992:A 0.000291817
2 *12012:X 6.14802e-05
3 *544:8 0.000353297
4 *120:28 *544:8 0.00014041
5 *211:27 *544:8 6.51822e-05
6 *215:42 *11992:A 0.000224649
*RES
1 *12012:X *544:8 39.9057
2 *544:8 *11992:A 42.9093
*END

*D_NET *545 0.00146469
*CONN
*I *12212:A I *D sky130_fd_sc_hd__buf_12
*I *12013:X O *D sky130_fd_sc_hd__dlygate4sd3_1
*CAP
1 *12212:A 2.18326e-05
2 *12013:X 0.000438915
3 *545:10 0.000460748
4 *12212:A *12241:A 0.00014196
5 *545:10 *614:8 0
6 *12013:A *545:10 9.39977e-05
7 *28:13 *545:10 0.000172942
8 *61:15 *545:10 0
9 *93:10 *12212:A 0.000134295
*RES
1 *12013:X *545:10 45.1257
2 *545:10 *12212:A 39.5743
*END

*D_NET *546 0.000895398
*CONN
*I *12207:A I *D sky130_fd_sc_hd__buf_12
*I *12014:X O *D sky130_fd_sc_hd__dlygate4sd3_1
*CAP
1 *12207:A 0
2 *12014:X 0.000249634
3 *546:10 0.000249634
4 *546:10 *582:6 0.000228001
5 *546:10 *624:10 0
6 *31:9 *546:10 0
7 *105:13 *546:10 0.000168129
*RES
1 *12014:X *546:10 42.785
2 *546:10 *12207:A 38
*END

*D_NET *547 0.0944931
*CONN
*I *12134:BEN[23] I *D CF_SRAM_1024x32
*I *12134:BEN[22] I *D CF_SRAM_1024x32
*I *12134:BEN[21] I *D CF_SRAM_1024x32
*I *12134:BEN[20] I *D CF_SRAM_1024x32
*I *12134:BEN[19] I *D CF_SRAM_1024x32
*I *12134:BEN[18] I *D CF_SRAM_1024x32
*I *12134:BEN[17] I *D CF_SRAM_1024x32
*I *12134:BEN[16] I *D CF_SRAM_1024x32
*I *12217:A I *D sky130_fd_sc_hd__clkbuf_16
*I *1063:DIODE I *D sky130_fd_sc_hd__diode_2
*I *12016:X O *D sky130_fd_sc_hd__buf_12
*CAP
1 *12134:BEN[23] 0.000406031
2 *12134:BEN[22] 8.28764e-05
3 *12134:BEN[21] 0.000199485
4 *12134:BEN[20] 0.000195136
5 *12134:BEN[19] 0.000163415
6 *12134:BEN[18] 0.000169405
7 *12134:BEN[17] 0.000176943
8 *12134:BEN[16] 0.000240768
9 *12217:A 0.00012513
10 *1063:DIODE 0
11 *12016:X 0.000356491
12 *547:132 0.000894048
13 *547:116 0.000893411
14 *547:100 0.000769218
15 *547:88 0.000759249
16 *547:76 0.000739516
17 *547:64 0.000687974
18 *547:52 0.0133588
19 *547:28 0.00957689
20 *547:18 0.0370268
21 *547:14 0.0147546
22 *547:8 0.000402624
23 *547:8 *598:24 0
24 *547:28 *579:26 0.000680273
25 *12134:CLKin *12134:BEN[17] 4.33731e-05
26 *12134:CLKin *547:64 4.80465e-05
27 *12134:TM *12134:BEN[16] 4.98778e-05
28 *12134:DI[21] *12134:BEN[21] 1.72682e-05
29 *12134:DI[22] *12134:BEN[22] 0
30 *12134:DI[20] *547:100 5.23117e-06
31 *153:26 *547:8 0
32 *203:31 *547:8 0
33 *204:27 *547:14 0
34 *226:16 *547:52 0.000101616
35 *226:16 *547:64 0.000221004
36 *227:21 *547:14 4.59554e-06
37 *228:9 *547:64 0.000205399
38 *228:9 *547:76 0.000408018
39 *228:9 *547:88 0.00019139
40 *230:15 *547:88 4.35681e-06
41 *230:15 *547:100 0.000142471
42 *230:25 *547:8 0
43 *231:11 *547:116 0.000147694
44 *231:13 *547:88 0
45 *231:13 *547:100 0
46 *231:13 *547:116 0
47 *232:13 *547:116 0.000160421
48 *232:13 *547:132 0.000261836
49 *233:15 *12134:BEN[23] 0.000259508
50 *362:74 *547:28 0.000338569
51 *369:18 *12217:A 7.51115e-05
52 *369:18 *547:28 0.000286369
53 *382:88 *547:52 0.000101616
54 *382:88 *547:64 0.000723319
55 *382:88 *547:76 0.000869797
56 *382:88 *547:88 0.000880605
57 *382:88 *547:100 0.000856451
58 *382:88 *547:116 0.000536089
59 *417:102 *547:28 0.00230602
60 *417:102 *547:52 0
61 *426:16 *12134:BEN[17] 0
62 *430:28 *547:28 9.93968e-05
63 *443:24 *12134:BEN[19] 0
64 *443:38 *547:88 4.35681e-06
65 *454:18 *547:116 0.000127144
66 *454:18 *547:132 0.000613477
67 *454:22 *547:116 0.000102781
68 *458:12 *12134:BEN[23] 0.000871311
69 *458:12 *547:132 0.000248424
70 *458:16 *547:132 0.000102781
71 *462:30 *12134:BEN[23] 4.82774e-05
72 *509:8 *12217:A 8.63978e-05
73 *509:8 *547:28 0.000283695
*RES
1 *12016:X *547:8 43.9554
2 *547:8 *547:14 16.0989
3 *547:14 *547:18 49.8171
4 *547:18 *547:28 40.2961
5 *547:28 *1063:DIODE 38
6 *547:28 *12217:A 40.2993
7 *547:18 *547:52 43.3938
8 *547:52 *12134:BEN[16] 19.2464
9 *547:52 *547:64 9.65286
10 *547:64 *12134:BEN[17] 18.2107
11 *547:64 *547:76 11.4136
12 *547:76 *12134:BEN[18] 17.755
13 *547:76 *547:88 11.4136
14 *547:88 *12134:BEN[19] 17.7757
15 *547:88 *547:100 11.0614
16 *547:100 *12134:BEN[20] 18.625
17 *547:100 *547:116 11.1236
18 *547:116 *12134:BEN[21] 18.7493
19 *547:116 *547:132 13.8268
20 *547:132 *12134:BEN[22] 16.5018
21 *547:132 *12134:BEN[23] 27.9361
*END

*D_NET *548 0.0029191
*CONN
*I *12014:A I *D sky130_fd_sc_hd__dlygate4sd3_1
*I *12017:X O *D sky130_fd_sc_hd__dlygate4sd3_1
*CAP
1 *12014:A 0.000514979
2 *12017:X 0.000417963
3 *548:8 0.000932942
4 *12014:A *571:12 0
5 *12014:A *593:10 0.000211561
6 *12014:A *617:10 0.000114922
7 *548:8 *631:18 0.00037734
8 *548:8 *631:20 0.000137651
9 *105:13 *12014:A 0
10 *132:18 *12014:A 4.66343e-05
11 *363:18 *12014:A 0.000165105
*RES
1 *12017:X *548:8 43.8621
2 *548:8 *12014:A 48.7093
*END

*D_NET *549 0.00143404
*CONN
*I *12209:A I *D sky130_fd_sc_hd__buf_12
*I *12018:X O *D sky130_fd_sc_hd__dlygate4sd3_1
*CAP
1 *12209:A 0
2 *12018:X 0.000375185
3 *549:10 0.000375185
4 *106:9 *549:10 0.000155914
5 *363:39 *549:10 1.21972e-05
6 *538:10 *549:10 0.000515558
*RES
1 *12018:X *549:10 45.25
2 *549:10 *12209:A 38
*END

*D_NET *550 0.0918824
*CONN
*I *12134:BEN[31] I *D CF_SRAM_1024x32
*I *12134:BEN[30] I *D CF_SRAM_1024x32
*I *12134:BEN[29] I *D CF_SRAM_1024x32
*I *12134:BEN[28] I *D CF_SRAM_1024x32
*I *12134:BEN[27] I *D CF_SRAM_1024x32
*I *12134:BEN[26] I *D CF_SRAM_1024x32
*I *12134:BEN[25] I *D CF_SRAM_1024x32
*I *12134:BEN[24] I *D CF_SRAM_1024x32
*I *12216:A I *D sky130_fd_sc_hd__clkbuf_16
*I *12019:X O *D sky130_fd_sc_hd__buf_12
*CAP
1 *12134:BEN[31] 0.000160103
2 *12134:BEN[30] 0.000139438
3 *12134:BEN[29] 7.29893e-05
4 *12134:BEN[28] 7.31929e-05
5 *12134:BEN[27] 7.31929e-05
6 *12134:BEN[26] 7.31929e-05
7 *12134:BEN[25] 0.000785215
8 *12134:BEN[24] 5.18567e-05
9 *12216:A 0
10 *12019:X 0
11 *550:155 7.37692e-06
12 *550:148 0.000458318
13 *550:135 0
14 *550:128 0.00077263
15 *550:114 0.000565919
16 *550:102 0.000413018
17 *550:92 0.000445689
18 *550:82 0.000524159
19 *550:43 0.000633951
20 *550:35 0.0184772
21 *550:28 0.00117272
22 *550:18 0.0201971
23 *550:14 0.000893363
24 *550:8 0.00841822
25 *550:6 0.00812183
26 *550:28 *635:37 4.67488e-05
27 *966:DIODE *550:14 0.000135037
28 *12134:DI[31] *550:148 0.000153328
29 *117:12 *550:28 4.82774e-05
30 *131:10 *550:18 0.000223804
31 *147:10 *550:8 0.0114408
32 *149:10 *550:18 0.000482709
33 *181:51 *550:18 0.000105766
34 *185:10 *550:18 0.000173765
35 *235:15 *12134:BEN[25] 0.000376051
36 *235:15 *550:35 0.00235793
37 *237:9 *12134:BEN[26] 0
38 *241:9 *12134:BEN[29] 0
39 *304:41 *550:28 9.75778e-05
40 *310:25 *550:18 0.000398945
41 *341:14 *550:14 0.0004643
42 *362:76 *550:8 0.000635989
43 *365:20 *550:8 0.000369819
44 *365:74 *550:18 0
45 *382:88 *550:148 0.000137625
46 *452:34 *550:28 4.51815e-05
47 *454:14 *12134:BEN[25] 6.38845e-05
48 *454:14 *550:82 0.0008696
49 *454:14 *550:92 0.000874035
50 *454:14 *550:102 0.000148925
51 *458:12 *12134:BEN[25] 0.000485804
52 *458:12 *550:43 1.05658e-05
53 *458:12 *550:102 0.000136958
54 *467:28 *550:35 0.000116297
55 *467:32 *550:35 0.00131469
56 *467:34 *550:28 0
57 *467:34 *550:35 0
58 *471:42 *12134:BEN[25] 0
59 *471:52 *12134:BEN[25] 0.000230551
60 *471:54 *550:82 0.0008696
61 *471:54 *550:92 0.000863891
62 *471:54 *550:102 0.00087708
63 *471:54 *550:114 0.00087708
64 *471:100 *12134:BEN[25] 4.00259e-06
65 *471:102 *550:28 0
66 *471:102 *550:35 0
67 *480:56 *550:128 0.000872504
68 *480:56 *550:148 0.000516432
69 *480:58 *550:148 0.000281946
70 *484:30 *550:102 0.000103868
71 *484:53 *550:102 0.000372001
72 *484:53 *550:114 0.000887224
73 *484:53 *550:128 7.91605e-05
74 *484:55 *550:128 0.000373516
75 *484:55 *550:148 0.000177228
76 *493:30 *550:128 7.53756e-05
77 *515:8 *550:28 0.000175903
*RES
1 *12019:X *550:6 38
2 *550:6 *550:8 152.271
3 *550:8 *550:14 35.3857
4 *550:14 *550:18 27.6889
5 *550:18 *550:28 33.8709
6 *550:28 *12216:A 23
7 *550:18 *550:35 59.1323
8 *550:35 *550:43 23.8182
9 *550:43 *12134:BEN[24] 1.09786
10 *550:43 *12134:BEN[25] 45.3079
11 *12134:BEN[25] *550:82 27.4596
12 *550:82 *12134:BEN[26] 16.0254
13 *550:82 *550:92 11.4343
14 *550:92 *12134:BEN[27] 16.0254
15 *550:92 *550:102 11.4343
16 *550:102 *12134:BEN[28] 16.0254
17 *550:102 *550:114 26.4343
18 *550:114 *12134:BEN[29] 1.02536
19 *550:114 *550:128 27.6875
20 *550:128 *12134:BEN[30] 17.0507
21 *12134:BEN[30] *550:135 0.169167
22 *550:128 *550:148 41.7036
23 *550:148 *12134:BEN[31] 17.0507
24 *12134:BEN[31] *550:155 0.145
*END

*D_NET *551 0.000401467
*CONN
*I *12018:A I *D sky130_fd_sc_hd__dlygate4sd3_1
*I *12020:X O *D sky130_fd_sc_hd__dlygate4sd3_1
*CAP
1 *12018:A 0
2 *12020:X 9.64057e-05
3 *551:8 9.64057e-05
4 *551:8 *588:42 1.14452e-05
5 *106:9 *551:8 0.000162422
6 *110:18 *551:8 3.47879e-05
*RES
1 *12020:X *551:8 40.2579
2 *551:8 *12018:A 38
*END

*D_NET *552 0.0355945
*CONN
*I *12122:A I *D sky130_fd_sc_hd__buf_12
*I *12188:X O *D sky130_fd_sc_hd__buf_12
*CAP
1 *12122:A 0.000694712
2 *12188:X 0.000737342
3 *552:16 0.005626
4 *552:14 0.00493128
5 *552:12 0.0023381
6 *552:10 0.0023381
7 *552:8 0.000737342
8 *12122:A *627:148 0
9 *552:12 *611:28 0.00242298
10 *552:16 *557:38 2.00753e-05
11 *552:16 *557:50 0.000260847
12 *552:16 *557:62 0.000216448
13 *552:16 *557:72 0.000249094
14 *552:16 *557:84 0.000260847
15 *552:16 *557:100 0.000260847
16 *552:16 *557:112 0
17 *552:16 *569:14 0
18 *845:DIODE *12122:A 8.04554e-05
19 *56:13 *552:8 0
20 *174:8 *12122:A 0
21 *174:10 *552:16 0.00537405
22 *228:17 *552:16 0
23 *382:74 *552:16 0
24 *382:88 *552:16 0.00267236
25 *472:10 *552:8 0
26 *518:20 *552:12 0.00637363
*RES
1 *12188:X *552:8 49.7657
2 *552:8 *552:10 15
3 *552:10 *552:12 70.18
4 *552:12 *552:14 15
5 *552:14 *552:16 162.835
6 *552:16 *12122:A 47.6736
*END

*D_NET *553 0.000470818
*CONN
*I *12197:A I *D sky130_fd_sc_hd__buf_2
*I *12021:X O *D sky130_fd_sc_hd__dlygate4sd3_1
*CAP
1 *12197:A 0
2 *12021:X 0.000195791
3 *553:10 0.000195791
4 *553:10 *593:28 3.42479e-05
5 wbs_dat_o[12] *553:10 4.49881e-05
6 *652:DIODE *553:10 0
7 *42:9 *553:10 0
8 *149:61 *553:10 0
*RES
1 *12021:X *553:10 41.3557
2 *553:10 *12197:A 38
*END

*D_NET *554 0.0353729
*CONN
*I *11818:A I *D sky130_fd_sc_hd__and3_4
*I *11821:A I *D sky130_fd_sc_hd__or2_4
*I *11819:A_N I *D sky130_fd_sc_hd__and4b_2
*I *11820:C I *D sky130_fd_sc_hd__and3b_1
*I *12022:X O *D sky130_fd_sc_hd__dlygate4sd3_1
*CAP
1 *11818:A 0
2 *11821:A 2.79296e-05
3 *11819:A_N 0.000984593
4 *11820:C 7.1969e-05
5 *12022:X 0.000194483
6 *554:77 0.000769501
7 *554:69 0.0010751
8 *554:57 0.00218658
9 *554:55 0.0021474
10 *554:35 0.00181978
11 *554:31 0.00188715
12 *554:14 0.00137913
13 *554:6 0.000744024
14 *11819:A_N *564:14 0.000646828
15 *11820:C *11820:A_N 4.67488e-05
16 *11821:A *11821:B 5.50049e-05
17 *554:14 *11820:A_N 4.34973e-05
18 *554:31 *625:43 0.000389926
19 *554:35 *598:10 0.00103671
20 *554:35 *625:43 0.00190467
21 *554:55 *12022:A 1.21972e-05
22 *554:55 *625:18 9.65021e-05
23 *554:57 *564:59 0.000926428
24 *554:57 *625:109 2.24151e-05
25 *554:57 *625:228 0.000618663
26 *554:69 *564:67 0.000364445
27 *554:77 *564:73 0.00193682
28 *115:10 *554:57 0.00036806
29 *145:10 *554:77 1.47563e-05
30 *147:10 *554:14 0.000888327
31 *147:10 *554:31 0.000668362
32 *180:36 *554:57 0.00561599
33 *180:46 *554:69 0
34 *180:52 *554:77 0.00144799
35 *183:8 *11820:C 1.32314e-05
36 *183:8 *554:14 9.58714e-05
37 *220:21 *554:57 0.000314805
38 *221:40 *554:57 0.00202058
39 *221:54 *554:57 0.000296947
40 *248:59 *554:57 0.000241796
41 *248:76 *554:57 0.00037403
42 *407:16 *554:14 0.000888327
43 *407:16 *554:31 3.95159e-06
44 *430:16 *554:57 0.000356488
45 *441:20 *554:77 0.000259217
46 *452:24 *554:14 0.000115675
*RES
1 *12022:X *554:6 25.0507
2 *554:6 *554:14 42.8636
3 *554:14 *11820:C 24.0979
4 *554:14 *554:31 33.3114
5 *554:31 *554:35 40.4993
6 *554:35 *11819:A_N 37.9143
7 *554:31 *11821:A 38.6214
8 *554:6 *554:55 18.0036
9 *554:55 *554:57 75.5036
10 *554:57 *554:69 36.2557
11 *554:69 *554:77 40.52
12 *554:77 *11818:A 23
*END

*D_NET *555 0.0726707
*CONN
*I *12154:EN I *D CF_SRAM_1024x32
*I *12023:X O *D sky130_fd_sc_hd__dlygate4sd3_1
*CAP
1 *12154:EN 0.00493186
2 *12023:X 5.48198e-05
3 *555:18 0.00888261
4 *555:14 0.00849881
5 *555:8 0.00460288
6 *555:8 *637:122 0.000136738
7 *12154:WLOFF *12154:EN 0.000157498
8 *181:71 *12154:EN 0.00124008
9 *286:15 *555:8 0.000135037
10 *289:17 *12154:EN 0
11 *296:25 *555:14 0.00812409
12 *299:23 *555:14 0.00107882
13 *300:17 *555:18 0.0173811
14 *303:25 *555:18 0.0173864
15 *432:54 *12154:EN 1.19354e-05
16 *480:58 *12154:EN 4.80465e-05
*RES
1 *12023:X *555:8 39.5743
2 *555:8 *555:14 45.8034
3 *555:14 *555:18 48.6747
4 *555:18 *12154:EN 48.56
*END

*D_NET *556 0.000890892
*CONN
*I *12206:A I *D sky130_fd_sc_hd__clkbuf_16
*I *12024:X O *D sky130_fd_sc_hd__dlygate4sd3_1
*CAP
1 *12206:A 7.11707e-05
2 *12024:X 0.000235639
3 *556:10 0.00030681
4 *12206:A *588:6 5.53064e-05
5 *556:10 *582:6 7.88828e-05
6 wbs_dat_o[1] *556:10 0
7 *104:11 *12206:A 5.12254e-05
8 *104:11 *556:10 9.18574e-05
*RES
1 *12024:X *556:10 42.8886
2 *556:10 *12206:A 39.5743
*END

*D_NET *557 0.221912
*CONN
*I *12124:BEN[10] I *D CF_SRAM_1024x32
*I *12144:BEN[8] I *D CF_SRAM_1024x32
*I *12144:BEN[9] I *D CF_SRAM_1024x32
*I *12144:BEN[10] I *D CF_SRAM_1024x32
*I *12144:BEN[11] I *D CF_SRAM_1024x32
*I *12144:BEN[12] I *D CF_SRAM_1024x32
*I *12144:BEN[13] I *D CF_SRAM_1024x32
*I *12144:BEN[14] I *D CF_SRAM_1024x32
*I *12154:BEN[8] I *D CF_SRAM_1024x32
*I *12154:BEN[9] I *D CF_SRAM_1024x32
*I *12154:BEN[10] I *D CF_SRAM_1024x32
*I *12154:BEN[11] I *D CF_SRAM_1024x32
*I *12154:BEN[12] I *D CF_SRAM_1024x32
*I *12154:BEN[13] I *D CF_SRAM_1024x32
*I *12154:BEN[14] I *D CF_SRAM_1024x32
*I *12154:BEN[15] I *D CF_SRAM_1024x32
*I *12144:BEN[15] I *D CF_SRAM_1024x32
*I *12124:BEN[8] I *D CF_SRAM_1024x32
*I *12124:BEN[9] I *D CF_SRAM_1024x32
*I *12124:BEN[11] I *D CF_SRAM_1024x32
*I *12124:BEN[12] I *D CF_SRAM_1024x32
*I *12124:BEN[13] I *D CF_SRAM_1024x32
*I *12124:BEN[14] I *D CF_SRAM_1024x32
*I *12134:BEN[8] I *D CF_SRAM_1024x32
*I *12134:BEN[9] I *D CF_SRAM_1024x32
*I *12134:BEN[10] I *D CF_SRAM_1024x32
*I *12134:BEN[11] I *D CF_SRAM_1024x32
*I *12134:BEN[12] I *D CF_SRAM_1024x32
*I *12134:BEN[13] I *D CF_SRAM_1024x32
*I *12134:BEN[14] I *D CF_SRAM_1024x32
*I *12134:BEN[15] I *D CF_SRAM_1024x32
*I *12124:BEN[15] I *D CF_SRAM_1024x32
*I *12025:X O *D sky130_fd_sc_hd__clkbuf_16
*CAP
1 *12124:BEN[10] 0.000312684
2 *12144:BEN[8] 0.000481708
3 *12144:BEN[9] 0.000141676
4 *12144:BEN[10] 0.000142655
5 *12144:BEN[11] 0.000110367
6 *12144:BEN[12] 0.000151618
7 *12144:BEN[13] 0.000486029
8 *12144:BEN[14] 0.000779769
9 *12154:BEN[8] 0.000547001
10 *12154:BEN[9] 0.000226311
11 *12154:BEN[10] 0.00022729
12 *12154:BEN[11] 0.000222807
13 *12154:BEN[12] 0.000261489
14 *12154:BEN[13] 0.000173396
15 *12154:BEN[14] 0.000259008
16 *12154:BEN[15] 0.000195192
17 *12144:BEN[15] 0.00069681
18 *12124:BEN[8] 0.000458562
19 *12124:BEN[9] 0.000464543
20 *12124:BEN[11] 0.000327414
21 *12124:BEN[12] 0.000172618
22 *12124:BEN[13] 9.56968e-05
23 *12124:BEN[14] 5.33192e-05
24 *12134:BEN[8] 0.000372473
25 *12134:BEN[9] 0.000110684
26 *12134:BEN[10] 0.000114108
27 *12134:BEN[11] 0.000158266
28 *12134:BEN[12] 0.000173662
29 *12134:BEN[13] 0.000155218
30 *12134:BEN[14] 0.000229578
31 *12134:BEN[15] 0.000233117
32 *12124:BEN[15] 0.0023392
33 *12025:X 0
34 *557:461 0.00102385
35 *557:449 0.000945642
36 *557:437 0.000920384
37 *557:425 0.00153052
38 *557:397 0.00177539
39 *557:392 0
40 *557:377 0.00145977
41 *557:353 0.00104089
42 *557:341 0.000713708
43 *557:329 0.000692854
44 *557:317 0.000803108
45 *557:312 0
46 *557:305 0.000655956
47 *557:293 0.000695892
48 *557:281 0.000439933
49 *557:279 0.0227365
50 *557:263 0.0244848
51 *557:259 0.0145558
52 *557:239 0.0141616
53 *557:234 7.90385e-06
54 *557:219 0.00169061
55 *557:213 0.00134578
56 *557:191 0.00125375
57 *557:171 0.000931921
58 *557:161 0.000347924
59 *557:157 0.000441637
60 *557:136 0.00264204
61 *557:112 0.000808651
62 *557:105 0
63 *557:100 0.000797758
64 *557:91 0
65 *557:84 0.00080173
66 *557:79 0
67 *557:72 0.00079157
68 *557:62 0.000790261
69 *557:50 0.000814804
70 *557:38 0.000555017
71 *557:34 0.0211369
72 *557:32 0.0210978
73 *557:30 0.00410059
74 *557:12 0.00146471
75 *557:6 0.00101974
76 *557:30 *631:212 6.74969e-06
77 *557:191 *632:83 0.00113351
78 *557:213 *632:83 0.000880385
79 *557:219 *632:83 0.00039106
80 *557:239 *632:83 0.000543842
81 *557:259 *560:82 0.000881049
82 *557:259 *560:102 0.000774032
83 *557:259 *560:122 0.00149225
84 *557:259 *560:154 0.0225755
85 *557:259 *632:83 0.00200966
86 *557:377 *560:154 0.000843944
87 *557:397 *560:154 0.00079543
88 *557:425 *560:154 0.00110108
89 *557:437 *638:156 0.000228978
90 *557:449 *638:156 0.000347026
91 *557:461 *638:156 0.000326857
92 *11865:A1 *12124:BEN[12] 0
93 *12124:DI[14] *557:157 2.64616e-05
94 *12124:DI[15] *557:30 0
95 *12134:DI[12] *557:84 4.80465e-05
96 *12134:DI[14] *12134:BEN[14] 0
97 *12134:DI[14] *557:62 4.80465e-05
98 *12134:DI[11] *557:100 2.11157e-05
99 *12134:DI[9] *12134:BEN[8] 4.80427e-05
100 *12134:DI[15] *12134:BEN[15] 0
101 *12134:DI[15] *557:34 0
102 *12134:DI[13] *557:72 4.67227e-05
103 *12144:DI[12] *12144:BEN[12] 0
104 *12144:DI[9] *12144:BEN[9] 0
105 *12144:DI[10] *12144:BEN[10] 0
106 *12154:DI[12] *12154:BEN[12] 0
107 *12154:DI[12] *557:329 2.11066e-05
108 *12154:DI[14] *12154:BEN[14] 0
109 *12154:DI[14] *557:305 4.80465e-05
110 *12154:DI[11] *557:341 2.11157e-05
111 *12154:DI[9] *12154:BEN[8] 2.11157e-05
112 *12154:DI[15] *557:293 4.80465e-05
113 *12154:DI[13] *557:317 2.05503e-05
114 *12154:DI[10] *12154:BEN[10] 0
115 *116:22 *557:12 0.00023688
116 *120:18 *557:30 2.27289e-05
117 *120:18 *557:136 0.000798822
118 *124:22 *557:12 0.000201195
119 *124:28 *557:12 3.32734e-05
120 *136:26 *557:12 0
121 *142:16 *12124:BEN[9] 3.7122e-06
122 *142:20 *12124:BEN[10] 2.11157e-05
123 *142:20 *12124:BEN[11] 2.11157e-05
124 *142:20 *557:161 0.000314965
125 *142:20 *557:171 0.000746883
126 *142:20 *557:191 3.81338e-05
127 *142:24 *557:157 0.000405494
128 *144:24 *557:12 0.000843568
129 *144:28 *557:12 0
130 *187:22 *12124:BEN[10] 0
131 *187:22 *557:219 0
132 *188:22 *12124:BEN[10] 0
133 *188:22 *12124:BEN[11] 0
134 *188:22 *557:219 0
135 *189:22 *12124:BEN[11] 0
136 *189:22 *557:191 0
137 *191:21 *557:157 6.17437e-06
138 *191:27 *557:12 0
139 *192:23 *12124:BEN[14] 0
140 *194:36 *557:136 9.6788e-06
141 *195:19 *557:191 0.000446853
142 *195:19 *557:213 0.000355704
143 *206:27 *12124:BEN[15] 1.19591e-05
144 *216:21 *12124:BEN[8] 0
145 *217:17 *12124:BEN[9] 0
146 *217:27 *557:12 0.000101418
147 *219:11 *12134:BEN[9] 0
148 *219:11 *12134:BEN[8] 0.000367044
149 *219:11 *557:112 0.000113747
150 *220:11 *557:100 0.000128052
151 *221:16 *557:84 4.80465e-05
152 *228:13 *12134:BEN[8] 0.000859596
153 *228:13 *557:84 0.00017564
154 *228:13 *557:100 0.000203325
155 *228:13 *557:112 0.000878447
156 *228:17 *557:38 3.48578e-05
157 *228:17 *557:50 0.000423233
158 *228:17 *557:62 0.000328556
159 *228:17 *557:72 0.000384692
160 *228:17 *557:84 0.000134619
161 *249:16 *12134:BEN[8] 4.80465e-05
162 *251:11 *12144:BEN[15] 2.11157e-05
163 *253:11 *12144:BEN[15] 2.11157e-05
164 *254:20 *557:425 0
165 *255:7 *12144:BEN[13] 0
166 *256:22 *12144:BEN[14] 0
167 *256:22 *557:263 0
168 *272:11 *12144:BEN[14] 2.11066e-05
169 *278:11 *12144:BEN[14] 2.11066e-05
170 *279:11 *12144:BEN[8] 0.00014929
171 *281:11 *12144:BEN[13] 2.11066e-05
172 *281:11 *12144:BEN[8] 0.000309582
173 *281:11 *557:425 4.67137e-05
174 *281:11 *557:437 0.000817687
175 *281:11 *557:449 0.000945736
176 *281:11 *557:461 0.000890145
177 *283:17 *557:353 7.53717e-05
178 *284:20 *557:341 2.11066e-05
179 *285:17 *557:329 2.11066e-05
180 *287:22 *557:305 4.80465e-05
181 *288:22 *557:293 2.11066e-05
182 *313:17 *12154:BEN[8] 2.11066e-05
183 *319:16 *557:30 2.11157e-05
184 *319:16 *557:136 0.000807243
185 *351:18 *12124:BEN[9] 8.21456e-06
186 *351:18 *12124:BEN[8] 8.22421e-06
187 *351:26 *12124:BEN[10] 2.11157e-05
188 *351:26 *12124:BEN[11] 2.11157e-05
189 *351:26 *557:161 0.000314965
190 *351:26 *557:171 0.000757027
191 *351:26 *557:191 0.000209134
192 *351:26 *557:213 0.000125908
193 *360:38 *557:34 0
194 *360:92 *557:263 0
195 *360:92 *557:279 0
196 *382:74 *557:112 4.80427e-05
197 *382:88 *12154:BEN[15] 4.80465e-05
198 *382:88 *557:112 4.4003e-05
199 *382:88 *557:293 0.00097989
200 *382:88 *557:305 0.000746813
201 *382:88 *557:317 0.00100568
202 *382:88 *557:329 0.000815188
203 *382:88 *557:341 0.000856451
204 *382:88 *557:353 0.000280849
205 *432:50 *12154:BEN[8] 0.000200705
206 *432:50 *557:353 0.000176928
207 *480:58 *12154:BEN[15] 2.13261e-05
208 *480:58 *12154:BEN[8] 0.000303342
209 *480:58 *557:293 0.000434074
210 *480:58 *557:305 0.000306288
211 *480:58 *557:317 0.0004676
212 *480:58 *557:329 0.000358472
213 *480:58 *557:341 0.000386592
214 *480:58 *557:353 0.000385879
215 *496:20 *557:12 0.00110633
216 *496:32 *557:12 5.50049e-05
217 *552:16 *557:38 2.00753e-05
218 *552:16 *557:50 0.000260847
219 *552:16 *557:62 0.000216448
220 *552:16 *557:72 0.000249094
221 *552:16 *557:84 0.000260847
222 *552:16 *557:100 0.000260847
223 *552:16 *557:112 0
*RES
1 *12025:X *557:6 38
2 *557:6 *557:12 40.955
3 *557:12 *12124:BEN[15] 38.6275
4 *12124:BEN[15] *557:30 38.8007
5 *557:30 *557:32 8
6 *557:32 *557:34 61.7941
7 *557:34 *557:38 9.02536
8 *557:38 *12134:BEN[15] 19.0496
9 *557:38 *557:50 11.4136
10 *557:50 *12134:BEN[14] 19.0289
11 *557:50 *557:62 10.005
12 *557:62 *12134:BEN[13] 17.4546
13 *557:62 *557:72 11.4136
14 *557:72 *12134:BEN[12] 17.5271
15 *12134:BEN[12] *557:79 0.225556
16 *557:72 *557:84 11.4136
17 *557:84 *12134:BEN[11] 17.5271
18 *12134:BEN[11] *557:91 0.184545
19 *557:84 *557:100 27.5114
20 *557:100 *12134:BEN[10] 1.57429
21 *12134:BEN[10] *557:105 0.156154
22 *557:100 *557:112 26.4964
23 *557:112 *12134:BEN[9] 16.5018
24 *557:112 *12134:BEN[8] 27.9361
25 *557:30 *557:136 47.4696
26 *557:136 *12124:BEN[14] 1.09786
27 *557:136 *557:157 38.4514
28 *557:157 *557:161 19.0186
29 *557:161 *12124:BEN[13] 16.5018
30 *557:161 *557:171 10.005
31 *557:171 *12124:BEN[12] 18.0761
32 *557:171 *557:191 19.5385
33 *557:191 *12124:BEN[11] 34.9578
34 *557:191 *557:213 10.0869
35 *557:213 *557:219 10.2773
36 *557:219 *12124:BEN[9] 33.1189
37 *12124:BEN[9] *557:234 0.155357
38 *557:219 *557:239 2.3408
39 *557:239 *12124:BEN[8] 34.1443
40 *557:239 *557:259 67.8384
41 *557:259 *557:263 10.0739
42 *557:263 *12144:BEN[15] 32.4664
43 *557:263 *557:279 64.2843
44 *557:279 *557:281 8
45 *557:281 *12154:BEN[15] 18.1279
46 *557:281 *557:293 12.6461
47 *557:293 *12154:BEN[14] 19.3396
48 *557:293 *557:305 9.65286
49 *557:305 *12154:BEN[13] 17.5271
50 *12154:BEN[13] *557:312 0.184545
51 *557:305 *557:317 13.1743
52 *557:317 *12154:BEN[12] 19.2982
53 *557:317 *557:329 10.7093
54 *557:329 *12154:BEN[11] 18.5732
55 *557:329 *557:341 11.0614
56 *557:341 *12154:BEN[10] 18.6768
57 *557:341 *557:353 11.4136
58 *557:353 *12154:BEN[9] 18.6561
59 *557:353 *12154:BEN[8] 28.4539
60 *557:259 *557:377 1.96
61 *557:377 *12144:BEN[14] 35.9304
62 *12144:BEN[14] *557:392 0.225556
63 *557:377 *557:397 1.83307
64 *557:397 *12144:BEN[13] 34.6414
65 *557:397 *557:425 19.9679
66 *557:425 *12144:BEN[12] 17.8689
67 *557:425 *557:437 10.7093
68 *557:437 *12144:BEN[11] 17.1439
69 *557:437 *557:449 12.1179
70 *557:449 *12144:BEN[10] 17.8275
71 *557:449 *557:461 11.4136
72 *557:461 *12144:BEN[9] 17.8068
73 *557:461 *12144:BEN[8] 25.9682
74 *557:213 *12124:BEN[10] 26.9371
*END

*D_NET *558 0.000709782
*CONN
*I *12024:A I *D sky130_fd_sc_hd__dlygate4sd3_1
*I *12027:X O *D sky130_fd_sc_hd__dlygate4sd3_1
*CAP
1 *12024:A 8.3066e-05
2 *12027:X 8.51417e-05
3 *558:8 0.000168208
4 *12024:A *582:6 0.000232409
5 wbs_dat_o[1] *558:8 0
6 *50:13 *558:8 0.000140958
*RES
1 *12027:X *558:8 39.9057
2 *558:8 *12024:A 40.5271
*END

*D_NET *559 0.0019481
*CONN
*I *12205:A I *D sky130_fd_sc_hd__clkbuf_16
*I *12028:X O *D sky130_fd_sc_hd__dlygate4sd3_1
*CAP
1 *12205:A 3.80977e-05
2 *12028:X 0.000767979
3 *559:10 0.000806077
4 *12205:A *582:6 2.64616e-05
5 *559:10 *602:8 0
6 *50:13 *559:10 0.000241583
7 *423:10 *559:10 6.79006e-05
*RES
1 *12028:X *559:10 48.4193
2 *559:10 *12205:A 38.6214
*END

*D_NET *560 0.261508
*CONN
*I *12134:BEN[0] I *D CF_SRAM_1024x32
*I *12134:BEN[1] I *D CF_SRAM_1024x32
*I *12134:BEN[2] I *D CF_SRAM_1024x32
*I *12134:BEN[3] I *D CF_SRAM_1024x32
*I *12134:BEN[4] I *D CF_SRAM_1024x32
*I *12134:BEN[5] I *D CF_SRAM_1024x32
*I *12134:BEN[6] I *D CF_SRAM_1024x32
*I *12134:BEN[7] I *D CF_SRAM_1024x32
*I *12124:BEN[7] I *D CF_SRAM_1024x32
*I *12124:BEN[4] I *D CF_SRAM_1024x32
*I *12154:BEN[0] I *D CF_SRAM_1024x32
*I *12154:BEN[1] I *D CF_SRAM_1024x32
*I *12154:BEN[2] I *D CF_SRAM_1024x32
*I *12154:BEN[3] I *D CF_SRAM_1024x32
*I *12154:BEN[4] I *D CF_SRAM_1024x32
*I *12154:BEN[5] I *D CF_SRAM_1024x32
*I *12154:BEN[6] I *D CF_SRAM_1024x32
*I *12154:BEN[7] I *D CF_SRAM_1024x32
*I *12144:BEN[0] I *D CF_SRAM_1024x32
*I *12144:BEN[1] I *D CF_SRAM_1024x32
*I *12144:BEN[2] I *D CF_SRAM_1024x32
*I *12144:BEN[3] I *D CF_SRAM_1024x32
*I *12144:BEN[4] I *D CF_SRAM_1024x32
*I *12144:BEN[5] I *D CF_SRAM_1024x32
*I *12144:BEN[6] I *D CF_SRAM_1024x32
*I *12144:BEN[7] I *D CF_SRAM_1024x32
*I *12124:BEN[0] I *D CF_SRAM_1024x32
*I *12124:BEN[1] I *D CF_SRAM_1024x32
*I *12124:BEN[2] I *D CF_SRAM_1024x32
*I *12124:BEN[3] I *D CF_SRAM_1024x32
*I *12124:BEN[5] I *D CF_SRAM_1024x32
*I *12124:BEN[6] I *D CF_SRAM_1024x32
*I *12029:X O *D sky130_fd_sc_hd__clkbuf_16
*CAP
1 *12134:BEN[0] 0.000434388
2 *12134:BEN[1] 0.000263074
3 *12134:BEN[2] 0.00021159
4 *12134:BEN[3] 0.00016854
5 *12134:BEN[4] 0.000169518
6 *12134:BEN[5] 0.000185926
7 *12134:BEN[6] 0.00016854
8 *12134:BEN[7] 0.000199953
9 *12124:BEN[7] 0.000147903
10 *12124:BEN[4] 0.000239005
11 *12154:BEN[0] 0.000480177
12 *12154:BEN[1] 0.000170034
13 *12154:BEN[2] 0.000247267
14 *12154:BEN[3] 0.000248246
15 *12154:BEN[4] 0.000182691
16 *12154:BEN[5] 0.000183669
17 *12154:BEN[6] 0.000251181
18 *12154:BEN[7] 0.00025472
19 *12144:BEN[0] 0.000551204
20 *12144:BEN[1] 0.000133849
21 *12144:BEN[2] 0.000134827
22 *12144:BEN[3] 0.000135806
23 *12144:BEN[4] 0.000141676
24 *12144:BEN[5] 0.000140698
25 *12144:BEN[6] 0.000139719
26 *12144:BEN[7] 7.30751e-05
27 *12124:BEN[0] 0.000252403
28 *12124:BEN[1] 0.000301203
29 *12124:BEN[2] 0.000324005
30 *12124:BEN[3] 0.000372715
31 *12124:BEN[5] 0.000402733
32 *12124:BEN[6] 0.000391944
33 *12029:X 0
34 *560:485 0.000875812
35 *560:473 0.000600669
36 *560:461 0.00065608
37 *560:449 0.000681314
38 *560:437 0.000651884
39 *560:425 0.000662356
40 *560:411 0.0005093
41 *560:405 0.0149407
42 *560:403 0.0149396
43 *560:346 0.000882694
44 *560:334 0.000819216
45 *560:314 0.000912822
46 *560:302 0.000770103
47 *560:290 0.000679714
48 *560:278 0.000747226
49 *560:266 0.000560347
50 *560:262 0.0261862
51 *560:260 0.0269663
52 *560:234 0.00128696
53 *560:222 0.00134379
54 *560:210 0.00145869
55 *560:198 0.00130139
56 *560:186 0.00102772
57 *560:174 0.000935806
58 *560:162 0.000451504
59 *560:158 0.00117505
60 *560:154 0.00866497
61 *560:128 0.000795631
62 *560:122 0.00884266
63 *560:102 0.000729321
64 *560:82 0.000955525
65 *560:76 0.00124435
66 *560:54 0.00149435
67 *560:30 0.00131807
68 *560:24 0.00304149
69 *560:20 0.00297429
70 *560:18 0.00144514
71 *560:8 0.00185773
72 *560:6 0.000848443
73 *12144:BEN[0] *638:156 0.000246181
74 *560:8 *588:46 0.00273531
75 *560:18 *627:27 0.000613756
76 *560:30 *632:83 0.00069433
77 *560:54 *632:83 0.00115009
78 *560:76 *632:83 0.00101859
79 *560:82 *632:83 0.000870531
80 *560:102 *632:83 0.000788135
81 *560:122 *632:83 0.00150636
82 *560:154 *632:83 0.00308626
83 *560:154 *639:94 0.000944163
84 *560:154 *639:114 0.000948754
85 *560:154 *639:134 0.0191299
86 *560:174 *638:156 0.0001397
87 *560:186 *638:156 0.000326857
88 *560:198 *638:156 0.000326857
89 *560:210 *638:156 0.000208809
90 *560:234 *638:156 0.000264274
91 *11834:A1 *560:20 0.000224204
92 *12124:DI[3] *12124:BEN[3] 0
93 *12124:DI[4] *12124:BEN[4] 0
94 *12124:DI[7] *12124:BEN[6] 0
95 *12124:DI[8] *560:405 0
96 *12134:ScanInDL *12134:BEN[0] 0
97 *12134:DI[3] *560:473 8.71278e-06
98 *12134:DI[4] *560:461 4.20022e-05
99 *12134:DI[5] *560:449 3.9569e-05
100 *12134:DI[6] *560:437 1.01785e-05
101 *12134:DI[7] *12134:BEN[7] 0
102 *12134:DI[7] *560:425 2.11157e-05
103 *12144:DI[3] *12144:BEN[3] 0
104 *12144:DI[1] *12144:BEN[1] 0
105 *12144:DI[2] *12144:BEN[2] 0
106 *12154:DI[3] *560:334 0.000127157
107 *12154:DI[4] *560:314 0.000200356
108 *12154:DI[5] *560:302 2.11157e-05
109 *12154:DI[1] *12154:BEN[0] 2.11157e-05
110 *12154:DI[6] *12154:BEN[6] 0
111 *12154:DI[6] *560:290 2.11157e-05
112 *12154:DI[2] *12154:BEN[2] 0
113 *12154:DI[2] *560:346 2.11157e-05
114 *12154:DI[7] *12154:BEN[7] 0
115 *12154:DI[7] *560:278 2.11157e-05
116 *116:22 *560:8 0.000555087
117 *118:12 *560:8 2.97829e-05
118 *118:14 *560:8 0.002699
119 *119:34 *560:24 0.000126496
120 *120:16 *560:8 0.000212726
121 *123:18 *12124:BEN[0] 0.000131661
122 *123:18 *12124:BEN[1] 0.000565736
123 *123:24 *12124:BEN[4] 6.17437e-06
124 *123:34 *560:54 0.000201661
125 *124:14 *560:8 2.13834e-05
126 *133:16 *560:154 0.000341849
127 *135:34 *12124:BEN[6] 4.51353e-05
128 *139:36 *560:128 5.96737e-06
129 *146:10 *560:18 1.38076e-05
130 *146:10 *560:20 0.00103639
131 *146:10 *560:403 0.000102611
132 *193:18 *12124:BEN[0] 0.000121117
133 *193:18 *12124:BEN[1] 0.000565736
134 *193:18 *12124:BEN[2] 2.11157e-05
135 *193:18 *12124:BEN[3] 2.11157e-05
136 *193:18 *12124:BEN[4] 2.11157e-05
137 *193:18 *12124:BEN[6] 2.11157e-05
138 *193:24 *12124:BEN[7] 3.7122e-06
139 *194:30 *12124:BEN[5] 2.11066e-05
140 *195:19 *560:30 0.00027148
141 *195:19 *560:54 0.000451702
142 *195:19 *560:76 0.000398357
143 *195:19 *560:154 0
144 *197:17 *12124:BEN[0] 0
145 *197:17 *560:128 0.000176468
146 *204:19 *560:154 0
147 *208:19 *12124:BEN[2] 0
148 *211:17 *12124:BEN[2] 0
149 *211:17 *12124:BEN[3] 3.96923e-05
150 *212:17 *12124:BEN[3] 0
151 *213:17 *12124:BEN[4] 0
152 *213:17 *560:82 0
153 *214:17 *12124:BEN[5] 0
154 *215:17 *12124:BEN[6] 0.000125247
155 *216:21 *560:30 0
156 *219:11 *560:411 2.79482e-05
157 *219:15 *560:405 0.0218899
158 *225:42 *12134:BEN[0] 0.000873853
159 *225:42 *560:485 0.00061325
160 *228:13 *560:411 9.94886e-05
161 *228:13 *560:425 0.000235622
162 *228:13 *560:437 0.000285665
163 *228:13 *560:449 0.000132934
164 *228:13 *560:461 0.000230766
165 *228:13 *560:473 0.0002756
166 *228:13 *560:485 3.802e-05
167 *229:11 *12134:BEN[0] 0
168 *240:13 *12134:BEN[1] 0
169 *240:13 *560:485 2.11157e-05
170 *240:27 *560:405 0
171 *243:13 *560:473 2.11157e-05
172 *243:27 *560:20 1.29852e-05
173 *244:11 *560:461 3.48207e-05
174 *245:13 *560:437 4.80427e-05
175 *245:13 *560:449 0.000397635
176 *246:13 *560:437 2.11157e-05
177 *247:13 *560:425 4.80465e-05
178 *248:19 *560:405 0
179 *248:27 *560:405 0.00512785
180 *261:9 *12144:BEN[0] 0
181 *271:11 *12144:BEN[0] 0
182 *271:11 *560:234 0
183 *272:11 *560:210 0
184 *272:11 *560:222 0
185 *272:11 *560:234 0
186 *276:11 *560:174 9.88764e-05
187 *276:11 *560:186 0.000319862
188 *276:11 *560:198 0.000319862
189 *276:11 *560:210 0.00017502
190 *279:9 *12144:BEN[6] 0
191 *279:11 *560:162 8.21456e-06
192 *279:11 *560:174 0.000261181
193 *293:13 *12154:BEN[0] 2.11157e-05
194 *304:17 *560:346 4.80427e-05
195 *308:13 *560:314 2.11157e-05
196 *309:13 *560:302 2.11157e-05
197 *310:13 *560:290 2.11157e-05
198 *311:17 *560:278 2.11157e-05
199 *319:34 *560:8 0.000239601
200 *351:18 *12124:BEN[5] 2.11066e-05
201 *351:18 *12124:BEN[7] 2.11066e-05
202 *362:10 *560:18 0.000650086
203 *362:10 *560:20 0.000171985
204 *371:34 *560:18 4.67488e-05
205 *382:88 *12134:BEN[0] 0.000883861
206 *382:88 *560:411 6.93074e-06
207 *382:88 *560:425 0.000746813
208 *382:88 *560:437 0.000911271
209 *382:88 *560:449 0.000869448
210 *382:88 *560:461 0.000869448
211 *382:88 *560:473 0.000829042
212 *382:88 *560:485 0.000801632
213 *389:16 *560:20 0.000382917
214 *389:16 *560:403 0.000110276
215 *389:36 *560:405 0
216 *393:32 *560:405 0
217 *393:53 *560:262 0
218 *432:54 *12154:BEN[0] 0.000381136
219 *432:54 *560:266 4.84329e-05
220 *432:54 *560:278 0.000435436
221 *432:54 *560:290 0.000381136
222 *432:54 *560:302 0.000435436
223 *432:54 *560:314 0.000473854
224 *432:54 *560:334 0.000536515
225 *432:54 *560:346 0.000381136
226 *480:58 *12154:BEN[0] 0.00034587
227 *480:58 *560:266 4.84329e-05
228 *480:58 *560:278 0.00040017
229 *480:58 *560:290 0.00034587
230 *480:58 *560:302 0.00040017
231 *480:58 *560:314 0.000357434
232 *480:58 *560:334 0.000336165
233 *480:58 *560:346 0.000332857
234 *557:259 *560:82 0.000881049
235 *557:259 *560:102 0.000774032
236 *557:259 *560:122 0.00149225
237 *557:259 *560:154 0.0225755
238 *557:377 *560:154 0.000843944
239 *557:397 *560:154 0.00079543
240 *557:425 *560:154 0.00110108
*RES
1 *12029:X *560:6 38
2 *560:6 *560:8 39.585
3 *560:8 *560:18 47.1618
4 *560:18 *560:20 14.2307
5 *560:20 *560:24 12.5211
6 *560:24 *560:30 9.84987
7 *560:30 *12124:BEN[6] 37.9377
8 *560:30 *560:54 2.7216
9 *560:54 *12124:BEN[5] 34.5288
10 *560:54 *560:76 10.4677
11 *560:76 *560:82 10.4864
12 *560:82 *12124:BEN[3] 34.5733
13 *560:82 *560:102 1.83307
14 *560:102 *12124:BEN[2] 33.144
15 *560:102 *560:122 3.4832
16 *560:122 *560:128 16.7
17 *560:128 *12124:BEN[1] 25.295
18 *560:128 *12124:BEN[0] 20.5307
19 *560:122 *560:154 68.4731
20 *560:154 *560:158 8.52827
21 *560:158 *560:162 8.32107
22 *560:162 *12144:BEN[7] 16.3361
23 *560:162 *560:174 10.005
24 *560:174 *12144:BEN[6] 17.7654
25 *560:174 *560:186 11.4136
26 *560:186 *12144:BEN[5] 17.7861
27 *560:186 *560:198 11.4136
28 *560:198 *12144:BEN[4] 17.8068
29 *560:198 *560:210 14.5829
30 *560:210 *12144:BEN[3] 17.6825
31 *560:210 *560:222 11.4136
32 *560:222 *12144:BEN[2] 17.6618
33 *560:222 *560:234 11.4136
34 *560:234 *12144:BEN[1] 17.6411
35 *560:234 *12144:BEN[0] 26.1339
36 *560:158 *560:260 1.484
37 *560:260 *560:262 64.4131
38 *560:262 *560:266 9.3775
39 *560:266 *12154:BEN[7] 19.1946
40 *560:266 *560:278 11.4136
41 *560:278 *12154:BEN[6] 19.1739
42 *560:278 *560:290 10.005
43 *560:290 *12154:BEN[5] 17.7446
44 *560:290 *560:302 11.4136
45 *560:302 *12154:BEN[4] 17.7239
46 *560:302 *560:314 12.8221
47 *560:314 *12154:BEN[3] 19.1118
48 *560:314 *560:334 12.9464
49 *560:334 *12154:BEN[2] 19.0911
50 *560:334 *560:346 10.005
51 *560:346 *12154:BEN[1] 17.5271
52 *560:346 *12154:BEN[0] 28.9718
53 *560:76 *12124:BEN[4] 26.2505
54 *560:24 *12124:BEN[7] 25.7964
55 *560:20 *560:403 9.55357
56 *560:403 *560:405 60.9355
57 *560:405 *560:411 24.3775
58 *560:411 *12134:BEN[7] 3.28321
59 *560:411 *560:425 25.7507
60 *560:425 *12134:BEN[6] 17.7446
61 *560:425 *560:437 11.7657
62 *560:437 *12134:BEN[5] 17.7861
63 *560:437 *560:449 11.4136
64 *560:449 *12134:BEN[4] 17.7654
65 *560:449 *560:461 11.4136
66 *560:461 *12134:BEN[3] 17.7446
67 *560:461 *560:473 10.7093
68 *560:473 *12134:BEN[2] 18.6561
69 *560:473 *560:485 10.3571
70 *560:485 *12134:BEN[1] 19.2568
71 *560:485 *12134:BEN[0] 30.6911
*END

*D_NET *561 0.000316099
*CONN
*I *12028:A I *D sky130_fd_sc_hd__dlygate4sd3_1
*I *12030:X O *D sky130_fd_sc_hd__dlygate4sd3_1
*CAP
1 *12028:A 0
2 *12030:X 0.00015805
3 *561:10 0.00015805
4 *561:10 *590:12 0
*RES
1 *12030:X *561:10 40.5271
2 *561:10 *12028:A 38
*END

*D_NET *562 0.00146961
*CONN
*I *12208:A I *D sky130_fd_sc_hd__buf_2
*I *12031:X O *D sky130_fd_sc_hd__dlygate4sd3_1
*CAP
1 *12208:A 7.98292e-05
2 *12031:X 0.000253924
3 *562:8 0.000333754
4 *562:8 *594:30 0.000390731
5 *562:8 *595:22 0
6 *154:20 *12208:A 0.000144211
7 *156:26 *12208:A 0.000267161
8 *364:10 *562:8 0
*RES
1 *12031:X *562:8 43.4271
2 *562:8 *12208:A 41.0036
*END

*D_NET *563 0.0473973
*CONN
*I *11941:A I *D sky130_fd_sc_hd__buf_12
*I *12189:X O *D sky130_fd_sc_hd__buf_12
*CAP
1 *11941:A 5.145e-05
2 *12189:X 0.000668991
3 *563:18 0.00381116
4 *563:16 0.00375971
5 *563:14 0.0012824
6 *563:12 0.0012824
7 *563:10 0.000668991
8 *563:18 *568:24 0.0112472
9 *563:18 *570:16 0.011998
10 *563:18 *572:8 0.000232696
11 *56:13 *563:10 5.56356e-05
12 *236:11 *563:18 0.000415405
13 *472:10 *563:10 1.59094e-05
14 *518:20 *563:14 0.00580497
15 *541:12 *563:14 0.00610238
*RES
1 *12189:X *563:10 47.2179
2 *563:10 *563:12 15
3 *563:12 *563:14 69.2271
4 *563:14 *563:16 15
5 *563:16 *563:18 169.174
6 *563:18 *11941:A 38.6214
*END

*D_NET *564 0.0496519
*CONN
*I *11818:B I *D sky130_fd_sc_hd__and3_4
*I *11820:A_N I *D sky130_fd_sc_hd__and3b_1
*I *11821:B I *D sky130_fd_sc_hd__or2_4
*I *11819:B I *D sky130_fd_sc_hd__and4b_2
*I *12032:X O *D sky130_fd_sc_hd__dlygate4sd3_1
*CAP
1 *11818:B 0
2 *11820:A_N 0.000325981
3 *11821:B 0.000267455
4 *11819:B 0
5 *12032:X 0
6 *564:73 0.000492512
7 *564:67 0.000632198
8 *564:59 0.000596944
9 *564:51 0.00171956
10 *564:49 0.00146749
11 *564:38 0.000910761
12 *564:25 0.00146689
13 *564:14 0.00150936
14 *564:10 0.00312938
15 *564:6 0.00165459
16 *564:4 0.00085442
17 *564:6 *584:18 0.00389605
18 *564:10 *578:10 0.00108049
19 *564:25 *578:10 0.0010382
20 *564:38 *574:16 0.00122023
21 *564:51 *578:10 0.00582138
22 *564:51 *625:174 0.000846788
23 *564:51 *625:209 0.000228436
24 *564:73 *578:10 0.00149894
25 *11819:A_N *564:14 0.000646828
26 *11820:B *11820:A_N 0.000152662
27 *11820:B *564:49 8.11489e-05
28 *11820:C *11820:A_N 4.67488e-05
29 *11821:A *11821:B 5.50049e-05
30 *111:10 *11821:B 2.64616e-05
31 *112:14 *564:51 0.00188795
32 *112:14 *564:59 6.7177e-06
33 *115:10 *564:59 0.000955525
34 *145:18 *564:59 8.73233e-05
35 *145:18 *564:67 0.000115312
36 *148:10 *564:10 0.00102646
37 *148:10 *564:25 0.000494924
38 *149:22 *564:6 0.00346886
39 *180:25 *564:25 0.000985752
40 *180:36 *564:51 6.51717e-05
41 *180:46 *564:67 0.000291884
42 *180:52 *564:73 0.000391484
43 *183:8 *11820:A_N 3.84903e-05
44 *183:8 *564:49 3.7122e-06
45 *185:8 *564:73 2.32101e-05
46 *221:22 *564:51 0.00134711
47 *243:27 *564:51 0.00026427
48 *246:39 *564:51 0.00138082
49 *418:16 *564:38 0.00122339
50 *430:16 *564:59 0.000131293
51 *441:20 *564:10 0.000131084
52 *441:20 *564:73 0.000219641
53 *452:24 *564:38 0.000173453
54 *554:14 *11820:A_N 4.34973e-05
55 *554:57 *564:59 0.000926428
56 *554:69 *564:67 0.000364445
57 *554:77 *564:73 0.00193682
*RES
1 *12032:X *564:4 23
2 *564:4 *564:6 43.0236
3 *564:6 *564:10 42.9643
4 *564:10 *564:14 35.6314
5 *564:14 *11819:B 23
6 *564:10 *564:25 44.0829
7 *564:25 *11821:B 26.48
8 *564:25 *564:38 46.3436
9 *564:38 *11820:A_N 28.3857
10 *564:38 *564:49 18.0036
11 *564:49 *564:51 75.5036
12 *564:51 *564:59 44.8729
13 *564:59 *564:67 34.6607
14 *564:67 *564:73 40.0229
15 *564:73 *11818:B 23
*END

*D_NET *565 0.000326315
*CONN
*I *12169:A I *D sky130_fd_sc_hd__clkbuf_2
*I *12033:X O *D sky130_fd_sc_hd__dlygate4sd3_1
*CAP
1 *12169:A 0.000135652
2 *12033:X 0.000135652
3 *12033:A *12169:A 5.50106e-05
*RES
1 *12033:X *12169:A 48.0507
*END

*D_NET *566 0.000363446
*CONN
*I *12211:A I *D sky130_fd_sc_hd__buf_4
*I *12034:X O *D sky130_fd_sc_hd__dlygate4sd3_1
*CAP
1 *12211:A 0
2 *12034:X 0.000181723
3 *566:10 0.000181723
*RES
1 *12034:X *566:10 40.8793
2 *566:10 *12211:A 38
*END

*D_NET *567 0.0449785
*CONN
*I *11945:A I *D sky130_fd_sc_hd__buf_12
*I *12190:X O *D sky130_fd_sc_hd__buf_12
*CAP
1 *11945:A 0
2 *12190:X 0.00011791
3 *567:24 0.00324761
4 *567:22 0.00379102
5 *567:16 0.00156695
6 *567:12 0.00189519
7 *567:10 0.000871651
8 *567:8 0.00011791
9 *567:12 *568:12 0.00223666
10 *567:16 *569:14 0.00235359
11 *567:16 *570:12 0.00159647
12 *567:22 *568:22 0.00094958
13 *567:22 *569:20 6.24154e-05
14 *567:24 *569:22 0.00013316
15 *567:24 *570:16 0.011704
16 wbs_dat_o[29] *567:16 0
17 *835:DIODE *567:24 6.57654e-05
18 *837:DIODE *567:24 0.000221184
19 *58:9 *567:8 0
20 *168:10 *567:24 0.0062213
21 *175:24 *567:24 0.0012932
22 *176:14 *567:24 0.00151526
23 *237:33 *567:24 0.000221217
24 *239:23 *567:24 0.00139257
25 *529:16 *567:12 0.00340396
*RES
1 *12190:X *567:8 39.9057
2 *567:8 *567:10 15
3 *567:10 *567:12 37.3064
4 *567:12 *567:16 48.5986
5 *567:16 *567:22 42.0557
6 *567:22 *567:24 154.736
7 *567:24 *11945:A 38
*END

*D_NET *568 0.0428261
*CONN
*I *11950:A I *D sky130_fd_sc_hd__buf_12
*I *12191:X O *D sky130_fd_sc_hd__buf_12
*CAP
1 *11950:A 7.70667e-05
2 *12191:X 7.05507e-05
3 *568:24 0.00338287
4 *568:22 0.00374265
5 *568:16 0.00233976
6 *568:12 0.00334385
7 *568:8 0.00151149
8 *568:16 *570:12 0
9 *568:22 *569:20 0.000907007
10 *568:24 *570:16 0.000438208
11 wbs_dat_o[27] *568:8 5.80963e-05
12 wbs_dat_o[29] *568:16 0
13 *11959:A *568:16 0.000114774
14 *168:18 *568:22 0.000292465
15 *236:11 *568:24 0.0121082
16 *481:8 *568:8 5.58975e-06
17 *488:10 *568:16 0
18 *563:18 *568:24 0.0112472
19 *567:12 *568:12 0.00223666
20 *567:22 *568:22 0.00094958
*RES
1 *12191:X *568:8 39.5536
2 *568:8 *568:12 39.4429
3 *568:12 *568:16 48.5986
4 *568:16 *568:22 45.8671
5 *568:22 *568:24 160.018
6 *568:24 *11950:A 39.0979
*END

*D_NET *569 0.0355144
*CONN
*I *11954:A I *D sky130_fd_sc_hd__buf_12
*I *12192:X O *D sky130_fd_sc_hd__buf_12
*CAP
1 *11954:A 6.71548e-05
2 *12192:X 0.000741754
3 *569:22 0.00645392
4 *569:20 0.00694861
5 *569:14 0.00179911
6 *569:10 0.00197902
7 *569:14 *615:22 0
8 *835:DIODE *569:22 0.000216721
9 *837:DIODE *569:22 0.000105154
10 *11918:A0 *569:22 0.000166513
11 *59:17 *569:10 0.000720482
12 *168:10 *569:22 0.00311087
13 *168:16 *569:20 0.000159815
14 *168:18 *569:20 0.000363103
15 *175:24 *569:22 0.000202103
16 *237:29 *569:22 0.00235023
17 *237:33 *569:22 0.00286261
18 *239:23 *569:22 0.000480777
19 *471:18 *569:22 0.0012692
20 *476:14 *569:22 0.00084025
21 *484:8 *11954:A 9.41704e-05
22 *486:8 *569:10 0.00049742
23 *488:10 *569:10 0.000267798
24 *491:10 *569:14 0.00036146
25 *552:16 *569:14 0
26 *567:16 *569:14 0.00235359
27 *567:22 *569:20 6.24154e-05
28 *567:24 *569:22 0.00013316
29 *568:22 *569:20 0.000907007
*RES
1 *12192:X *569:10 40.4621
2 *569:10 *569:14 47.19
3 *569:14 *569:20 43.0086
4 *569:20 *569:22 165.3
5 *569:22 *11954:A 39.0979
*END

*D_NET *570 0.0393215
*CONN
*I *11958:A I *D sky130_fd_sc_hd__buf_12
*I *12193:X O *D sky130_fd_sc_hd__buf_12
*CAP
1 *11958:A 0
2 *12193:X 0
3 *570:16 0.00391813
4 *570:14 0.00391813
5 *570:12 0.00191536
6 *570:6 0.00191536
7 *570:12 *627:90 0.000217295
8 wbs_dat_o[29] *570:12 6.28488e-05
9 *236:11 *570:16 0.000155779
10 *239:23 *570:16 0.000223776
11 *480:14 *570:16 0.000844703
12 *484:12 *570:16 0.00041353
13 *488:10 *570:12 0
14 *563:18 *570:16 0.011998
15 *567:16 *570:12 0.00159647
16 *567:24 *570:16 0.011704
17 *568:16 *570:12 0
18 *568:24 *570:16 0.000438208
*RES
1 *12193:X *570:6 38
2 *570:6 *570:12 48.6814
3 *570:12 *570:14 15
4 *570:14 *570:16 181.146
5 *570:16 *11958:A 38
*END

*D_NET *571 0.0705753
*CONN
*I *12072:A I *D sky130_fd_sc_hd__buf_12
*I *12194:X O *D sky130_fd_sc_hd__buf_12
*CAP
1 *12072:A 0.00013034
2 *12194:X 0.000149936
3 *571:18 0.00680012
4 *571:16 0.00666978
5 *571:14 0.0011355
6 *571:12 0.00218213
7 *571:8 0.00119657
8 *571:8 *583:6 0.000202653
9 *571:12 *593:10 0
10 *571:12 *617:24 3.53934e-05
11 *571:12 *623:12 0.000107508
12 *571:12 *628:163 0
13 *571:12 *633:141 0
14 *571:14 *584:18 0.00291861
15 *571:18 *618:14 0.0222846
16 *571:18 *631:212 0.00033375
17 *681:DIODE *571:12 4.49946e-05
18 *12014:A *571:12 0
19 *105:13 *571:12 0.000452984
20 *109:12 *571:12 0.000585423
21 *122:30 *571:14 0.00317931
22 *124:32 *571:12 0
23 *189:32 *571:12 0
24 *496:36 *571:18 0.0221656
*RES
1 *12194:X *571:8 41.9564
2 *571:8 *571:12 35.5693
3 *571:12 *571:14 40.6414
4 *571:14 *571:16 15
5 *571:16 *571:18 301.227
6 *571:18 *12072:A 39.5743
*END

*D_NET *572 0.0376488
*CONN
*I *11963:A I *D sky130_fd_sc_hd__buf_12
*I *12195:X O *D sky130_fd_sc_hd__buf_12
*CAP
1 *11963:A 0.000129243
2 *12195:X 0
3 *572:8 0.00362332
4 *572:6 0.00349408
5 wbs_dat_o[30] *572:8 0
6 *11964:A *572:8 0
7 *171:16 *572:8 0
8 *176:18 *572:8 0
9 *236:11 *572:8 0.0146361
10 *462:12 *572:8 0.00302938
11 *471:18 *11963:A 9.02461e-05
12 *492:10 *572:8 0.000101651
13 *529:20 *572:8 0
14 *541:16 *572:8 0.012312
15 *563:18 *572:8 0.000232696
*RES
1 *12195:X *572:6 38
2 *572:6 *572:8 208.614
3 *572:8 *11963:A 40.0507
*END

*D_NET *573 0.0232758
*CONN
*I *11967:A I *D sky130_fd_sc_hd__buf_12
*I *12196:X O *D sky130_fd_sc_hd__buf_12
*CAP
1 *11967:A 0.000247397
2 *12196:X 0
3 *573:12 0.0099922
4 *573:10 0.0112347
5 *573:6 0.0014899
6 *573:10 *12243:A 0.000101202
7 wbs_dat_o[31] *573:10 0
8 *11968:A *573:10 7.66085e-05
9 *170:8 *573:10 0
10 *170:8 *573:12 0
11 *499:8 *573:10 0.00013381
*RES
1 *12196:X *573:6 38
2 *573:6 *573:10 29.6318
3 *573:10 *573:12 185.383
4 *573:12 *11967:A 42.4329
*END

*D_NET *574 0.0360966
*CONN
*I *12022:A I *D sky130_fd_sc_hd__dlygate4sd3_1
*I *12197:X O *D sky130_fd_sc_hd__buf_2
*CAP
1 *12022:A 4.42545e-05
2 *12197:X 0.000178729
3 *574:16 0.00327564
4 *574:14 0.00323138
5 *574:12 0.000950281
6 *574:10 0.000950281
7 *574:8 0.000178729
8 *12022:A *625:18 6.17437e-06
9 *574:16 *578:10 0
10 *574:16 *625:26 1.5037e-05
11 wbs_dat_o[12] *574:8 0
12 wbs_dat_o[6] *574:16 0.000196171
13 *35:9 *574:16 0
14 *42:9 *574:8 0
15 *111:10 *574:16 0.000668341
16 *111:14 *574:16 0.00257622
17 *148:10 *574:16 0.00146586
18 *183:12 *574:16 0.000780306
19 *220:21 *574:16 0.000611331
20 *223:17 *574:16 0.00271743
21 *396:16 *574:16 0
22 *406:10 *574:16 9.56632e-05
23 *407:12 *574:12 0.00762057
24 *407:16 *574:16 7.22732e-06
25 *418:12 *574:12 0.00761655
26 *418:16 *574:16 0.00124443
27 *452:24 *574:16 0.00043359
28 *554:55 *12022:A 1.21972e-05
29 *564:38 *574:16 0.00122023
*RES
1 *12197:X *574:8 40.61
2 *574:8 *574:10 15
3 *574:10 *574:12 83.0436
4 *574:12 *574:14 15
5 *574:14 *574:16 107.549
6 *574:16 *12022:A 38.6214
*END

*D_NET *575 0.060659
*CONN
*I *12065:A I *D sky130_fd_sc_hd__buf_12
*I *12198:X O *D sky130_fd_sc_hd__buf_12
*CAP
1 *12065:A 0.000166203
2 *12198:X 0.000339283
3 *575:38 0.00485493
4 *575:36 0.00549744
5 *575:32 0.000808708
6 *575:30 0.000588244
7 *575:14 0.00248743
8 *575:8 0.00223847
9 *575:8 *593:12 0.000328664
10 *575:8 *624:14 0.000943835
11 *575:14 *586:8 0.000199687
12 *575:36 *628:194 2.8348e-05
13 *575:36 *631:212 0.00071841
14 *575:38 *576:24 0.0183462
15 *575:38 *629:8 2.11396e-05
16 *11865:B2 *575:36 0.000322119
17 *65:9 *575:14 0
18 *124:22 *575:30 0.000204154
19 *130:26 *575:14 0
20 *130:26 *575:30 0.000129751
21 *132:14 *575:14 0.000395889
22 *136:20 *575:14 0
23 *140:10 *575:36 2.15604e-05
24 *140:10 *575:38 0.00820977
25 *142:24 *575:30 0.00013185
26 *142:30 *575:14 0
27 *144:24 *575:30 0.000240459
28 *182:10 *575:14 0
29 *196:33 *575:36 0.00192747
30 *196:37 *575:36 1.47729e-05
31 *197:17 *575:38 2.11157e-05
32 *200:7 *12065:A 0.000261206
33 *205:11 *575:38 0.00165472
34 *205:19 *575:38 0.00170971
35 *206:27 *575:14 0
36 *496:32 *575:30 0.000749726
37 *496:36 *575:36 0.00309661
38 *496:36 *575:38 0.000229116
39 *506:20 *575:38 0.00362
40 *539:10 *575:14 0.000152064
*RES
1 *12198:X *575:8 48.6264
2 *575:8 *575:14 48.1014
3 *575:14 *575:30 44.0443
4 *575:30 *575:32 15
5 *575:32 *575:36 41.4389
6 *575:36 *575:38 246.117
7 *575:38 *12065:A 41.0036
*END

*D_NET *576 0.0618945
*CONN
*I *12059:A I *D sky130_fd_sc_hd__buf_12
*I *12199:X O *D sky130_fd_sc_hd__buf_12
*CAP
1 *12059:A 0.000206001
2 *12199:X 0
3 *576:24 0.00446121
4 *576:22 0.00457843
5 *576:16 0.00141044
6 *576:14 0.00145818
7 *576:10 0.00209048
8 *576:6 0.00171952
9 *576:10 *587:32 0.000611293
10 *576:16 *631:226 0.00147176
11 *576:16 *633:12 0.00144496
12 *576:16 *633:20 0.00148553
13 *65:9 *576:10 0
14 *113:16 *576:14 0.00020889
15 *113:18 *576:14 8.48502e-06
16 *132:14 *576:14 6.17437e-06
17 *134:14 *576:10 0.000183087
18 *136:20 *576:14 0
19 *184:8 *576:16 0.000180479
20 *194:44 *576:10 3.70094e-05
21 *194:44 *576:14 0.000844796
22 *196:39 *576:14 0.000430566
23 *203:11 *576:16 0.000364332
24 *203:15 *576:16 3.39444e-05
25 *206:35 *576:10 0.000188916
26 *363:41 *576:16 0.00146722
27 *374:16 *576:16 0.000314943
28 *412:8 *576:10 0
29 *496:36 *576:24 0.0183417
30 *575:38 *576:24 0.0183462
*RES
1 *12199:X *576:6 38
2 *576:6 *576:10 43.3164
3 *576:10 *576:14 25.15
4 *576:14 *576:16 44.8671
5 *576:16 *576:22 33.9564
6 *576:22 *576:24 239.954
7 *576:24 *12059:A 40.5271
*END

*D_NET *577 0.0492255
*CONN
*I *12056:A I *D sky130_fd_sc_hd__buf_12
*I *12200:X O *D sky130_fd_sc_hd__buf_12
*CAP
1 *12056:A 0
2 *12200:X 0.000288311
3 *577:28 0.000394644
4 *577:16 0.0103487
5 *577:14 0.00995407
6 *577:12 0.000288311
7 *577:16 *589:10 0.000259902
8 *66:9 *577:12 0
9 *110:48 *577:16 0.000236065
10 *116:22 *577:16 0.00171802
11 *181:18 *577:16 0.0104689
12 *196:19 *577:16 0.000447377
13 *203:15 *577:16 0.000227039
14 *220:127 *577:16 0.000221745
15 *224:25 *577:16 0.000415852
16 *319:30 *577:16 0.000325404
17 *319:34 *577:28 0.000180939
18 *369:74 *577:16 0.0018755
19 *374:16 *577:16 0.00107926
20 *382:46 *577:16 0.00491812
21 *400:20 *577:16 0.000233911
22 *402:10 *577:16 0.000217124
23 *410:8 *577:12 1.95604e-05
24 *438:38 *577:16 4.78311e-05
25 *511:20 *577:16 0.00503317
26 *520:18 *577:16 2.57039e-05
27 *534:10 *577:12 0
*RES
1 *12200:X *577:12 49.5893
2 *577:12 *577:14 8
3 *577:14 *577:16 54.2565
4 *577:16 *577:28 34.4119
5 *577:28 *12056:A 23
*END

*D_NET *578 0.0561998
*CONN
*I *12052:A I *D sky130_fd_sc_hd__buf_12
*I *12201:X O *D sky130_fd_sc_hd__buf_12
*CAP
1 *12052:A 0
2 *12201:X 7.33133e-05
3 *578:26 0.00100885
4 *578:20 0.00150568
5 *578:10 0.00602719
6 *578:8 0.00560367
7 *578:8 *593:12 0.000102455
8 *578:8 *624:22 0.000153091
9 *578:10 *579:36 0.000602457
10 *578:20 *579:36 3.10951e-05
11 *578:20 *579:42 0.000236735
12 *12036:A *578:10 2.11066e-05
13 *112:14 *578:10 2.13834e-05
14 *117:14 *578:26 0.00124124
15 *131:10 *578:10 7.37814e-06
16 *131:10 *578:20 0.000292326
17 *131:18 *578:10 1.89075e-05
18 *145:10 *578:10 0
19 *145:18 *578:10 0.00106706
20 *148:10 *578:10 0
21 *180:25 *578:10 0.000146384
22 *180:46 *578:10 0.000205112
23 *180:52 *578:10 6.7177e-06
24 *181:51 *578:10 0.000171422
25 *185:10 *578:10 0.00196678
26 *218:37 *578:10 0.00011794
27 *221:22 *578:10 0.000431902
28 *243:27 *578:10 0.000362998
29 *330:16 *578:26 0.00123587
30 *365:72 *578:10 0.000921949
31 *365:72 *578:20 7.65863e-06
32 *365:74 *578:10 1.11421e-05
33 *396:16 *578:10 0.0206191
34 *396:24 *578:10 0.000380471
35 *406:10 *578:10 8.96568e-05
36 *430:28 *578:10 2.11066e-05
37 *441:20 *578:10 0.000542919
38 *452:24 *578:26 0.000141169
39 *509:34 *578:10 0.000879581
40 *509:38 *578:10 0.000486957
41 *564:10 *578:10 0.00108049
42 *564:25 *578:10 0.0010382
43 *564:51 *578:10 0.00582138
44 *564:73 *578:10 0.00149894
45 *574:16 *578:10 0
*RES
1 *12201:X *578:8 41.0036
2 *578:8 *578:10 281.683
3 *578:10 *578:20 39.3732
4 *578:20 *578:26 40.0643
5 *578:26 *12052:A 23
*END

*D_NET *579 0.0477538
*CONN
*I *12050:A I *D sky130_fd_sc_hd__buf_12
*I *12202:X O *D sky130_fd_sc_hd__buf_12
*CAP
1 *12050:A 0
2 *12202:X 0.000170374
3 *579:42 0.000586181
4 *579:36 0.00087757
5 *579:26 0.00105579
6 *579:18 0.0136191
7 *579:16 0.0128547
8 *579:14 0.000170374
9 *579:18 *581:16 0.0109189
10 *579:42 *580:28 0.000564497
11 wbs_dat_o[7] *579:14 3.41998e-06
12 *11960:A *579:36 6.17437e-06
13 *131:10 *579:42 0.000432864
14 *131:18 *579:26 0.00152958
15 *181:51 *579:42 0.000129616
16 *185:10 *579:36 0.00066027
17 *185:10 *579:42 0.000256039
18 *200:11 *579:26 0.00152694
19 *341:10 *579:18 0.000338342
20 *403:10 *579:14 9.5877e-05
21 *417:102 *579:26 0.000324963
22 *430:14 *579:14 8.15458e-05
23 *547:28 *579:26 0.000680273
24 *578:10 *579:36 0.000602457
25 *578:20 *579:36 3.10951e-05
26 *578:20 *579:42 0.000236735
*RES
1 *12202:X *579:14 47.6896
2 *579:14 *579:16 8
3 *579:16 *579:18 46.3867
4 *579:18 *579:26 37.428
5 *579:26 *579:36 41.0925
6 *579:36 *579:42 33.1354
7 *579:42 *12050:A 23
*END

*D_NET *580 0.0365537
*CONN
*I *12045:A I *D sky130_fd_sc_hd__buf_12
*I *12203:X O *D sky130_fd_sc_hd__buf_12
*CAP
1 *12045:A 0
2 *12203:X 0.000194648
3 *580:28 0.00196037
4 *580:16 0.0169999
5 *580:14 0.0150395
6 *580:12 0.000194648
7 *580:28 *581:26 0.00050797
8 *185:10 *580:28 0.000567129
9 *443:40 *580:28 0.000253669
10 *452:20 *580:12 5.85423e-05
11 *452:20 *580:16 0.000212932
12 *579:42 *580:28 0.000564497
*RES
1 *12203:X *580:12 48.1807
2 *580:12 *580:14 8
3 *580:14 *580:16 50.5755
4 *580:16 *580:28 46.1891
5 *580:28 *12045:A 23
*END

*D_NET *581 0.0476441
*CONN
*I *12043:A I *D sky130_fd_sc_hd__buf_12
*I *12204:X O *D sky130_fd_sc_hd__buf_12
*CAP
1 *12043:A 0
2 *12204:X 2.44821e-05
3 *581:26 0.000963269
4 *581:16 0.0107777
5 *581:14 0.0116734
6 *581:10 0.00188336
7 *117:14 *581:26 2.5343e-05
8 *222:25 *581:16 0.00822492
9 *240:27 *581:16 0.000552349
10 *330:16 *581:26 2.33476e-05
11 *430:14 *581:14 0.00165748
12 *443:40 *581:26 0.000411501
13 *579:18 *581:16 0.0109189
14 *580:28 *581:26 0.00050797
*RES
1 *12204:X *581:10 46.3211
2 *581:10 *581:14 13.9379
3 *581:14 *581:16 51.8448
4 *581:16 *581:26 34.0819
5 *581:26 *12043:A 23
*END

*D_NET *582 0.0251981
*CONN
*I *12029:A I *D sky130_fd_sc_hd__clkbuf_16
*I *12205:X O *D sky130_fd_sc_hd__clkbuf_16
*CAP
1 *12029:A 0.000352855
2 *12205:X 0
3 *582:18 0.00237893
4 *582:16 0.00202608
5 *582:14 0.000549905
6 *582:6 0.00413225
7 *582:4 0.00358235
8 *582:6 *12241:A 0.000313249
9 *582:6 *619:16 0.00175423
10 *582:14 *624:14 0.000603792
11 *582:18 *596:16 0
12 *582:18 *629:8 0.00474006
13 *12024:A *582:6 0.000232409
14 *12064:A *582:6 0.00035768
15 *12124:DI[13] *12029:A 0.00012362
16 *12205:A *582:6 2.64616e-05
17 *65:9 *582:14 3.5664e-05
18 *93:10 *582:6 0.000255859
19 *128:10 *582:18 8.94629e-05
20 *136:14 *582:18 0.00293127
21 *138:18 *582:18 0
22 *408:10 *582:6 0.000145272
23 *530:10 *582:18 0.000259863
24 *546:10 *582:6 0.000228001
25 *556:10 *582:6 7.88828e-05
*RES
1 *12205:X *582:4 23
2 *582:4 *582:6 65.4157
3 *582:6 *582:14 38.3686
4 *582:14 *582:16 15
5 *582:16 *582:18 65.2914
6 *582:18 *12029:A 42.9093
*END

*D_NET *583 0.0058749
*CONN
*I *12025:A I *D sky130_fd_sc_hd__clkbuf_16
*I *12206:X O *D sky130_fd_sc_hd__clkbuf_16
*CAP
1 *12025:A 0
2 *12206:X 0.000674217
3 *583:14 0.000828392
4 *583:6 0.00150261
5 *583:6 *584:10 7.51453e-06
6 *583:6 *593:12 0.000959443
7 *583:6 *624:14 0.000122703
8 *583:14 *584:10 0.000746852
9 *583:14 *584:16 9.97956e-06
10 *583:14 *620:10 0.000107232
11 *583:14 *624:10 0
12 *676:DIODE *583:14 0.000132028
13 *31:9 *583:14 0
14 *122:36 *583:14 0
15 *134:28 *583:14 0.000408189
16 *212:27 *583:14 0.00013415
17 *419:8 *583:14 3.89353e-05
18 *571:8 *583:6 0.000202653
*RES
1 *12206:X *583:6 39.3436
2 *583:6 *583:14 47.7936
3 *583:14 *12025:A 23
*END

*D_NET *584 0.0347491
*CONN
*I *12016:A I *D sky130_fd_sc_hd__buf_12
*I *12207:X O *D sky130_fd_sc_hd__buf_12
*CAP
1 *12016:A 0
2 *12207:X 0.000462485
3 *584:22 0.00165541
4 *584:18 0.00817429
5 *584:16 0.00690074
6 *584:10 0.000844352
7 *584:10 *593:12 1.34914e-05
8 *584:10 *624:14 5.79559e-05
9 *584:10 *631:165 7.60824e-05
10 *584:16 *631:165 9.41618e-05
11 *584:18 *585:14 0.00404309
12 *718:DIODE *584:22 3.53115e-05
13 *787:DIODE *584:22 9.41704e-05
14 *122:30 *584:18 0.000461676
15 *134:28 *584:16 0.000616575
16 *149:22 *584:18 0.000165744
17 *151:33 *584:22 3.16665e-05
18 *151:40 *584:22 6.09861e-05
19 *151:124 *584:22 1.46286e-05
20 *151:131 *584:22 0.00015827
21 *153:24 *584:22 0.000124324
22 *187:30 *584:16 0.000247612
23 *227:29 *584:18 0.00091877
24 *227:29 *584:22 0.000256008
25 *227:31 *584:18 7.40718e-05
26 *227:33 *584:18 4.93812e-05
27 *227:35 *584:18 7.25499e-05
28 *227:37 *584:18 7.1349e-05
29 *227:39 *584:18 5.41385e-05
30 *228:33 *584:22 0.000446275
31 *228:35 *584:22 0.000101762
32 *228:37 *584:22 9.65021e-05
33 *228:57 *584:22 0.000100061
34 *228:59 *584:22 0.000188934
35 *408:10 *584:10 5.33156e-05
36 *419:8 *584:10 1.36972e-05
37 *519:10 *584:10 0.000340216
38 *564:6 *584:18 0.00389605
39 *571:14 *584:18 0.00291861
40 *583:6 *584:10 7.51453e-06
41 *583:14 *584:10 0.000746852
42 *583:14 *584:16 9.97956e-06
*RES
1 *12207:X *584:10 49.8589
2 *584:10 *584:16 24.7461
3 *584:16 *584:18 158.081
4 *584:18 *584:22 35.6596
5 *584:22 *12016:A 23
*END

*D_NET *585 0.0112589
*CONN
*I *12032:A I *D sky130_fd_sc_hd__dlygate4sd3_1
*I *12208:X O *D sky130_fd_sc_hd__buf_2
*CAP
1 *12032:A 0
2 *12208:X 3.9216e-05
3 *585:14 0.000975186
4 *585:12 0.00166311
5 *585:8 0.000727144
6 *585:12 *11889:B1 2.05503e-05
7 *585:12 *604:12 0
8 *585:12 *632:151 0.000247985
9 *585:12 *634:90 9.51468e-05
10 *663:DIODE *585:14 2.64616e-05
11 *149:22 *585:14 0.00256839
12 *149:31 *585:14 4.79641e-05
13 *149:38 *585:14 5.70419e-05
14 *149:45 *585:14 0.000144221
15 *154:20 *585:8 5.50106e-05
16 *156:26 *585:12 0.000156616
17 *199:27 *585:12 0.000391751
18 *584:18 *585:14 0.00404309
*RES
1 *12208:X *585:8 38.6214
2 *585:8 *585:12 29.935
3 *585:12 *585:14 44.4529
4 *585:14 *12032:A 23
*END

*D_NET *586 0.0375795
*CONN
*I *12019:A I *D sky130_fd_sc_hd__buf_12
*I *12209:X O *D sky130_fd_sc_hd__buf_12
*CAP
1 *12019:A 0.000355498
2 *12209:X 0.000421605
3 *586:20 0.00158329
4 *586:16 0.00429404
5 *586:14 0.00306624
6 *586:12 0.00133017
7 *586:8 0.00175178
8 *586:8 *620:22 0.000618764
9 *586:16 *588:46 0.00066372
10 *12124:DI[6] *586:20 6.92122e-05
11 *110:31 *586:12 0.00107569
12 *113:10 *586:16 1.5037e-05
13 *113:10 *586:20 0.000832308
14 *116:22 *586:16 0.00102851
15 *122:26 *586:16 0.0080887
16 *124:12 *586:20 0.000653241
17 *124:14 *586:16 0.00743802
18 *124:14 *586:20 2.34364e-05
19 *131:26 *586:20 0.000973933
20 *223:45 *586:20 0.000152641
21 *223:58 *586:20 7.02841e-05
22 *319:14 *586:16 0
23 *395:18 *586:20 0.0022098
24 *402:18 *586:20 0.000622667
25 *539:10 *586:8 4.12184e-05
26 *575:14 *586:8 0.000199687
*RES
1 *12209:X *586:8 48.3571
2 *586:8 *586:12 39.4429
3 *586:12 *586:14 15
4 *586:14 *586:16 118.641
5 *586:16 *586:20 46.3689
6 *586:20 *12019:A 42.9093
*END

*D_NET *587 0.0260769
*CONN
*I *11816:B I *D sky130_fd_sc_hd__nand2_4
*I *11819:D I *D sky130_fd_sc_hd__and4b_2
*I *12210:X O *D sky130_fd_sc_hd__clkbuf_2
*CAP
1 *11816:B 4.46169e-05
2 *11819:D 0.00086511
3 *12210:X 0.000109297
4 *587:32 0.00211721
5 *587:30 0.0016247
6 *587:24 0.000924268
7 *587:16 0.00117034
8 *587:12 0.002959
9 *587:10 0.00238496
10 *587:8 0.000109297
11 *11816:B *595:10 2.472e-05
12 *11819:D *633:20 5.3304e-05
13 *587:12 *596:12 0.00069407
14 *587:12 *607:12 0.000247536
15 *587:16 *591:16 0
16 *587:16 *595:10 2.54046e-05
17 *587:24 *592:8 0.000243587
18 *587:30 *588:42 0.00108042
19 *587:30 *631:200 0.000492936
20 wbs_dat_o[3] *587:16 0
21 *12034:A *587:8 0
22 *12075:A *587:16 0
23 *12210:A *587:8 4.13358e-05
24 *106:9 *587:24 0.000241355
25 *106:9 *587:30 0.000304686
26 *110:10 *11816:B 6.07611e-06
27 *130:26 *587:32 0.00194513
28 *132:10 *587:32 8.31864e-05
29 *194:36 *11819:D 6.70361e-05
30 *194:44 *587:32 1.52259e-05
31 *195:19 *587:32 0.000516328
32 *206:35 *587:32 0.000191148
33 *350:26 *587:32 0.00126428
34 *363:12 *587:12 0.0049713
35 *363:28 *587:24 0.000226306
36 *363:39 *587:24 0.000115864
37 *543:10 *11816:B 4.32475e-05
38 *543:10 *587:16 0.000262341
39 *576:10 *587:32 0.000611293
*RES
1 *12210:X *587:8 39.9057
2 *587:8 *587:10 15
3 *587:10 *587:12 73.0386
4 *587:12 *587:16 25.3571
5 *587:16 *587:24 39.6529
6 *587:24 *587:30 43.485
7 *587:30 *587:32 39.585
8 *587:32 *11819:D 49.1029
9 *587:16 *11816:B 39.2014
*END

*D_NET *588 0.0393022
*CONN
*I *11825:A I *D sky130_fd_sc_hd__nor2_4
*I *11814:A I *D sky130_fd_sc_hd__inv_16
*I *12211:X O *D sky130_fd_sc_hd__buf_4
*CAP
1 *11825:A 8.44305e-05
2 *11814:A 0.00026731
3 *12211:X 0
4 *588:46 0.0027376
5 *588:44 0.00247029
6 *588:42 0.002164
7 *588:36 0.00241733
8 *588:30 0.0014482
9 *588:16 0.00202861
10 *588:6 0.00264449
11 *588:4 0.0018952
12 *11825:A *592:8 0
13 *588:30 *12244:A 0.000435715
14 *588:30 *592:8 0.000441592
15 *588:30 *595:14 0.000354116
16 *588:30 *617:24 0.000447211
17 *588:30 *622:16 0.000108152
18 *588:30 *632:28 3.3746e-05
19 *588:36 *620:16 0.0002246
20 *588:42 *597:14 8.70533e-05
21 *588:42 *631:200 0.000207618
22 wbs_dat_o[0] *588:6 5.40971e-05
23 *648:DIODE *11825:A 0
24 *648:DIODE *588:30 1.01436e-05
25 *670:DIODE *588:16 3.22051e-05
26 *675:DIODE *588:16 0.000128401
27 *676:DIODE *588:30 7.25499e-05
28 *678:DIODE *588:16 2.93845e-05
29 *12013:A *588:16 0.000648011
30 *12076:A *588:30 9.84851e-05
31 *12079:A *588:16 0
32 *12206:A *588:6 5.53064e-05
33 *31:9 *588:30 0.000578507
34 *50:13 *588:6 0.000564067
35 *96:8 *588:30 0.000267173
36 *104:11 *588:6 0.000255653
37 *106:9 *588:42 2.3529e-05
38 *109:18 *588:46 0.00303186
39 *110:18 *11825:A 0.000169674
40 *110:18 *588:42 0.000133316
41 *110:33 *588:46 3.14106e-05
42 *116:22 *588:46 0.00105233
43 *118:14 *588:46 0.000417605
44 *120:16 *11814:A 6.17437e-06
45 *124:14 *588:46 0.00539725
46 *136:26 *11825:A 1.61305e-05
47 *319:14 *588:46 0
48 *319:30 *11814:A 0.00010769
49 *439:8 *588:6 0.000694797
50 *496:14 *588:16 4.6318e-06
51 *519:10 *588:30 4.03172e-05
52 *542:6 *588:30 0.000393298
53 *551:8 *588:42 1.14452e-05
54 *560:8 *588:46 0.00273531
55 *586:16 *588:46 0.00066372
56 *587:30 *588:42 0.00108042
*RES
1 *12211:X *588:4 23
2 *588:4 *588:6 36.3536
3 *588:6 *588:16 45.0386
4 *588:16 *588:30 48.64
5 *588:30 *588:36 32.5271
6 *588:36 *588:42 45.6364
7 *588:42 *588:44 15
8 *588:44 *588:46 94.1671
9 *588:46 *11814:A 41.8943
10 *588:36 *11825:A 40.2579
*END

*D_NET *589 0.0235772
*CONN
*I *12218:A I *D sky130_fd_sc_hd__buf_12
*I *11920:Q O *D sky130_fd_sc_hd__dfrtp_4
*CAP
1 *12218:A 0
2 *11920:Q 8.93432e-05
3 *589:18 0.00126185
4 *589:14 0.00546
5 *589:12 0.00419815
6 *589:10 0.00216235
7 *589:8 0.0022517
8 *589:8 *632:67 3.7122e-06
9 *126:16 *589:14 0.00126546
10 *128:16 *589:14 0.00184233
11 *128:20 *589:14 0.00135912
12 *130:30 *589:14 0.000205712
13 *182:10 *589:14 0.000172319
14 *198:15 *589:14 0.000162331
15 *203:15 *589:10 0.00232251
16 *205:31 *589:14 0.000223698
17 *206:35 *589:14 7.91752e-05
18 *363:41 *589:10 0.000257567
19 *577:16 *589:10 0.000259902
*RES
1 *11920:Q *589:8 39.0979
2 *589:8 *589:10 38.5286
3 *589:10 *589:12 15
4 *589:12 *589:14 108.294
5 *589:14 *589:18 38.3864
6 *589:18 *12218:A 38
*END

*D_NET *590 0.00198405
*CONN
*I *12219:A I *D sky130_fd_sc_hd__buf_12
*I *11826:X O *D sky130_fd_sc_hd__o221a_1
*CAP
1 *12219:A 0
2 *11826:X 5.45698e-05
3 *590:12 0.000895433
4 *590:8 0.000950003
5 *646:DIODE *590:12 8.4047e-05
6 *12030:A *590:12 0
7 *561:10 *590:12 0
*RES
1 *11826:X *590:8 38.6214
2 *590:8 *590:12 30.9914
3 *590:12 *12219:A 23
*END

*D_NET *591 0.0249296
*CONN
*I *12220:A I *D sky130_fd_sc_hd__buf_12
*I *11856:X O *D sky130_fd_sc_hd__o221a_2
*CAP
1 *12220:A 0
2 *11856:X 0.000343116
3 *591:24 0.000152674
4 *591:18 0.00253902
5 *591:16 0.00307013
6 *591:12 0.0010269
7 *591:12 *595:10 5.50049e-05
8 *591:12 *628:23 5.64206e-05
9 *591:12 *628:37 3.22879e-05
10 *591:12 *631:178 2.91154e-05
11 *591:12 *631:191 7.65067e-05
12 *591:12 *632:28 1.28726e-05
13 *591:12 *633:41 6.66584e-06
14 *591:12 *634:233 0.000187754
15 *591:16 *595:10 0
16 *591:16 *622:16 0.000997867
17 *591:16 *631:191 6.18676e-05
18 *591:16 *632:28 5.13514e-05
19 *591:18 *596:12 1.32939e-05
20 *591:18 *607:12 0.00229949
21 *591:18 *620:22 0.00100194
22 *591:18 *622:20 0.000448956
23 *591:18 *622:22 0.00404114
24 wbs_dat_o[10] *591:24 3.1441e-05
25 wbs_dat_o[3] *591:16 0.000169885
26 *8:9 *591:24 0
27 *363:28 *591:16 3.0647e-05
28 *396:12 *591:18 0.00500079
29 *418:12 *591:18 0.000572748
30 *452:12 *591:18 0.00261972
31 *587:16 *591:16 0
*RES
1 *11856:X *591:12 45.1568
2 *591:12 *591:16 30.4632
3 *591:16 *591:18 104.959
4 *591:18 *591:24 32.2579
5 *591:24 *12220:A 23
*END

*D_NET *592 0.022428
*CONN
*I *12221:A I *D sky130_fd_sc_hd__buf_12
*I *11859:X O *D sky130_fd_sc_hd__o221a_2
*CAP
1 *12221:A 0
2 *11859:X 0.000290204
3 *592:26 0.000785545
4 *592:12 0.00422934
5 *592:10 0.00344379
6 *592:8 0.000290204
7 *592:12 *595:14 0.00927606
8 *592:26 *595:14 0.000378026
9 *648:DIODE *592:8 5.09885e-05
10 *11825:A *592:8 0
11 *12001:A *592:12 2.93747e-05
12 *12007:A *592:12 0.000100061
13 *12009:A *592:12 2.64616e-05
14 *12041:A *592:12 0.000182832
15 *12055:A *592:12 0.000180841
16 *12057:A *592:12 0.000139346
17 *12061:A *592:12 5.12254e-05
18 *12067:A *592:12 2.93747e-05
19 *12070:A *592:12 3.22879e-05
20 *35:9 *592:12 0.000164518
21 *37:17 *592:12 0.000602437
22 *40:15 *592:12 0.000125334
23 *40:15 *592:26 0.000334314
24 *41:9 *592:26 0.000322233
25 *69:13 *592:12 0.000130821
26 *106:9 *592:8 5.72749e-05
27 *397:6 *592:12 0.000160217
28 *404:10 *592:12 1.16652e-05
29 *411:10 *592:12 1.97333e-05
30 *413:10 *592:12 2.66596e-05
31 *429:10 *592:12 0.000228909
32 *537:10 *592:12 3.22722e-05
33 *539:10 *592:12 1.05235e-05
34 *587:24 *592:8 0.000243587
35 *588:30 *592:8 0.000441592
*RES
1 *11859:X *592:8 45.54
2 *592:8 *592:10 15
3 *592:10 *592:12 103.054
4 *592:12 *592:26 46.7579
5 *592:26 *12221:A 23
*END

*D_NET *593 0.029062
*CONN
*I *12222:A I *D sky130_fd_sc_hd__buf_12
*I *11862:X O *D sky130_fd_sc_hd__o221a_2
*CAP
1 *12222:A 0
2 *11862:X 0
3 *593:28 0.00154988
4 *593:22 0.00340228
5 *593:12 0.00746472
6 *593:10 0.00634408
7 *593:6 0.000731758
8 *593:10 *623:12 0
9 *593:10 *631:139 0.000159616
10 *593:10 *633:141 0.000358845
11 *593:12 *624:14 0.00103755
12 *593:12 *624:22 5.90377e-05
13 *593:22 *600:14 0.000685075
14 *593:22 *624:22 0.00277992
15 *593:28 *600:14 0.000923066
16 wbs_dat_o[11] *593:28 0.000272383
17 wbs_dat_o[12] *593:28 5.56356e-05
18 wbs_dat_o[9] *593:22 0.00012377
19 *12014:A *593:10 0.000211561
20 *12166:A *593:22 4.96717e-05
21 *12199:A *593:12 2.64616e-05
22 *9:13 *593:28 0.00044107
23 *132:18 *593:10 0
24 *341:8 *593:22 0.000296199
25 *414:10 *593:10 0.000339156
26 *436:12 *593:10 0.000192536
27 *540:10 *593:28 0.000119467
28 *553:10 *593:28 3.42479e-05
29 *571:12 *593:10 0
30 *575:8 *593:12 0.000328664
31 *578:8 *593:12 0.000102455
32 *583:6 *593:12 0.000959443
33 *584:10 *593:12 1.34914e-05
*RES
1 *11862:X *593:6 38
2 *593:6 *593:10 30.6393
3 *593:10 *593:12 75.8971
4 *593:12 *593:22 47.8396
5 *593:22 *593:28 33.7746
6 *593:28 *12222:A 23
*END

*D_NET *594 0.0317808
*CONN
*I *12223:A I *D sky130_fd_sc_hd__buf_12
*I *11865:X O *D sky130_fd_sc_hd__o221a_2
*CAP
1 *12223:A 0
2 *11865:X 0.000596138
3 *594:30 0.000633533
4 *594:22 0.00302995
5 *594:20 0.00244272
6 *594:16 0.00218365
7 *594:12 0.00213735
8 *594:10 0.0018162
9 *594:8 0.00241233
10 *594:8 *11932:A 0.000229334
11 *594:8 *633:6 0.000135037
12 *594:10 *630:30 0.00147268
13 *594:16 *632:107 0.00159167
14 *594:16 *634:32 0.00165512
15 *594:20 *11880:B1 1.32314e-05
16 *594:20 *630:57 5.50106e-05
17 *594:20 *632:107 1.72202e-05
18 *594:20 *634:32 3.59635e-05
19 *594:22 *11880:B1 1.96418e-05
20 *594:22 *600:8 0.000228903
21 *594:22 *603:14 0.000530774
22 *594:22 *632:126 1.59285e-05
23 *594:22 *634:32 0.000141954
24 *594:22 *634:90 0.000270682
25 *594:30 *600:14 0.000193926
26 *594:30 *604:12 0.000542681
27 *594:30 *634:90 0
28 wbs_dat_o[13] *594:30 5.56356e-05
29 *659:DIODE *594:30 0
30 *126:8 *594:10 0.00274304
31 *126:14 *594:10 0.000171921
32 *150:26 *594:22 0.00235083
33 *152:14 *594:22 0.000959423
34 *178:18 *594:10 0.000353233
35 *195:23 *594:16 0.000320471
36 *199:46 *594:30 0
37 *200:19 *594:30 0
38 *319:14 *594:10 0.000988193
39 *319:16 *594:10 5.92968e-06
40 *352:12 *594:16 0.000627902
41 *362:32 *594:10 0.000411846
42 *562:8 *594:30 0.000390731
*RES
1 *11865:X *594:8 46.2443
2 *594:8 *594:10 56.4879
3 *594:10 *594:12 15
4 *594:12 *594:16 49.2379
5 *594:16 *594:20 1.595
6 *594:20 *594:22 55.8871
7 *594:22 *594:30 44.6657
8 *594:30 *12223:A 23
*END

*D_NET *595 0.0349738
*CONN
*I *12224:A I *D sky130_fd_sc_hd__buf_12
*I *11868:X O *D sky130_fd_sc_hd__o221a_2
*CAP
1 *12224:A 0
2 *11868:X 0.000417997
3 *595:22 0.000510085
4 *595:14 0.0104329
5 *595:12 0.00992283
6 *595:10 0.000417997
7 *595:10 *631:178 0
8 *595:10 *631:191 7.56417e-05
9 *595:22 *600:14 0.000654054
10 *595:22 *605:18 3.65165e-05
11 *595:22 *605:22 0.000466438
12 wbs_dat_o[13] *595:22 0.000143535
13 wbs_dat_o[14] *595:22 9.77405e-05
14 *11816:B *595:10 2.472e-05
15 *11949:A *595:14 2.30292e-05
16 *11971:A *595:22 0.00014196
17 *11993:A *595:14 7.15126e-05
18 *41:9 *595:14 0.000113783
19 *110:10 *595:10 5.94125e-05
20 *198:23 *595:14 9.84851e-05
21 *198:40 *595:14 0.00018282
22 *363:28 *595:10 3.3123e-05
23 *364:10 *595:22 0.000180537
24 *370:6 *595:14 0.000763828
25 *375:10 *595:14 1.06624e-05
26 *377:8 *595:14 5.61255e-06
27 *562:8 *595:22 0
28 *587:16 *595:10 2.54046e-05
29 *588:30 *595:14 0.000354116
30 *591:12 *595:10 5.50049e-05
31 *591:16 *595:10 0
32 *592:12 *595:14 0.00927606
33 *592:26 *595:14 0.000378026
*RES
1 *11868:X *595:10 45.4571
2 *595:10 *595:12 15
3 *595:12 *595:14 149.744
4 *595:14 *595:22 47.1514
5 *595:22 *12224:A 23
*END

*D_NET *596 0.0790638
*CONN
*I *11994:A I *D sky130_fd_sc_hd__buf_12
*I *12212:X O *D sky130_fd_sc_hd__buf_12
*CAP
1 *11994:A 0
2 *12212:X 0.000178224
3 *596:34 0.000593786
4 *596:30 0.000685681
5 *596:24 0.00679826
6 *596:22 0.006889
7 *596:16 0.00180359
8 *596:14 0.00162095
9 *596:12 0.00154893
10 *596:10 0.00154893
11 *596:8 0.000178224
12 *596:12 *607:12 3.44656e-05
13 *596:12 *622:20 0.00104659
14 *596:12 *622:22 7.71199e-05
15 *596:16 *618:14 0
16 *596:16 *628:188 0.000445368
17 *596:16 *629:8 0.000249604
18 *596:16 *631:212 0.00147055
19 *596:24 *607:16 0.0223046
20 *596:24 *631:226 0.0004116
21 *596:24 *633:20 2.24151e-05
22 wbs_dat_o[4] *596:16 0
23 *33:13 *596:16 0.000189085
24 *61:15 *596:8 0
25 *113:16 *596:22 0.000263538
26 *124:22 *596:22 3.60747e-05
27 *129:10 *596:34 0.00194754
28 *184:8 *596:24 0.0208221
29 *184:8 *596:34 0.00176216
30 *196:37 *596:16 5.9549e-05
31 *205:29 *596:24 0.00101442
32 *363:18 *596:8 0.000135419
33 *369:74 *596:34 0.000241301
34 *374:16 *596:24 0.00388954
35 *501:8 *596:16 8.78333e-05
36 *582:18 *596:16 0
37 *587:12 *596:12 0.00069407
38 *591:18 *596:12 1.32939e-05
*RES
1 *12212:X *596:8 41.3143
2 *596:8 *596:10 15
3 *596:10 *596:12 45.4057
4 *596:12 *596:14 15
5 *596:14 *596:16 35.7114
6 *596:16 *596:22 33.0036
7 *596:22 *596:24 297.354
8 *596:24 *596:30 31.0979
9 *596:30 *596:34 40.8514
10 *596:34 *11994:A 23
*END

*D_NET *597 0.0359069
*CONN
*I *12225:A I *D sky130_fd_sc_hd__buf_12
*I *11871:X O *D sky130_fd_sc_hd__o221a_2
*CAP
1 *12225:A 0.000478768
2 *11871:X 0.000628929
3 *597:24 0.00107658
4 *597:20 0.000686939
5 *597:14 0.00991759
6 *597:12 0.00982847
7 *597:10 0.000628929
8 *12225:A *608:8 0.00015799
9 *597:10 *634:219 2.64616e-05
10 *597:14 *601:10 0.000695328
11 *597:14 *620:16 0.000351437
12 *597:14 *631:200 0.000684348
13 *597:14 *634:42 0.0012015
14 *597:20 *634:90 2.40392e-05
15 *597:24 *603:14 1.56542e-05
16 *597:24 *603:16 0.00258439
17 *597:24 *634:90 0.000142173
18 *785:DIODE *12225:A 4.77164e-06
19 *11883:A1 *597:14 0.000280778
20 *110:18 *597:10 0.000167113
21 *114:8 *597:10 0.000124066
22 *136:26 *597:10 0
23 *151:54 *12225:A 4.55909e-05
24 *151:69 *12225:A 0.000383189
25 *151:71 *12225:A 0.000113576
26 *152:14 *597:24 0.00263007
27 *152:22 *597:14 0.00152183
28 *200:19 *597:20 2.59423e-05
29 *202:39 *12225:A 0.000183102
30 *429:14 *597:14 0.00108007
31 *441:10 *12225:A 0
32 *452:20 *597:14 0.000130199
33 *588:42 *597:14 8.70533e-05
*RES
1 *11871:X *597:10 45.4571
2 *597:10 *597:12 15
3 *597:12 *597:14 141.168
4 *597:14 *597:20 31.5536
5 *597:20 *597:24 45.6364
6 *597:24 *12225:A 48.7093
*END

*D_NET *598 0.0315659
*CONN
*I *12226:A I *D sky130_fd_sc_hd__buf_12
*I *11874:X O *D sky130_fd_sc_hd__o221a_2
*CAP
1 *12226:A 0
2 *11874:X 0
3 *598:24 0.00189166
4 *598:20 0.00480241
5 *598:18 0.00440577
6 *598:10 0.00323274
7 *598:6 0.00173771
8 *598:10 *625:43 0.000651746
9 *111:16 *598:18 0.00051517
10 *155:26 *598:20 0.000333775
11 *199:25 *598:18 0.000282197
12 *199:25 *598:20 0.000662117
13 *203:19 *598:18 0.00121777
14 *203:27 *598:18 0.00147012
15 *203:27 *598:20 0.00913359
16 *227:21 *598:20 0.000152556
17 *366:10 *598:24 3.9899e-05
18 *416:10 *598:24 0
19 *547:8 *598:24 0
20 *554:35 *598:10 0.00103671
*RES
1 *11874:X *598:6 38
2 *598:6 *598:10 46.1336
3 *598:10 *598:18 42.9718
4 *598:18 *598:20 99.4804
5 *598:20 *598:24 45.7814
6 *598:24 *12226:A 38
*END

*D_NET *599 0.0254628
*CONN
*I *12227:A I *D sky130_fd_sc_hd__buf_12
*I *11877:X O *D sky130_fd_sc_hd__o221a_2
*CAP
1 *12227:A 0
2 *11877:X 8.4157e-05
3 *599:20 0.000748864
4 *599:12 0.0094355
5 *599:10 0.00868663
6 *599:8 8.4157e-05
7 *599:8 *625:61 0
8 *599:12 *623:14 0.000532537
9 *599:20 *609:8 0
10 *599:20 *632:221 0.000487153
11 *599:20 *634:148 0.000289745
12 *79:8 *599:20 0.000182832
13 *114:19 *599:12 0.00304588
14 *154:6 *599:12 0.00122931
15 *155:56 *599:20 0
16 *155:60 *599:20 0
17 *155:62 *599:20 0
18 *155:64 *599:20 0
19 *156:8 *599:12 0.000656052
*RES
1 *11877:X *599:8 39.2014
2 *599:8 *599:10 15
3 *599:10 *599:12 127.828
4 *599:12 *599:20 44.6864
5 *599:20 *12227:A 23
*END

*D_NET *600 0.0287081
*CONN
*I *12228:A I *D sky130_fd_sc_hd__buf_12
*I *11880:X O *D sky130_fd_sc_hd__o221a_2
*CAP
1 *12228:A 0.000567501
2 *11880:X 0.000150146
3 *600:24 0.000980384
4 *600:14 0.0082085
5 *600:12 0.00834529
6 *600:8 0.000699815
7 *12228:A *605:24 0.0017777
8 *600:12 *634:42 0
9 *600:14 *605:22 0.000248757
10 *600:14 *605:24 0.00184106
11 *600:24 *605:24 0.000408548
12 wbs_dat_o[11] *600:14 0.00010776
13 wbs_dat_o[12] *600:14 8.59256e-05
14 wbs_dat_o[13] *600:14 2.32787e-05
15 wbs_dat_o[14] *600:14 6.09861e-05
16 wbs_dat_o[17] *600:24 8.36011e-05
17 *1062:DIODE *600:24 8.1379e-05
18 *12031:A *600:14 0.000125416
19 *12091:A *600:14 5.47927e-05
20 *80:8 *12228:A 0.000463852
21 *366:10 *600:14 0.000787854
22 *397:12 *600:12 0
23 *429:10 *600:12 0.000397725
24 *431:6 *12228:A 0.000408549
25 *540:10 *600:14 0.000114285
26 *593:22 *600:14 0.000685075
27 *593:28 *600:14 0.000923066
28 *594:22 *600:8 0.000228903
29 *594:30 *600:14 0.000193926
30 *595:22 *600:14 0.000654054
*RES
1 *11880:X *600:8 40.5271
2 *600:8 *600:12 24.6529
3 *600:12 *600:14 111.629
4 *600:14 *600:24 39.9429
5 *600:24 *12228:A 42.6786
*END

*D_NET *601 0.0239561
*CONN
*I *12229:A I *D sky130_fd_sc_hd__buf_12
*I *11883:X O *D sky130_fd_sc_hd__o221a_2
*CAP
1 *12229:A 0
2 *11883:X 0.000113698
3 *601:28 0.00226613
4 *601:24 0.00256203
5 *601:18 0.00342194
6 *601:16 0.0031906
7 *601:10 0.000911638
8 *601:8 0.000960789
9 *601:8 *634:56 0.000426465
10 *601:10 *11889:B1 5.28598e-05
11 *601:10 *11892:A2 5.56279e-05
12 *601:10 *11892:B1 1.28818e-05
13 *601:10 *11892:C1 9.8203e-05
14 *601:10 *630:88 0.000611084
15 *601:10 *630:97 0.000265877
16 *601:10 *630:105 0.000971828
17 *601:10 *632:170 0.000156142
18 *601:10 *634:56 0.000151675
19 *601:10 *634:106 2.02872e-05
20 *601:16 *11895:B1 2.26497e-05
21 *601:16 *630:113 5.80693e-05
22 *601:18 *606:12 5.3304e-05
23 *601:18 *634:106 0.000142173
24 *601:18 *634:121 0.000306212
25 *664:DIODE *601:28 9.84851e-05
26 *1094:DIODE *601:28 5.67058e-05
27 *11892:A1 *601:10 0.000108156
28 *81:8 *601:28 0.00046781
29 *152:22 *601:8 0.000166593
30 *152:22 *601:10 0.00102398
31 *155:62 *601:24 0
32 *155:64 *601:24 0
33 *155:66 *601:24 0
34 *156:14 *601:18 0.00189264
35 *157:61 *601:28 0.00014196
36 *158:36 *601:10 0.00117775
37 *160:20 *601:16 4.6318e-06
38 *162:16 *601:18 8.53131e-05
39 *164:26 *601:18 0.00113332
40 *201:19 *601:16 1.0402e-05
41 *201:38 *601:18 6.08617e-05
42 *463:8 *601:24 0
43 *597:14 *601:10 0.000695328
*RES
1 *11883:X *601:8 28.5204
2 *601:8 *601:10 38.4975
3 *601:10 *601:16 31.2014
4 *601:16 *601:18 47.7879
5 *601:18 *601:24 34.3707
6 *601:24 *601:28 39.1086
7 *601:28 *12229:A 23
*END

*D_NET *602 0.00125385
*CONN
*I *12230:A I *D sky130_fd_sc_hd__buf_12
*I *11829:X O *D sky130_fd_sc_hd__o221a_1
*CAP
1 *12230:A 0
2 *11829:X 0.000573892
3 *602:8 0.000573892
4 *602:8 *631:44 0
5 *656:DIODE *602:8 3.64195e-05
6 *12079:A *602:8 0
7 *50:13 *602:8 1.74874e-06
8 *423:10 *602:8 6.79006e-05
9 *559:10 *602:8 0
*RES
1 *11829:X *602:8 48.3571
2 *602:8 *12230:A 38
*END

*D_NET *603 0.0249666
*CONN
*I *12231:A I *D sky130_fd_sc_hd__buf_12
*I *11886:X O *D sky130_fd_sc_hd__o221a_2
*CAP
1 *12231:A 0.000424463
2 *11886:X 0.000328695
3 *603:22 0.00111123
4 *603:16 0.00287149
5 *603:14 0.00294502
6 *603:8 0.00108899
7 *12231:A *605:24 0.00137009
8 *603:14 *634:90 0.000707614
9 *603:16 *608:12 0.00535401
10 *603:22 *609:20 9.21579e-05
11 *603:22 *611:8 0
12 *1064:DIODE *603:16 5.47808e-05
13 *12106:A *12231:A 5.56279e-05
14 *83:10 *12231:A 0.000446281
15 *149:55 *603:8 0
16 *149:57 *603:8 0
17 *149:59 *603:8 0
18 *159:106 *603:16 6.70017e-05
19 *160:14 *603:16 0.00491832
20 *168:26 *603:22 0
21 *206:47 *603:22 0
22 *442:10 *603:22 0
23 *594:22 *603:14 0.000530774
24 *597:24 *603:14 1.56542e-05
25 *597:24 *603:16 0.00258439
*RES
1 *11886:X *603:8 43.075
2 *603:8 *603:14 34.2229
3 *603:14 *603:16 88.7607
4 *603:16 *603:22 41.0614
5 *603:22 *12231:A 37.9143
*END

*D_NET *604 0.0214548
*CONN
*I *12232:A I *D sky130_fd_sc_hd__buf_12
*I *11889:X O *D sky130_fd_sc_hd__o221a_2
*CAP
1 *12232:A 0
2 *11889:X 6.94194e-05
3 *604:22 0.000262454
4 *604:14 0.00539919
5 *604:12 0.00571469
6 *604:8 0.000647379
7 *604:8 *630:97 9.84794e-05
8 *604:14 *606:20 0.00423463
9 *604:22 *609:34 0
10 wbs_dat_o[13] *604:12 0
11 wbs_dat_o[21] *604:22 0.0002246
12 *11993:A *604:12 0.000286959
13 *199:46 *604:12 2.76611e-06
14 *364:10 *604:12 0
15 *418:8 *604:12 0
16 *452:12 *604:14 0.00397152
17 *585:12 *604:12 0
18 *594:30 *604:12 0.000542681
*RES
1 *11889:X *604:8 39.0979
2 *604:8 *604:12 27.8221
3 *604:12 *604:14 120.205
4 *604:14 *604:22 34.785
5 *604:22 *12232:A 23
*END

*D_NET *605 0.0236579
*CONN
*I *12233:A I *D sky130_fd_sc_hd__buf_12
*I *11892:X O *D sky130_fd_sc_hd__o221a_2
*CAP
1 *12233:A 0.000773013
2 *11892:X 0.00053169
3 *605:24 0.00438272
4 *605:22 0.00547028
5 *605:18 0.00209459
6 *605:12 0.000765705
7 *12233:A *608:22 0.000786769
8 *605:12 *634:90 0
9 *605:12 *634:106 4.75704e-05
10 wbs_dat_o[13] *605:22 1.24376e-05
11 wbs_dat_o[14] *605:22 0.000302073
12 wbs_dat_o[15] *605:22 0.000359536
13 *907:DIODE *605:24 5.53064e-05
14 *1096:DIODE *605:24 0.000143156
15 *11971:A *605:22 0.00014196
16 *12084:A *605:24 5.41385e-05
17 *12091:A *605:22 0.00014196
18 *12228:A *605:24 0.0017777
19 *12231:A *605:24 0.00137009
20 *46:11 *605:24 0.000389114
21 *80:8 *605:24 8.2832e-05
22 *83:10 *605:24 0.000123665
23 *85:8 *12233:A 0.000388065
24 *158:36 *605:12 9.84794e-05
25 *364:10 *605:18 0
26 *366:10 *605:22 0.000163299
27 *375:10 *605:18 0.00020043
28 *595:22 *605:18 3.65165e-05
29 *595:22 *605:22 0.000466438
30 *600:14 *605:22 0.000248757
31 *600:14 *605:24 0.00184106
32 *600:24 *605:24 0.000408548
*RES
1 *11892:X *605:12 46.7311
2 *605:12 *605:18 18.9875
3 *605:18 *605:22 36.1257
4 *605:22 *605:24 79.7086
5 *605:24 *12233:A 39.3643
*END

*D_NET *606 0.027665
*CONN
*I *12234:A I *D sky130_fd_sc_hd__buf_12
*I *11895:X O *D sky130_fd_sc_hd__o221a_2
*CAP
1 *12234:A 0.00045108
2 *11895:X 0.000425253
3 *606:28 0.00547917
4 *606:26 0.00511652
5 *606:20 0.00283186
6 *606:18 0.00336426
7 *606:12 0.00104609
8 wbs_dat_o[21] *606:28 0.000821848
9 wbs_dat_o[23] *12234:A 0.000196523
10 *1112:DIODE *606:28 5.27215e-06
11 *12082:A *606:28 1.24376e-05
12 *12088:A *606:28 0.000254591
13 *12104:A *606:28 0.000300125
14 *12108:A *606:28 0.000196437
15 *12115:A *606:28 0.000152901
16 *12183:A *606:28 9.40782e-05
17 *12185:A *12234:A 5.79559e-05
18 *49:11 *606:28 0.00127799
19 *54:13 *12234:A 0.00036758
20 *201:38 *606:12 0.000159299
21 *361:10 *606:12 2.27197e-05
22 *361:10 *606:18 3.80996e-05
23 *373:8 *606:18 0.000362753
24 *433:10 *606:28 0.000322288
25 *459:10 *606:28 1.99429e-05
26 *601:18 *606:12 5.3304e-05
27 *604:14 *606:20 0.00423463
*RES
1 *11895:X *606:12 44.8461
2 *606:12 *606:18 22.9854
3 *606:18 *606:20 46.3586
4 *606:20 *606:26 31.2014
5 *606:26 *606:28 72.5621
6 *606:28 *12234:A 35.0971
*END

*D_NET *607 0.0766544
*CONN
*I *11989:A I *D sky130_fd_sc_hd__buf_12
*I *12213:X O *D sky130_fd_sc_hd__buf_12
*CAP
1 *11989:A 4.24211e-05
2 *12213:X 9.51856e-05
3 *607:16 0.00874852
4 *607:14 0.0087061
5 *607:12 0.00212835
6 *607:8 0.00222354
7 *607:16 *618:14 0.0246642
8 *607:16 *618:22 0.000425916
9 *607:16 *633:20 6.02277e-06
10 *607:16 *633:24 0.000235013
11 *12075:A *607:8 2.75733e-06
12 *31:9 *607:8 0
13 *66:9 *607:16 0
14 *184:8 *607:16 0.000646587
15 *205:11 *607:16 0
16 *205:29 *607:16 0.000203391
17 *363:41 *607:16 0
18 *374:16 *607:16 0.00351925
19 *374:26 *607:16 2.5343e-05
20 *531:8 *607:16 9.56632e-05
21 *587:12 *607:12 0.000247536
22 *591:18 *607:12 0.00229949
23 *596:12 *607:12 3.44656e-05
24 *596:24 *607:16 0.0223046
*RES
1 *12213:X *607:8 39.5536
2 *607:8 *607:12 48.495
3 *607:12 *607:14 15
4 *607:14 *607:16 348.766
5 *607:16 *11989:A 38.6214
*END

*D_NET *608 0.0235416
*CONN
*I *12235:A I *D sky130_fd_sc_hd__buf_12
*I *11898:X O *D sky130_fd_sc_hd__o221a_2
*CAP
1 *12235:A 0
2 *11898:X 0.00021977
3 *608:22 0.00185086
4 *608:18 0.00244427
5 *608:12 0.00511976
6 *608:10 0.00452636
7 *608:8 0.00021977
8 *608:12 *611:20 0.000556753
9 *608:12 *613:14 0.00018304
10 *608:12 *615:10 0.000100061
11 *608:18 *609:34 0
12 *608:18 *612:18 0
13 wbs_dat_o[24] *608:22 7.88926e-05
14 *1089:DIODE *608:12 3.71228e-05
15 *1111:DIODE *608:22 5.3304e-05
16 *11916:B2 *608:12 2.05165e-05
17 *12123:A *608:22 0.000103542
18 *12187:A *608:22 5.72975e-05
19 *12225:A *608:8 0.00015799
20 *12233:A *608:22 0.000786769
21 *85:8 *608:22 0.000122226
22 *111:69 *608:18 8.45842e-05
23 *114:52 *608:12 2.13733e-05
24 *164:14 *608:18 0.000101755
25 *182:63 *608:12 0.000793562
26 *182:84 *608:12 2.14255e-07
27 *182:84 *608:18 2.11157e-05
28 *202:39 *608:8 1.00084e-05
29 *209:38 *608:18 3.80506e-05
30 *210:27 *608:18 0
31 *210:40 *608:18 3.4937e-05
32 *441:10 *608:8 0.000164545
33 *457:6 *608:22 0.000279105
34 *603:16 *608:12 0.00535401
*RES
1 *11898:X *608:8 43.075
2 *608:8 *608:10 15
3 *608:10 *608:12 93.0486
4 *608:12 *608:18 40.3571
5 *608:18 *608:22 34.945
6 *608:22 *12235:A 23
*END

*D_NET *609 0.0235823
*CONN
*I *12236:A I *D sky130_fd_sc_hd__buf_12
*I *11901:X O *D sky130_fd_sc_hd__o221a_2
*CAP
1 *12236:A 0
2 *11901:X 0.000193646
3 *609:44 0.000381828
4 *609:36 0.00235567
5 *609:34 0.00271269
6 *609:28 0.00235667
7 *609:20 0.00266696
8 *609:14 0.00271354
9 *609:8 0.00185804
10 *609:20 *611:12 0.000356943
11 *609:28 *610:20 0.00260548
12 *1067:DIODE *609:14 0.000141954
13 *11939:A *609:44 1.12863e-05
14 *12115:A *609:34 0
15 *56:13 *609:44 0
16 *158:20 *609:14 0.00024876
17 *158:28 *609:14 0.000293723
18 *162:16 *609:14 0.000491363
19 *162:16 *609:20 0.000381507
20 *164:26 *609:20 0.000167108
21 *205:60 *609:20 0.000352426
22 *206:47 *609:20 0
23 *210:27 *609:34 5.56203e-05
24 *529:14 *609:36 0.00314497
25 *599:20 *609:8 0
26 *603:22 *609:20 9.21579e-05
27 *604:22 *609:34 0
28 *608:18 *609:34 0
*RES
1 *11901:X *609:8 40.9621
2 *609:8 *609:14 40.1782
3 *609:14 *609:20 36.4289
4 *609:20 *609:28 44.3729
5 *609:28 *609:34 40.3571
6 *609:34 *609:36 49.2171
7 *609:36 *609:44 34.785
8 *609:44 *12236:A 23
*END

*D_NET *610 0.0236159
*CONN
*I *12237:A I *D sky130_fd_sc_hd__buf_12
*I *11904:X O *D sky130_fd_sc_hd__o221a_2
*CAP
1 *12237:A 0
2 *11904:X 0.00080838
3 *610:30 0.000708244
4 *610:22 0.00435214
5 *610:20 0.00446109
6 *610:12 0.00162558
7 *610:12 *11910:C1 3.40295e-05
8 *610:12 *632:248 0.00116929
9 *610:20 *11910:C1 0.000292316
10 *610:20 *612:10 0.00134758
11 *610:22 *612:10 0.000383293
12 *610:22 *616:6 0.00495029
13 wbs_dat_o[26] *610:30 0.000142173
14 *672:DIODE *610:22 2.93845e-05
15 *11910:A1 *610:20 0.000121951
16 *11910:B1 *610:20 7.80291e-06
17 *11910:B2 *610:20 0.000488848
18 *166:14 *610:12 2.13733e-05
19 *176:22 *610:22 1.72202e-05
20 *206:47 *610:20 3.22467e-05
21 *206:54 *610:20 1.72202e-05
22 *609:28 *610:20 0.00260548
*RES
1 *11904:X *610:12 39.53
2 *610:12 *610:20 35.9393
3 *610:20 *610:22 60.175
4 *610:22 *610:30 41.0614
5 *610:30 *12237:A 23
*END

*D_NET *611 0.0235771
*CONN
*I *12238:A I *D sky130_fd_sc_hd__buf_12
*I *11907:X O *D sky130_fd_sc_hd__o221a_2
*CAP
1 *12238:A 0
2 *11907:X 0.000216982
3 *611:36 0.00108446
4 *611:28 0.00559924
5 *611:26 0.00459438
6 *611:20 0.000601026
7 *611:12 0.00226261
8 *611:8 0.00195816
9 *611:28 *613:10 0.000177604
10 wbs_dat_o[27] *611:36 5.56356e-05
11 *1091:DIODE *611:12 0.000140259
12 *1107:DIODE *611:28 5.3304e-05
13 *111:37 *611:12 2.12366e-05
14 *111:46 *611:12 7.72341e-05
15 *111:69 *611:28 4.21062e-05
16 *164:26 *611:12 0.000131857
17 *168:26 *611:8 0
18 *182:42 *611:12 0.000641972
19 *182:63 *611:12 3.7905e-06
20 *182:84 *611:26 8.4047e-05
21 *205:60 *611:8 9.58756e-05
22 *207:23 *611:20 4.08641e-05
23 *236:23 *611:36 0.000320512
24 *463:14 *611:12 0.000130115
25 *475:8 *611:36 0
26 *485:14 *611:28 0.000232591
27 *507:14 *611:28 0.000146458
28 *518:18 *611:28 0.00102267
29 *518:20 *611:28 0.000505397
30 *552:12 *611:28 0.00242298
31 *603:22 *611:8 0
32 *608:12 *611:20 0.000556753
33 *609:20 *611:12 0.000356943
*RES
1 *11907:X *611:8 41.6664
2 *611:8 *611:12 41.3486
3 *611:12 *611:20 37.54
4 *611:20 *611:26 31.2014
5 *611:26 *611:28 69.7036
6 *611:28 *611:36 49.9271
7 *611:36 *12238:A 23
*END

*D_NET *612 0.0234556
*CONN
*I *12239:A I *D sky130_fd_sc_hd__buf_12
*I *11910:X O *D sky130_fd_sc_hd__o221a_2
*CAP
1 *12239:A 0
2 *11910:X 0.000544803
3 *612:34 0.00100835
4 *612:26 0.00267987
5 *612:24 0.00176903
6 *612:18 0.00080587
7 *612:10 0.00125315
8 *612:18 *615:10 0
9 *612:26 *615:14 0.00643855
10 wbs_dat_o[28] *612:34 5.50106e-05
11 *669:DIODE *612:10 0.000187129
12 *672:DIODE *612:10 5.50106e-05
13 *11910:B2 *612:10 0.000272377
14 *11919:B2 *612:10 1.71761e-05
15 *111:69 *612:10 0.000143259
16 *114:62 *612:10 0.000459862
17 *163:56 *612:24 0.000105116
18 *163:58 *612:24 1.01436e-05
19 *164:14 *612:18 3.41998e-06
20 *166:14 *612:10 0.000778314
21 *166:14 *612:26 0.0043573
22 *176:22 *612:10 9.64943e-05
23 *210:40 *612:18 6.07397e-05
24 *479:10 *612:34 0
25 *482:8 *612:34 3.13081e-05
26 *507:14 *612:26 0.000250695
27 *518:18 *612:18 0.00034176
28 *608:18 *612:18 0
29 *610:20 *612:10 0.00134758
30 *610:22 *612:10 0.000383293
*RES
1 *11910:X *612:10 49.8664
2 *612:10 *612:18 39.9014
3 *612:18 *612:24 31.5536
4 *612:24 *612:26 70.6564
5 *612:26 *612:34 47.2343
6 *612:34 *12239:A 23
*END

*D_NET *613 0.0162358
*CONN
*I *12240:A I *D sky130_fd_sc_hd__buf_12
*I *11913:X O *D sky130_fd_sc_hd__o221a_2
*CAP
1 *12240:A 0.000683177
2 *11913:X 0.000456973
3 *613:20 0.00133868
4 *613:14 0.00586509
5 *613:12 0.00520959
6 *613:10 0.000456973
7 *613:14 *615:10 0.000288008
8 wbs_dat_o[29] *12240:A 5.50106e-05
9 *1105:DIODE *613:14 1.59094e-05
10 *11916:B2 *613:14 0.000247021
11 *11959:A *12240:A 9.84851e-05
12 *111:46 *613:10 0.000640186
13 *111:54 *613:10 0.000163361
14 *111:69 *613:10 5.56356e-05
15 *209:38 *613:10 0.000158796
16 *487:8 *613:20 0.00013007
17 *490:10 *12240:A 1.21972e-05
18 *608:12 *613:14 0.00018304
19 *611:28 *613:10 0.000177604
*RES
1 *11913:X *613:10 48.0257
2 *613:10 *613:12 15
3 *613:12 *613:14 95.9071
4 *613:14 *613:20 41.0614
5 *613:20 *12240:A 34.1029
*END

*D_NET *614 0.00180702
*CONN
*I *12241:A I *D sky130_fd_sc_hd__buf_12
*I *11832:X O *D sky130_fd_sc_hd__o221a_1
*CAP
1 *12241:A 8.43894e-05
2 *11832:X 0.000375872
3 *614:8 0.000460262
4 *670:DIODE *614:8 5.45887e-05
5 *12212:A *12241:A 0.00014196
6 *28:13 *614:8 0
7 *61:15 *614:8 0.000107823
8 *93:10 *12241:A 7.77212e-05
9 *523:8 *614:8 0.000191157
10 *545:10 *614:8 0
11 *582:6 *12241:A 0.000313249
*RES
1 *11832:X *614:8 45.8921
2 *614:8 *12241:A 41.9771
*END

*D_NET *615 0.0254199
*CONN
*I *12242:A I *D sky130_fd_sc_hd__buf_12
*I *11916:X O *D sky130_fd_sc_hd__o221a_2
*CAP
1 *12242:A 0
2 *11916:X 0.000866672
3 *615:22 0.00109076
4 *615:14 0.00337216
5 *615:12 0.0022814
6 *615:10 0.000866672
7 wbs_dat_o[30] *615:22 5.50106e-05
8 *1108:DIODE *615:14 5.3304e-05
9 *11964:A *615:22 9.84851e-05
10 *164:14 *615:10 0
11 *166:14 *615:14 0.000117112
12 *176:22 *615:14 0.00940714
13 *494:10 *615:22 1.57571e-05
14 *507:14 *615:14 0.000368814
15 *569:14 *615:22 0
16 *608:12 *615:10 0.000100061
17 *612:18 *615:10 0
18 *612:26 *615:14 0.00643855
19 *613:14 *615:10 0.000288008
*RES
1 *11916:X *615:10 49.5379
2 *615:10 *615:12 15
3 *615:12 *615:14 103.53
4 *615:14 *615:22 45.9293
5 *615:22 *12242:A 23
*END

*D_NET *616 0.0251555
*CONN
*I *12243:A I *D sky130_fd_sc_hd__buf_12
*I *11919:X O *D sky130_fd_sc_hd__o221a_2
*CAP
1 *12243:A 0.000223373
2 *11919:X 0
3 *616:12 0.00248405
4 *616:6 0.00499115
5 *616:4 0.00273048
6 *176:22 *616:6 0.00895855
7 *176:22 *616:12 0.000582558
8 *499:8 *12243:A 0.00013381
9 *573:10 *12243:A 0.000101202
10 *610:22 *616:6 0.00495029
*RES
1 *11919:X *616:4 23
2 *616:4 *616:6 98.5275
3 *616:6 *616:12 45.4189
4 *616:12 *12243:A 42.7229
*END

*D_NET *617 0.00604398
*CONN
*I *12244:A I *D sky130_fd_sc_hd__buf_12
*I *11835:X O *D sky130_fd_sc_hd__o221a_1
*CAP
1 *12244:A 0.000512057
2 *11835:X 0.00027543
3 *617:24 0.00141747
4 *617:10 0.00118084
5 *617:10 *11853:C1 0.000137651
6 *617:10 *621:8 0.000604066
7 *617:10 *628:63 0.000218134
8 *617:24 *633:77 0.000169691
9 *681:DIODE *617:24 6.92122e-05
10 *12014:A *617:10 0.000114922
11 *12076:A *12244:A 4.96717e-05
12 *96:8 *12244:A 2.93845e-05
13 *132:18 *617:10 5.58473e-05
14 *318:20 *617:10 1.08287e-05
15 *363:18 *617:10 1.02561e-05
16 *420:10 *12244:A 0.000180972
17 *436:12 *617:24 8.92251e-05
18 *571:12 *617:24 3.53934e-05
19 *588:30 *12244:A 0.000435715
20 *588:30 *617:24 0.000447211
*RES
1 *11835:X *617:10 46.5446
2 *617:10 *617:24 42.2317
3 *617:24 *12244:A 33.1707
*END

*D_NET *618 0.0722238
*CONN
*I *11980:A I *D sky130_fd_sc_hd__buf_12
*I *12214:X O *D sky130_fd_sc_hd__buf_12
*CAP
1 *11980:A 0
2 *12214:X 0.00114898
3 *618:22 0.000638593
4 *618:14 0.00893844
5 *618:12 0.00829985
6 *618:10 0.00114898
7 *618:10 *619:16 0.000231092
8 *618:10 *620:36 0.000114656
9 *618:14 *631:212 0.000204738
10 *33:13 *618:10 0.000820135
11 *205:11 *618:14 0
12 *205:11 *618:22 0
13 *374:16 *618:14 0.00286754
14 *496:36 *618:14 8.5315e-05
15 *501:8 *618:14 8.78333e-05
16 *510:10 *618:10 0.000262913
17 *571:18 *618:14 0.0222846
18 *596:16 *618:14 0
19 *607:16 *618:14 0.0246642
20 *607:16 *618:22 0.000425916
*RES
1 *12214:X *618:10 42.8443
2 *618:10 *618:12 15
3 *618:12 *618:14 329.865
4 *618:14 *618:22 29.5518
5 *618:22 *11980:A 23
*END

*D_NET *619 0.00621647
*CONN
*I *12245:A I *D sky130_fd_sc_hd__buf_12
*I *11838:X O *D sky130_fd_sc_hd__o221a_1
*CAP
1 *12245:A 0
2 *11838:X 0.000457593
3 *619:16 0.000669091
4 *619:10 0.00112668
5 *619:10 *621:8 8.01475e-05
6 *11979:A *619:16 0.000141154
7 *12075:A *619:10 0.000111609
8 *33:13 *619:16 0.000393858
9 *363:28 *619:10 0.000313463
10 *420:10 *619:10 0.000129234
11 *510:10 *619:16 0.000516897
12 *530:10 *619:16 7.88828e-05
13 *543:10 *619:10 0.000212534
14 *582:6 *619:16 0.00175423
15 *618:10 *619:16 0.000231092
*RES
1 *11838:X *619:10 49.3721
2 *619:10 *619:16 38.5107
3 *619:16 *12245:A 23
*END

*D_NET *620 0.0131398
*CONN
*I *12246:A I *D sky130_fd_sc_hd__buf_12
*I *11841:X O *D sky130_fd_sc_hd__o221a_1
*CAP
1 *12246:A 0
2 *11841:X 0.000722905
3 *620:36 0.000693905
4 *620:22 0.00150231
5 *620:16 0.00144555
6 *620:10 0.00136005
7 *620:10 *628:37 0.000135037
8 *620:10 *628:39 4.38084e-05
9 *620:10 *628:47 0.000211426
10 *620:16 *622:10 0.000908802
11 *620:16 *631:8 1.41129e-05
12 *620:16 *631:200 0.000730925
13 *620:22 *622:20 0.00100596
14 wbs_dat_o[4] *620:36 0.000177146
15 *647:DIODE *620:16 0.000222671
16 *648:DIODE *620:16 0.000223704
17 *32:9 *620:22 0.000167998
18 *33:13 *620:36 0.000227473
19 *34:17 *620:36 0.000319061
20 *65:9 *620:22 0
21 *212:27 *620:10 0.000109343
22 *510:10 *620:22 0.000408839
23 *530:10 *620:36 1.59094e-05
24 *539:10 *620:22 7.42178e-05
25 *583:14 *620:10 0.000107232
26 *586:8 *620:22 0.000618764
27 *588:36 *620:16 0.0002246
28 *591:18 *620:22 0.00100194
29 *597:14 *620:16 0.000351437
30 *618:10 *620:36 0.000114656
*RES
1 *11841:X *620:10 48.7507
2 *620:10 *620:16 48.7257
3 *620:16 *620:22 40.6857
4 *620:22 *620:36 43.8993
5 *620:36 *12246:A 23
*END

*D_NET *621 0.0160603
*CONN
*I *12247:A I *D sky130_fd_sc_hd__buf_12
*I *11844:X O *D sky130_fd_sc_hd__o221a_2
*CAP
1 *12247:A 0
2 *11844:X 0
3 *621:20 0.00102027
4 *621:10 0.00282487
5 *621:8 0.00410784
6 *621:4 0.00230324
7 *621:8 *11853:A2 0.000305425
8 *621:8 *11853:C1 4.34973e-05
9 *621:8 *628:63 4.02485e-05
10 *621:8 *628:65 0.000221084
11 *621:8 *628:69 0.000221084
12 *621:8 *631:139 6.39489e-06
13 *621:8 *633:60 0.000393287
14 wbs_dat_o[5] *621:20 0
15 *11838:A1 *621:8 2.93431e-05
16 *11853:B2 *621:8 3.83953e-05
17 *12051:A *621:20 8.15864e-05
18 *34:17 *621:20 0.000112419
19 *66:9 *621:10 0.000173152
20 *109:8 *621:8 7.44161e-06
21 *110:10 *621:10 5.50049e-05
22 *110:18 *621:10 0.000643425
23 *319:14 *621:20 1.43921e-05
24 *363:28 *621:8 3.99656e-05
25 *363:28 *621:10 4.02485e-05
26 *363:39 *621:10 0.0025656
27 *503:8 *621:20 8.78333e-05
28 *534:10 *621:20 0
29 *617:10 *621:8 0.000604066
30 *619:10 *621:8 8.01475e-05
*RES
1 *11844:X *621:4 23
2 *621:4 *621:8 31.61
3 *621:8 *621:10 38.7357
4 *621:10 *621:20 47.9179
5 *621:20 *12247:A 23
*END

*D_NET *622 0.0191035
*CONN
*I *12248:A I *D sky130_fd_sc_hd__buf_12
*I *11847:X O *D sky130_fd_sc_hd__o221a_2
*CAP
1 *12248:A 0
2 *11847:X 0.00105698
3 *622:28 0.000151948
4 *622:22 0.00124177
5 *622:20 0.00146759
6 *622:16 0.00103503
7 *622:10 0.00171424
8 *622:10 *631:8 0.000137651
9 *622:10 *631:10 0.000398503
10 *622:10 *631:12 0.000228164
11 *622:10 *631:16 0.000168252
12 *622:10 *631:18 3.22245e-05
13 *622:16 *632:28 3.47781e-05
14 wbs_dat_o[3] *622:16 0
15 wbs_dat_o[4] *622:20 0.000101159
16 wbs_dat_o[7] *622:28 0
17 *647:DIODE *622:10 2.18286e-05
18 *12001:A *622:28 0.000180114
19 *105:13 *622:10 0.000218445
20 *106:9 *622:16 0
21 *403:10 *622:28 0
22 *407:12 *622:22 1.41077e-05
23 *414:10 *622:10 5.50049e-05
24 *418:12 *622:22 0.00174516
25 *435:10 *622:10 0.000465924
26 *588:30 *622:16 0.000108152
27 *591:16 *622:16 0.000997867
28 *591:18 *622:20 0.000448956
29 *591:18 *622:22 0.00404114
30 *596:12 *622:20 0.00104659
31 *596:12 *622:22 7.71199e-05
32 *620:16 *622:10 0.000908802
33 *620:22 *622:20 0.00100596
*RES
1 *11847:X *622:10 49.0379
2 *622:10 *622:16 44.5829
3 *622:16 *622:20 20.6521
4 *622:20 *622:22 44.4529
5 *622:22 *622:28 32.61
6 *622:28 *12248:A 23
*END

*D_NET *623 0.0217394
*CONN
*I *12249:A I *D sky130_fd_sc_hd__buf_12
*I *11850:X O *D sky130_fd_sc_hd__o221a_2
*CAP
1 *12249:A 0
2 *11850:X 0.00123221
3 *623:20 0.00112483
4 *623:14 0.00556924
5 *623:12 0.00452759
6 *623:6 0.00131539
7 *623:6 *633:126 0.000575579
8 *623:6 *633:141 6.08617e-05
9 *623:14 *625:55 0.000991766
10 *623:14 *628:12 0.000523771
11 *623:14 *628:184 0.00157583
12 *623:14 *630:6 3.9152e-05
13 *11929:A *623:14 0.000140068
14 *37:17 *623:20 0
15 *109:14 *623:14 0.000334654
16 *114:19 *623:14 0.00294612
17 *189:34 *623:6 0.000112685
18 *352:8 *623:20 0
19 *398:10 *623:20 2.95916e-05
20 *452:20 *623:20 0
21 *571:12 *623:12 0.000107508
22 *593:10 *623:12 0
23 *599:12 *623:14 0.000532537
*RES
1 *11850:X *623:6 39.82
2 *623:6 *623:12 31.5536
3 *623:12 *623:14 94.9543
4 *623:14 *623:20 47.7521
5 *623:20 *12249:A 23
*END

*D_NET *624 0.0195022
*CONN
*I *12250:A I *D sky130_fd_sc_hd__buf_12
*I *11853:X O *D sky130_fd_sc_hd__o221a_2
*CAP
1 *12250:A 0
2 *11853:X 0.000490772
3 *624:22 0.0029928
4 *624:14 0.00603826
5 *624:12 0.00304546
6 *624:10 0.000490772
7 *624:10 *11853:A2 4.9346e-05
8 *624:10 *633:60 6.7063e-05
9 wbs_dat_o[9] *624:22 0.000228909
10 *676:DIODE *624:10 0
11 *12199:A *624:14 2.93431e-05
12 *31:9 *624:10 0
13 *105:13 *624:10 0
14 *363:28 *624:10 0.000311554
15 *546:10 *624:10 0
16 *575:8 *624:14 0.000943835
17 *578:8 *624:22 0.000153091
18 *582:14 *624:14 0.000603792
19 *583:6 *624:14 0.000122703
20 *583:14 *624:10 0
21 *584:10 *624:14 5.79559e-05
22 *593:12 *624:14 0.00103755
23 *593:12 *624:22 5.90377e-05
24 *593:22 *624:22 0.00277992
*RES
1 *11853:X *624:10 47.2593
2 *624:10 *624:12 15
3 *624:12 *624:14 59.2221
4 *624:14 *624:22 47.2493
5 *624:22 *12250:A 23
*END

*D_NET *625 0.0647824
*CONN
*I *11837:S I *D sky130_fd_sc_hd__mux2_2
*I *11824:S I *D sky130_fd_sc_hd__mux2_2
*I *11828:S I *D sky130_fd_sc_hd__mux2_2
*I *11840:S I *D sky130_fd_sc_hd__mux2_2
*I *11849:S I *D sky130_fd_sc_hd__mux2_2
*I *11834:S I *D sky130_fd_sc_hd__mux2_2
*I *11831:S I *D sky130_fd_sc_hd__mux2_2
*I *11846:S I *D sky130_fd_sc_hd__mux2_2
*I *11852:S I *D sky130_fd_sc_hd__mux2_1
*I *11843:S I *D sky130_fd_sc_hd__mux2_2
*I *11888:S I *D sky130_fd_sc_hd__mux2_1
*I *11885:S I *D sky130_fd_sc_hd__mux2_1
*I *11882:S I *D sky130_fd_sc_hd__mux2_1
*I *11879:S I *D sky130_fd_sc_hd__mux2_1
*I *11876:S I *D sky130_fd_sc_hd__mux2_1
*I *11925:X O *D sky130_fd_sc_hd__clkbuf_8
*CAP
1 *11837:S 0
2 *11824:S 0.000283583
3 *11828:S 0
4 *11840:S 0
5 *11849:S 0.000317076
6 *11834:S 8.74552e-05
7 *11831:S 0.000140715
8 *11846:S 0.000153175
9 *11852:S 0.000512728
10 *11843:S 0.000213399
11 *11888:S 0.000205124
12 *11885:S 0
13 *11882:S 0
14 *11879:S 0
15 *11876:S 0.000144284
16 *11925:X 9.52473e-05
17 *625:236 0.000359958
18 *625:228 0.000817844
19 *625:209 0.000898614
20 *625:180 0.000510551
21 *625:178 0.000394475
22 *625:174 0.000546406
23 *625:170 0.000740415
24 *625:153 0.000829093
25 *625:133 0.00029389
26 *625:131 0.000534112
27 *625:120 0.00101898
28 *625:109 0.000633853
29 *625:91 0.000927836
30 *625:78 0.000762098
31 *625:76 0.00209782
32 *625:65 0.00209556
33 *625:63 0.00294724
34 *625:61 0.003121
35 *625:55 0.00128413
36 *625:49 0.00188388
37 *625:43 0.00216182
38 *625:41 0.00135118
39 *625:26 0.000748073
40 *625:18 0.000748752
41 *625:8 0.000499041
42 *625:55 *11877:C1 0
43 *625:55 *632:101 0
44 *772:DIODE *625:76 3.18142e-05
45 *773:DIODE *625:63 9.75779e-05
46 *780:DIODE *625:76 5.56279e-05
47 *780:DIODE *625:91 4.7587e-05
48 *843:DIODE *11831:S 4.05745e-05
49 *843:DIODE *11846:S 6.09861e-05
50 *11824:A0 *11824:S 0.000380235
51 *11824:A0 *625:209 5.43895e-05
52 *11828:A1 *625:178 4.08664e-05
53 *11828:A1 *625:180 5.3304e-05
54 *11840:A1 *11849:S 5.50049e-05
55 *11840:A1 *625:180 0.000204332
56 *11879:A0 *625:63 0.000143543
57 *11882:A0 *625:76 0.000233367
58 *12022:A *625:18 6.17437e-06
59 *114:19 *11888:S 0.0011024
60 *114:19 *625:55 0.000999232
61 *115:10 *625:228 0.000620885
62 *115:10 *625:236 0.000630142
63 *118:8 *11846:S 6.70361e-05
64 *147:10 *625:120 0.000187707
65 *147:10 *625:131 0.000426959
66 *147:10 *625:153 0.000206211
67 *148:8 *625:26 6.70361e-05
68 *150:10 *625:63 9.84851e-05
69 *156:8 *11888:S 0.000833248
70 *158:10 *11888:S 0.000230492
71 *180:25 *625:26 0.000589658
72 *180:36 *625:26 0.000934196
73 *180:36 *625:174 0.000846788
74 *180:36 *625:209 0.000216051
75 *180:36 *625:228 0.000248699
76 *183:12 *625:18 0.000137238
77 *183:12 *625:109 0.000281533
78 *194:46 *625:49 0.00172026
79 *198:15 *625:49 0
80 *203:31 *625:91 8.0169e-05
81 *218:37 *625:209 0.000119084
82 *218:37 *625:228 9.72057e-06
83 *220:21 *625:18 0.000135007
84 *220:21 *625:26 0.000638725
85 *220:21 *625:109 0.00026308
86 *220:29 *11831:S 9.41704e-05
87 *220:45 *11834:S 1.24376e-05
88 *220:45 *625:170 0.000230139
89 *221:40 *625:109 3.70094e-05
90 *221:40 *625:170 0.000115947
91 *223:17 *625:26 0.000854387
92 *226:30 *11876:S 5.13142e-05
93 *226:30 *625:26 0.000259337
94 *226:39 *11876:S 3.02431e-05
95 *226:83 *625:26 0
96 *227:75 *625:63 0.000146197
97 *227:82 *625:63 8.88657e-05
98 *227:82 *625:76 3.18142e-05
99 *240:27 *625:170 0.000110773
100 *240:29 *625:170 0.000206959
101 *240:31 *625:170 5.94125e-05
102 *244:27 *625:236 0.000175903
103 *246:33 *625:170 6.17437e-06
104 *246:39 *11843:S 4.08664e-05
105 *246:39 *625:109 0.000257636
106 *246:41 *11843:S 8.17328e-05
107 *246:43 *11843:S 8.17328e-05
108 *246:45 *11843:S 0.000137651
109 *247:42 *11831:S 0
110 *248:65 *11849:S 0.000466906
111 *248:65 *625:178 0.000135037
112 *248:65 *625:180 0.000382849
113 *248:76 *625:228 6.17437e-06
114 *249:34 *11852:S 2.64616e-05
115 *249:36 *11852:S 4.67488e-05
116 *249:38 *11852:S 4.67488e-05
117 *249:40 *11852:S 9.61399e-05
118 *385:14 *625:63 0.00122857
119 *385:14 *625:65 1.12349e-05
120 *385:16 *625:63 1.10658e-05
121 *385:16 *625:76 0.00275253
122 *385:16 *625:91 0.00152964
123 *407:16 *625:43 0.00402131
124 *418:16 *625:170 0.000610161
125 *418:16 *625:236 0.000632364
126 *430:16 *625:26 0.00010439
127 *452:24 *625:43 0.000242562
128 *554:31 *625:43 0.000389926
129 *554:35 *625:43 0.00190467
130 *554:55 *625:18 9.65021e-05
131 *554:57 *625:109 2.24151e-05
132 *554:57 *625:228 0.000618663
133 *564:51 *625:174 0.000846788
134 *564:51 *625:209 0.000228436
135 *574:16 *625:26 1.5037e-05
136 *598:10 *625:43 0.000651746
137 *599:8 *625:61 0
138 *623:14 *625:55 0.000991766
*RES
1 *11925:X *625:8 39.0979
2 *625:8 *625:18 33.5007
3 *625:18 *625:26 38.7179
4 *625:26 *11876:S 25.7136
5 *625:26 *625:41 15
6 *625:41 *625:43 53.6707
7 *625:43 *625:49 49.2021
8 *625:49 *625:55 39.6293
9 *625:55 *625:61 33.3143
10 *625:61 *625:63 55.8871
11 *625:63 *625:65 0.849286
12 *625:65 *11879:S 23
13 *625:65 *625:76 49.2586
14 *625:76 *625:78 0.849286
15 *625:78 *11882:S 23
16 *625:78 *625:91 49.43
17 *625:91 *11885:S 23
18 *625:91 *11888:S 35.0557
19 *625:8 *625:109 22.0221
20 *625:109 *11843:S 26.9564
21 *625:109 *625:120 17.61
22 *625:120 *11852:S 45.2914
23 *625:120 *625:131 5.77929
24 *625:131 *625:133 15
25 *625:133 *11846:S 25.5271
26 *625:133 *11831:S 25.5479
27 *625:131 *625:153 17.9621
28 *625:153 *11834:S 24.0979
29 *625:153 *625:170 43.2986
30 *625:170 *625:174 26.0614
31 *625:174 *625:178 18.0036
32 *625:178 *625:180 4.43286
33 *625:180 *11849:S 28.3857
34 *625:180 *11840:S 23
35 *625:178 *11828:S 23
36 *625:174 *625:209 21.0279
37 *625:209 *11824:S 27.4329
38 *625:209 *625:228 42.6979
39 *625:228 *625:236 40.6471
40 *625:236 *11837:S 23
*END

*D_NET *626 0.0136136
*CONN
*I *11864:S I *D sky130_fd_sc_hd__mux2_1
*I *11870:S I *D sky130_fd_sc_hd__mux2_2
*I *11873:S I *D sky130_fd_sc_hd__mux2_1
*I *11861:S I *D sky130_fd_sc_hd__mux2_2
*I *11867:S I *D sky130_fd_sc_hd__mux2_2
*I *11858:S I *D sky130_fd_sc_hd__mux2_1
*I *11855:S I *D sky130_fd_sc_hd__mux2_1
*I *11926:X O *D sky130_fd_sc_hd__buf_2
*CAP
1 *11864:S 0.000344306
2 *11870:S 0.00011014
3 *11873:S 0
4 *11861:S 5.98189e-05
5 *11867:S 9.22308e-05
6 *11858:S 2.32701e-05
7 *11855:S 0.000298788
8 *11926:X 0.000281
9 *626:71 0.000636622
10 *626:64 0.000799121
11 *626:60 0.00107401
12 *626:49 0.000514519
13 *626:38 0.000664236
14 *626:10 0.00040757
15 *626:8 0.000576525
16 *756:DIODE *626:64 5.68958e-05
17 *11840:A0 *11858:S 5.3304e-05
18 *11849:A0 *11858:S 5.3304e-05
19 *11855:A1 *11855:S 1.12349e-05
20 *11864:A1 *11864:S 1.14154e-05
21 *12124:DI[3] *11864:S 5.02657e-05
22 *113:8 *626:8 1.05235e-05
23 *122:14 *11855:S 0.000244544
24 *122:14 *626:10 0.000272303
25 *122:14 *626:38 0.000398645
26 *122:14 *626:49 0.00106764
27 *133:40 *11855:S 0.00021677
28 *145:18 *626:64 9.41704e-05
29 *146:8 *626:64 0.000298503
30 *219:39 *11855:S 2.64616e-05
31 *219:41 *11855:S 6.47425e-05
32 *221:67 *11861:S 2.18409e-05
33 *221:69 *11861:S 2.93845e-05
34 *222:44 *11864:S 2.93845e-05
35 *222:46 *11864:S 2.64616e-05
36 *222:89 *11864:S 0.000108681
37 *223:69 *11867:S 0.000138607
38 *225:99 *626:64 0.000101436
39 *225:101 *626:64 4.67488e-05
40 *225:103 *626:64 4.67488e-05
41 *225:105 *626:64 4.67488e-05
42 *225:107 *626:64 9.01952e-05
43 *319:34 *11855:S 0.000191148
44 *319:34 *11864:S 0.000511442
45 *319:34 *626:10 0.000264391
46 *319:34 *626:38 0.000392593
47 *319:34 *626:49 0.00121795
48 *319:34 *626:60 0.000235989
49 *319:34 *626:71 0.000353982
50 *382:46 *626:49 0.000114474
51 *395:18 *11864:S 0.000144528
52 *400:28 *11864:S 6.01596e-05
53 *400:28 *11870:S 2.9437e-05
54 *400:28 *626:49 7.90568e-05
55 *400:28 *626:60 0.000121361
56 *400:28 *626:71 0.000163479
57 *402:18 *11864:S 9.5877e-05
58 *409:54 *11864:S 0.00013866
*RES
1 *11926:X *626:8 41.0036
2 *626:8 *626:10 3.66643
3 *626:10 *11855:S 45.2293
4 *626:10 *11858:S 38.6214
5 *626:8 *626:38 5.42714
6 *626:38 *11867:S 39.5743
7 *626:38 *626:49 16.3436
8 *626:49 *11861:S 39.0979
9 *626:49 *626:60 3.31429
10 *626:60 *626:64 28.0086
11 *626:64 *11873:S 23
12 *626:60 *626:71 5.075
13 *626:71 *11870:S 39.5743
14 *626:71 *11864:S 49.6621
*END

*D_NET *627 0.122484
*CONN
*I *11925:A I *D sky130_fd_sc_hd__clkbuf_8
*I *11915:S I *D sky130_fd_sc_hd__mux2_2
*I *12134:EN I *D CF_SRAM_1024x32
*I *11912:S I *D sky130_fd_sc_hd__mux2_2
*I *11909:S I *D sky130_fd_sc_hd__mux2_2
*I *11918:S I *D sky130_fd_sc_hd__mux2_2
*I *11906:S I *D sky130_fd_sc_hd__mux2_2
*I *11903:S I *D sky130_fd_sc_hd__mux2_2
*I *11900:S I *D sky130_fd_sc_hd__mux2_1
*I *11897:S I *D sky130_fd_sc_hd__mux2_1
*I *11894:S I *D sky130_fd_sc_hd__mux2_1
*I *11891:S I *D sky130_fd_sc_hd__mux2_1
*I *11926:A I *D sky130_fd_sc_hd__buf_2
*I *11927:X O *D sky130_fd_sc_hd__clkbuf_16
*CAP
1 *11925:A 4.70728e-05
2 *11915:S 0
3 *12134:EN 0.000329972
4 *11912:S 0
5 *11909:S 7.6942e-05
6 *11918:S 5.39135e-05
7 *11906:S 0
8 *11903:S 0
9 *11900:S 0
10 *11897:S 0
11 *11894:S 0
12 *11891:S 0
13 *11926:A 6.11385e-05
14 *11927:X 0
15 *627:150 0.00184364
16 *627:148 0.00219689
17 *627:144 0.00151475
18 *627:131 0.00115261
19 *627:120 0.00177035
20 *627:109 0.00332551
21 *627:98 0.00236524
22 *627:94 0.00195318
23 *627:92 0.00148722
24 *627:90 0.00271785
25 *627:83 0.00558629
26 *627:76 0.00308266
27 *627:72 0.00211852
28 *627:61 0.00226904
29 *627:54 0.000787981
30 *627:41 0.000941501
31 *627:35 0.00420368
32 *627:33 0.00368542
33 *627:31 0.00489159
34 *627:29 0.00489159
35 *627:27 0.000648866
36 *627:8 0.000854773
37 *627:4 0.00139543
38 *627:31 *11932:A 1.76075e-05
39 *627:31 *632:48 0.00291068
40 *627:31 *632:67 5.94125e-05
41 *627:31 *634:10 4.24694e-06
42 *688:DIODE *11926:A 5.3304e-05
43 *833:DIODE *627:76 0.000305425
44 *836:DIODE *627:120 5.3738e-05
45 *836:DIODE *627:131 4.26144e-05
46 *1118:DIODE *627:83 8.16913e-05
47 *1118:DIODE *627:90 4.95081e-05
48 *11897:A1 *627:61 9.61729e-05
49 *11906:A0 *627:98 0.000283338
50 *11906:A1 *627:98 2.98648e-05
51 *11909:A1 *11909:S 3.7122e-06
52 *11915:A0 *627:148 0.000236724
53 *11915:A1 *627:148 2.43944e-05
54 *12122:A *627:148 0
55 *12124:DI[13] *627:31 9.16592e-05
56 *12134:WLOFF *12134:EN 0.000223906
57 *12134:SM *12134:EN 0
58 *113:8 *11926:A 2.31591e-05
59 *114:19 *627:54 0.00114323
60 *114:33 *627:54 0.000137742
61 *114:33 *627:61 9.92279e-05
62 *114:39 *627:61 0.00122443
63 *114:39 *627:72 0.000886083
64 *146:10 *627:27 0.000703537
65 *157:51 *627:41 0.000119931
66 *160:6 *627:54 0.00103716
67 *162:8 *627:61 0.000489232
68 *163:46 *627:76 0.000127898
69 *164:8 *627:76 2.43944e-05
70 *165:97 *627:83 0.000202177
71 *166:8 *627:83 0.000522046
72 *168:8 *627:98 2.64616e-05
73 *170:8 *627:109 0
74 *170:8 *627:120 0
75 *172:10 *627:94 0.00369506
76 *174:8 *627:148 0.000355534
77 *174:20 *627:72 0.000438165
78 *176:18 *627:94 0.00724607
79 *198:15 *627:35 0.000142841
80 *202:19 *627:35 0.0109912
81 *204:31 *627:41 0
82 *205:31 *627:35 0.0162649
83 *224:19 *627:31 2.87359e-05
84 *230:23 *627:35 0.00024288
85 *232:25 *627:41 5.51255e-05
86 *232:60 *627:41 0
87 *232:64 *627:41 0
88 *235:31 *627:76 5.67058e-05
89 *235:31 *627:83 0.000172197
90 *237:11 *627:150 0.0047435
91 *238:11 *627:131 0.000163624
92 *238:11 *627:144 0.000304019
93 *353:10 *627:150 0.000337104
94 *362:10 *627:27 4.30119e-05
95 *362:10 *627:31 0.00032208
96 *365:20 *627:31 0.000363843
97 *365:24 *627:31 0.000171542
98 *369:28 *627:8 0.00203914
99 *369:50 *627:31 2.05503e-05
100 *371:52 *627:31 2.05503e-05
101 *382:88 *627:150 0.00159824
102 *387:28 *627:8 0.00203377
103 *441:14 *627:35 0.00201978
104 *467:8 *627:144 0.000194523
105 *474:14 *627:41 0
106 *541:16 *627:94 0
107 *560:18 *627:27 0.000613756
108 *570:12 *627:90 0.000217295
*RES
1 *11927:X *627:4 23
2 *627:4 *627:8 42.9643
3 *627:8 *11926:A 39.0979
4 *627:4 *627:27 43.7543
5 *627:27 *627:29 15
6 *627:29 *627:31 80.4336
7 *627:31 *627:33 15
8 *627:33 *627:35 178.329
9 *627:35 *627:41 39.3007
10 *627:41 *11891:S 23
11 *627:41 *627:54 15.5771
12 *627:54 *11894:S 23
13 *627:54 *627:61 14.4379
14 *627:61 *11897:S 23
15 *627:61 *627:72 49.51
16 *627:72 *627:76 19.9093
17 *627:76 *11900:S 23
18 *627:76 *627:83 54.9343
19 *627:83 *11903:S 23
20 *627:83 *627:90 48.2643
21 *627:90 *627:92 15
22 *627:92 *627:94 92.7586
23 *627:94 *627:98 22.7679
24 *627:98 *11906:S 23
25 *627:98 *627:109 42.1979
26 *627:109 *11918:S 38.6214
27 *627:109 *627:120 20.2171
28 *627:120 *11909:S 39.0979
29 *627:120 *627:131 5.77929
30 *627:131 *11912:S 38
31 *627:131 *627:144 28.4643
32 *627:144 *627:148 26.5793
33 *627:148 *627:150 70.2214
34 *627:150 *12134:EN 21.2402
35 *627:144 *11915:S 23
36 *627:27 *11925:A 23.6214
*END

*D_NET *628 0.0322008
*CONN
*I *11865:C1 I *D sky130_fd_sc_hd__o221a_2
*I *11868:C1 I *D sky130_fd_sc_hd__o221a_2
*I *11856:C1 I *D sky130_fd_sc_hd__o221a_2
*I *11838:C1 I *D sky130_fd_sc_hd__o221a_1
*I *11841:C1 I *D sky130_fd_sc_hd__o221a_1
*I *11862:C1 I *D sky130_fd_sc_hd__o221a_2
*I *11853:C1 I *D sky130_fd_sc_hd__o221a_2
*I *11832:C1 I *D sky130_fd_sc_hd__o221a_1
*I *11847:C1 I *D sky130_fd_sc_hd__o221a_2
*I *11835:C1 I *D sky130_fd_sc_hd__o221a_1
*I *11844:C1 I *D sky130_fd_sc_hd__o221a_2
*I *11850:C1 I *D sky130_fd_sc_hd__o221a_2
*I *11826:C1 I *D sky130_fd_sc_hd__o221a_1
*I *11829:C1 I *D sky130_fd_sc_hd__o221a_1
*I *11859:C1 I *D sky130_fd_sc_hd__o221a_2
*I *11928:X O *D sky130_fd_sc_hd__clkbuf_4
*CAP
1 *11865:C1 0
2 *11868:C1 0
3 *11856:C1 5.58651e-05
4 *11838:C1 0
5 *11841:C1 0
6 *11862:C1 0.000220883
7 *11853:C1 0.000202393
8 *11832:C1 0
9 *11847:C1 0
10 *11835:C1 1.91137e-05
11 *11844:C1 0
12 *11850:C1 2.2609e-05
13 *11826:C1 0.000239874
14 *11829:C1 0
15 *11859:C1 0
16 *11928:X 0
17 *628:194 0.000655126
18 *628:188 0.0013948
19 *628:184 0.001925
20 *628:163 0.000322105
21 *628:120 0.000126772
22 *628:86 0.000542149
23 *628:75 0.000546662
24 *628:69 0.000572139
25 *628:65 0.00039461
26 *628:63 0.000430351
27 *628:57 0.000247663
28 *628:53 0.000506813
29 *628:51 0.000568872
30 *628:47 0.000639406
31 *628:39 0.000978093
32 *628:37 0.000513215
33 *628:23 0.000527849
34 *628:12 0.000762495
35 *628:4 0.00180274
36 *11826:C1 *11826:A2 0.00078322
37 *11826:C1 *11826:B1 0.000868519
38 *11826:C1 *11850:B1 8.53029e-05
39 *11826:C1 *633:119 0.000179473
40 *11835:C1 *631:36 5.12055e-06
41 *11850:C1 *11850:B1 0.00014196
42 *11850:C1 *633:119 0.000129522
43 *11856:C1 *633:47 5.3304e-05
44 *11862:C1 *631:117 0.000414226
45 *628:12 *631:191 1.05441e-05
46 *628:12 *632:28 0
47 *628:12 *634:233 0.000253909
48 *628:23 *631:178 5.45381e-05
49 *628:23 *633:41 0.000411218
50 *628:23 *634:233 0.000103637
51 *628:37 *631:165 7.79579e-07
52 *628:37 *631:178 1.19591e-05
53 *628:37 *633:41 0.000148592
54 *628:37 *633:47 0.000222671
55 *628:47 *11841:B1 5.20529e-05
56 *628:51 *11841:B1 5.56356e-05
57 *628:51 *631:109 5.3304e-05
58 *628:53 *11832:B1 5.865e-05
59 *628:53 *631:109 0.000103238
60 *628:53 *631:117 3.43144e-05
61 *628:57 *11832:B1 9.85586e-06
62 *628:63 *631:36 1.18862e-05
63 *628:65 *631:36 2.98648e-05
64 *628:69 *11844:B1 6.45184e-06
65 *628:69 *631:36 0.00013044
66 *628:69 *631:44 4.24052e-05
67 *628:75 *631:44 0.000530499
68 *628:86 *631:55 0.000186782
69 *628:120 *631:30 5.3304e-05
70 *628:163 *631:150 7.81176e-05
71 *628:188 *629:8 0.00201608
72 *628:194 *629:8 1.37983e-05
73 *647:DIODE *628:37 5.43589e-05
74 *677:DIODE *628:53 9.85586e-06
75 *11815:A *628:63 3.75135e-05
76 *11841:A1 *628:47 0.00010328
77 *11841:A1 *628:53 4.01388e-05
78 *11844:A1 *628:69 5.50106e-05
79 *11853:B2 *11853:C1 0.000136743
80 *11865:A1 *628:194 0.000298503
81 *11865:B2 *628:194 0.000294061
82 *105:13 *628:163 0
83 *109:8 *11853:C1 4.94669e-05
84 *118:24 *11862:C1 0.000103339
85 *118:24 *628:53 7.35193e-06
86 *120:28 *628:120 7.25516e-05
87 *122:36 *628:163 7.42074e-05
88 *132:18 *11853:C1 7.57281e-06
89 *132:18 *628:53 0
90 *187:30 *628:37 9.28078e-06
91 *196:33 *628:188 2.91692e-05
92 *196:33 *628:194 0.00187483
93 *196:37 *628:188 0.000988611
94 *205:19 *628:194 0.00193064
95 *211:27 *628:120 0.000156487
96 *318:20 *628:63 0.000281919
97 *318:20 *628:65 3.58358e-05
98 *435:10 *628:120 5.3304e-05
99 *496:14 *628:75 0
100 *496:14 *628:86 0
101 *571:12 *628:163 0
102 *575:36 *628:194 2.8348e-05
103 *591:12 *628:23 5.64206e-05
104 *591:12 *628:37 3.22879e-05
105 *596:16 *628:188 0.000445368
106 *617:10 *11853:C1 0.000137651
107 *617:10 *628:63 0.000218134
108 *620:10 *628:37 0.000135037
109 *620:10 *628:39 4.38084e-05
110 *620:10 *628:47 0.000211426
111 *621:8 *11853:C1 4.34973e-05
112 *621:8 *628:63 4.02485e-05
113 *621:8 *628:65 0.000221084
114 *621:8 *628:69 0.000221084
115 *623:14 *628:12 0.000523771
116 *623:14 *628:184 0.00157583
*RES
1 *11928:X *628:4 23
2 *628:4 *628:12 39.5286
3 *628:12 *11859:C1 23
4 *628:12 *628:23 5.42714
5 *628:23 *628:37 37.3743
6 *628:37 *628:39 1.57429
7 *628:39 *628:47 11.2893
8 *628:47 *628:51 16.0979
9 *628:51 *628:53 5.60321
10 *628:53 *628:57 15.3211
11 *628:57 *628:63 7.20857
12 *628:63 *628:65 2.52714
13 *628:65 *628:69 6.35929
14 *628:69 *628:75 21.8771
15 *628:75 *11829:C1 38
16 *628:75 *628:86 20.7793
17 *628:86 *11826:C1 33.6264
18 *628:86 *11850:C1 24.5743
19 *628:69 *11844:C1 23
20 *628:65 *11835:C1 23.4971
21 *628:63 *628:120 32.8793
22 *628:120 *11847:C1 23
23 *628:57 *11832:C1 23
24 *628:53 *11853:C1 41.9461
25 *628:51 *11862:C1 43.7793
26 *628:47 *11841:C1 23
27 *628:39 *628:163 35.7793
28 *628:163 *11838:C1 23
29 *628:37 *11856:C1 24.0979
30 *628:23 *11868:C1 23
31 *628:4 *628:184 32.7729
32 *628:184 *628:188 27.7054
33 *628:188 *628:194 44.5075
34 *628:194 *11865:C1 23
*END

*D_NET *629 0.0621698
*CONN
*I *11972:A I *D sky130_fd_sc_hd__buf_12
*I *12215:X O *D sky130_fd_sc_hd__buf_12
*CAP
1 *11972:A 0.000118398
2 *12215:X 0
3 *629:8 0.00670143
4 *629:6 0.00658303
5 *12124:DI[15] *629:8 0.000235879
6 *125:10 *629:8 0.0114905
7 *125:14 *629:8 0.000328505
8 *136:14 *629:8 0.000848915
9 *138:12 *629:8 0.00252938
10 *143:28 *629:8 0.000548434
11 *193:26 *629:8 0.00326884
12 *201:7 *11972:A 0.000398825
13 *205:11 *629:8 0.00784498
14 *205:19 *629:8 0.0140182
15 *258:23 *11972:A 0.000213782
16 *575:38 *629:8 2.11396e-05
17 *582:18 *629:8 0.00474006
18 *596:16 *629:8 0.000249604
19 *628:188 *629:8 0.00201608
20 *628:194 *629:8 1.37983e-05
*RES
1 *12215:X *629:6 38
2 *629:6 *629:8 329.046
3 *629:8 *11972:A 42.4329
*END

*D_NET *630 0.061495
*CONN
*I *11877:C1 I *D sky130_fd_sc_hd__o221a_2
*I *11883:C1 I *D sky130_fd_sc_hd__o221a_2
*I *11886:C1 I *D sky130_fd_sc_hd__o221a_2
*I *11892:C1 I *D sky130_fd_sc_hd__o221a_2
*I *11895:C1 I *D sky130_fd_sc_hd__o221a_2
*I *11898:C1 I *D sky130_fd_sc_hd__o221a_2
*I *11901:C1 I *D sky130_fd_sc_hd__o221a_2
*I *11910:C1 I *D sky130_fd_sc_hd__o221a_2
*I *11907:C1 I *D sky130_fd_sc_hd__o221a_2
*I *11904:C1 I *D sky130_fd_sc_hd__o221a_2
*I *11889:C1 I *D sky130_fd_sc_hd__o221a_2
*I *11880:C1 I *D sky130_fd_sc_hd__o221a_2
*I *11874:C1 I *D sky130_fd_sc_hd__o221a_2
*I *11928:A I *D sky130_fd_sc_hd__clkbuf_4
*I *11871:C1 I *D sky130_fd_sc_hd__o221a_2
*I *11929:X O *D sky130_fd_sc_hd__buf_4
*CAP
1 *11877:C1 0.000245119
2 *11883:C1 3.58966e-05
3 *11886:C1 0
4 *11892:C1 4.78039e-05
5 *11895:C1 0
6 *11898:C1 1.96041e-05
7 *11901:C1 5.18138e-05
8 *11910:C1 0.000328489
9 *11907:C1 0
10 *11904:C1 0.00012172
11 *11889:C1 2.34823e-05
12 *11880:C1 0
13 *11874:C1 6.41546e-05
14 *11928:A 0
15 *11871:C1 0
16 *11929:X 6.95249e-05
17 *630:152 0.00152314
18 *630:129 0.00324352
19 *630:121 0.00281235
20 *630:113 0.00133376
21 *630:105 0.000985623
22 *630:97 0.000792279
23 *630:88 0.000925859
24 *630:80 0.00153713
25 *630:64 0.00203003
26 *630:57 0.000281275
27 *630:49 0.00260582
28 *630:43 0.00289805
29 *630:30 0.00156707
30 *630:28 0.00150291
31 *630:26 0.00248059
32 *630:19 0.00104426
33 *630:12 0.000157127
34 *630:6 0.000238474
35 *11877:C1 *11877:B1 4.08664e-05
36 *11877:C1 *632:95 9.77405e-05
37 *11877:C1 *632:101 3.4299e-05
38 *11877:C1 *634:28 0.000180103
39 *11883:C1 *634:42 0.000111301
40 *11898:C1 *632:193 2.60683e-05
41 *11901:C1 *11901:B1 5.47983e-06
42 *11901:C1 *632:206 5.79559e-05
43 *11901:C1 *634:135 1.59071e-05
44 *11904:C1 *632:221 0.000175903
45 *11904:C1 *634:148 9.02364e-05
46 *11910:C1 *632:248 5.66585e-05
47 *630:12 *632:28 3.23248e-05
48 *630:30 *634:10 7.98535e-06
49 *630:30 *634:16 0.00328095
50 *630:30 *634:22 6.38342e-05
51 *630:49 *634:28 0.000229717
52 *630:57 *632:107 5.50106e-05
53 *630:64 *634:42 0.000130369
54 *630:80 *632:136 0.000486901
55 *630:80 *634:42 0.000112171
56 *630:80 *634:56 0
57 *630:88 *634:56 0.000135162
58 *630:97 *11889:B1 5.28598e-05
59 *630:105 *632:170 0.000180268
60 *630:105 *634:106 0.000901384
61 *630:113 *632:193 5.6241e-05
62 *630:121 *11898:B1 3.13509e-06
63 *630:121 *632:193 1.40314e-05
64 *630:121 *632:206 2.9055e-05
65 *630:121 *634:131 0.00152126
66 *630:121 *634:135 5.56356e-05
67 *630:129 *634:131 2.21614e-05
68 *630:152 *632:248 0.000137651
69 *630:152 *634:167 0.00114683
70 *653:DIODE *630:57 0.000143681
71 *662:DIODE *630:129 4.36401e-06
72 *665:DIODE *630:152 4.30894e-05
73 *11874:A1 *11874:C1 0.000135037
74 *11874:B2 *11874:C1 9.41704e-05
75 *11880:A1 *630:57 0
76 *11892:A1 *11892:C1 5.56356e-05
77 *11892:A1 *630:105 0.000357859
78 *11910:A1 *11910:C1 6.88608e-05
79 *11929:A *630:6 5.52998e-05
80 *11929:A *630:19 5.53064e-05
81 *11929:A *630:26 0.000184027
82 *8:9 *630:80 0.000233367
83 *109:14 *630:6 0.000182963
84 *109:14 *630:19 4.39281e-05
85 *109:14 *630:26 0.00264812
86 *114:19 *630:26 0.00303323
87 *114:19 *630:43 0.00264309
88 *136:26 *630:12 0.00011901
89 *146:10 *630:30 3.64246e-05
90 *148:14 *11877:C1 0.000138607
91 *149:57 *630:88 6.7177e-06
92 *149:59 *630:88 1.69668e-05
93 *154:16 *630:113 7.00895e-05
94 *154:16 *630:121 0.000517108
95 *154:20 *630:113 0.000599467
96 *156:26 *630:113 0.00117162
97 *166:14 *11910:C1 0.00113131
98 *166:14 *630:152 6.53382e-05
99 *178:18 *630:30 1.12863e-05
100 *180:23 *11874:C1 1.21972e-05
101 *188:30 *630:12 7.66156e-05
102 *198:19 *630:88 7.8128e-05
103 *199:46 *630:88 1.24376e-05
104 *199:46 *630:97 0.000247812
105 *201:19 *630:113 0.000132912
106 *206:47 *11910:C1 5.50106e-05
107 *206:54 *11910:C1 5.67058e-05
108 *352:8 *630:57 0
109 *362:32 *630:30 0.000411846
110 *429:14 *630:49 0.00169695
111 *429:14 *630:64 0.00061587
112 *463:8 *11904:C1 4.9808e-05
113 *463:14 *630:129 1.0334e-05
114 *463:14 *630:152 7.95489e-05
115 *512:10 *630:64 0.000100061
116 *525:14 *630:64 0.00148169
117 *525:14 *630:80 0
118 *594:10 *630:30 0.00147268
119 *594:20 *630:57 5.50106e-05
120 *601:10 *11892:C1 9.8203e-05
121 *601:10 *630:88 0.000611084
122 *601:10 *630:97 0.000265877
123 *601:10 *630:105 0.000971828
124 *601:16 *630:113 5.80693e-05
125 *604:8 *630:97 9.84794e-05
126 *610:12 *11910:C1 3.40295e-05
127 *610:20 *11910:C1 0.000292316
128 *623:14 *630:6 3.9152e-05
129 *625:55 *11877:C1 0
*RES
1 *11929:X *630:6 25.0507
2 *630:6 *630:12 33.6664
3 *630:12 *11871:C1 23
4 *630:6 *630:19 0.621429
5 *630:19 *11928:A 23
6 *630:19 *630:26 35.8771
7 *630:26 *630:28 15
8 *630:28 *630:30 48.7407
9 *630:30 *11874:C1 39.5743
10 *630:26 *630:43 44.2071
11 *630:43 *630:49 39.505
12 *630:49 *630:57 34.2879
13 *630:57 *11880:C1 23
14 *630:49 *630:64 25.8721
15 *630:64 *630:80 47.98
16 *630:80 *630:88 44.3136
17 *630:88 *11889:C1 23.4971
18 *630:88 *630:97 6.33857
19 *630:97 *630:105 16.4057
20 *630:105 *630:113 47.0479
21 *630:113 *630:121 20.5693
22 *630:121 *630:129 26.8117
23 *630:129 *11904:C1 48.7239
24 *630:129 *630:152 28.3947
25 *630:152 *11907:C1 23
26 *630:152 *11910:C1 36.5264
27 *630:121 *11901:C1 24.4707
28 *630:113 *11898:C1 23.5593
29 *630:105 *11895:C1 23
30 *630:97 *11892:C1 24.595
31 *630:80 *11886:C1 23
32 *630:64 *11883:C1 24.595
33 *630:43 *11877:C1 43.2407
*END

*D_NET *631 0.0352017
*CONN
*I *11865:B1 I *D sky130_fd_sc_hd__o221a_2
*I *11859:B1 I *D sky130_fd_sc_hd__o221a_2
*I *11868:B1 I *D sky130_fd_sc_hd__o221a_2
*I *11856:B1 I *D sky130_fd_sc_hd__o221a_2
*I *11838:B1 I *D sky130_fd_sc_hd__o221a_1
*I *11853:B1 I *D sky130_fd_sc_hd__o221a_2
*I *11841:B1 I *D sky130_fd_sc_hd__o221a_1
*I *11862:B1 I *D sky130_fd_sc_hd__o221a_2
*I *11832:B1 I *D sky130_fd_sc_hd__o221a_1
*I *11847:B1 I *D sky130_fd_sc_hd__o221a_2
*I *11835:B1 I *D sky130_fd_sc_hd__o221a_1
*I *11844:B1 I *D sky130_fd_sc_hd__o221a_2
*I *11850:B1 I *D sky130_fd_sc_hd__o221a_2
*I *11826:B1 I *D sky130_fd_sc_hd__o221a_1
*I *11829:B1 I *D sky130_fd_sc_hd__o221a_1
*I *11930:X O *D sky130_fd_sc_hd__buf_4
*CAP
1 *11865:B1 5.62361e-06
2 *11859:B1 0
3 *11868:B1 0
4 *11856:B1 0
5 *11838:B1 0
6 *11853:B1 0
7 *11841:B1 6.28645e-05
8 *11862:B1 0
9 *11832:B1 9.67315e-05
10 *11847:B1 2.27485e-05
11 *11835:B1 0
12 *11844:B1 2.13452e-05
13 *11850:B1 0.000195389
14 *11826:B1 0.000548316
15 *11829:B1 0
16 *11930:X 0
17 *631:226 0.00103517
18 *631:212 0.00223282
19 *631:200 0.00192144
20 *631:191 0.000176388
21 *631:178 0.000213362
22 *631:165 0.000363764
23 *631:150 8.0529e-05
24 *631:139 8.69896e-05
25 *631:117 0.000293444
26 *631:109 0.000608324
27 *631:94 0.000348746
28 *631:55 0.000952343
29 *631:44 0.000582415
30 *631:36 0.000778645
31 *631:30 0.000568348
32 *631:22 0.000367992
33 *631:20 0.000384952
34 *631:18 0.000586055
35 *631:16 0.000637197
36 *631:12 0.000736571
37 *631:10 0.000466449
38 *631:8 0.000469364
39 *631:4 0.000848726
40 *11826:B1 *11826:A2 4.95081e-05
41 *11850:B1 *633:119 3.79384e-05
42 *631:117 *633:126 5.51527e-05
43 *631:165 *633:41 1.59094e-05
44 *631:165 *633:47 3.43512e-05
45 *631:191 *632:28 0
46 *631:191 *633:41 2.91154e-05
47 *631:191 *634:233 9.2467e-06
48 *631:200 *632:28 9.58714e-05
49 *631:226 *633:20 0.000578523
50 *647:DIODE *631:165 0.000156196
51 *647:DIODE *631:178 0
52 *656:DIODE *631:44 0
53 *11826:C1 *11826:B1 0.000868519
54 *11826:C1 *11850:B1 8.53029e-05
55 *11835:C1 *631:36 5.12055e-06
56 *11841:A1 *11841:B1 0.000110507
57 *11844:A1 *631:36 2.93845e-05
58 *11850:C1 *11850:B1 0.00014196
59 *11853:B2 *631:139 1.37039e-05
60 *11862:C1 *631:117 0.000414226
61 *11865:A1 *11865:B1 1.28818e-05
62 *11865:B2 *11865:B1 1.28818e-05
63 *12079:A *631:44 1.12863e-05
64 *28:13 *631:30 0.000158722
65 *61:15 *631:22 0.000174519
66 *61:15 *631:30 0.000254424
67 *105:13 *631:18 0.000313255
68 *106:9 *631:200 0.000304686
69 *116:28 *631:55 0.000445327
70 *118:24 *11832:B1 0.000157888
71 *118:24 *631:109 0.000227245
72 *120:28 *631:30 0.000156482
73 *122:36 *631:150 0.000163352
74 *132:18 *631:117 0.00010364
75 *138:28 *631:117 4.2812e-06
76 *142:30 *631:178 1.40087e-05
77 *184:8 *631:226 0.00141625
78 *187:30 *631:165 4.89731e-05
79 *196:37 *631:212 0.000863572
80 *205:25 *631:212 5.85822e-06
81 *205:25 *631:226 7.08727e-05
82 *318:20 *631:36 0.000139357
83 *374:16 *631:226 0.000120999
84 *435:10 *11847:B1 0
85 *435:10 *631:18 0.000305431
86 *435:10 *631:20 0.000483113
87 *435:10 *631:22 0.000171931
88 *435:10 *631:30 0.000106199
89 *436:12 *631:139 0.000157384
90 *496:36 *631:212 1.13013e-05
91 *519:10 *631:165 1.12863e-05
92 *543:10 *631:10 2.93747e-05
93 *548:8 *631:18 0.00037734
94 *548:8 *631:20 0.000137651
95 *557:30 *631:212 6.74969e-06
96 *571:18 *631:212 0.00033375
97 *575:36 *631:212 0.00071841
98 *576:16 *631:226 0.00147176
99 *584:10 *631:165 7.60824e-05
100 *584:16 *631:165 9.41618e-05
101 *587:30 *631:200 0.000492936
102 *588:42 *631:200 0.000207618
103 *591:12 *631:178 2.91154e-05
104 *591:12 *631:191 7.65067e-05
105 *591:16 *631:191 6.18676e-05
106 *593:10 *631:139 0.000159616
107 *595:10 *631:178 0
108 *595:10 *631:191 7.56417e-05
109 *596:16 *631:212 0.00147055
110 *596:24 *631:226 0.0004116
111 *597:14 *631:200 0.000684348
112 *602:8 *631:44 0
113 *618:14 *631:212 0.000204738
114 *620:16 *631:8 1.41129e-05
115 *620:16 *631:200 0.000730925
116 *621:8 *631:139 6.39489e-06
117 *622:10 *631:8 0.000137651
118 *622:10 *631:10 0.000398503
119 *622:10 *631:12 0.000228164
120 *622:10 *631:16 0.000168252
121 *622:10 *631:18 3.22245e-05
122 *628:12 *631:191 1.05441e-05
123 *628:23 *631:178 5.45381e-05
124 *628:37 *631:165 7.79579e-07
125 *628:37 *631:178 1.19591e-05
126 *628:47 *11841:B1 5.20529e-05
127 *628:51 *11841:B1 5.56356e-05
128 *628:51 *631:109 5.3304e-05
129 *628:53 *11832:B1 5.865e-05
130 *628:53 *631:109 0.000103238
131 *628:53 *631:117 3.43144e-05
132 *628:57 *11832:B1 9.85586e-06
133 *628:63 *631:36 1.18862e-05
134 *628:65 *631:36 2.98648e-05
135 *628:69 *11844:B1 6.45184e-06
136 *628:69 *631:36 0.00013044
137 *628:69 *631:44 4.24052e-05
138 *628:75 *631:44 0.000530499
139 *628:86 *631:55 0.000186782
140 *628:120 *631:30 5.3304e-05
141 *628:163 *631:150 7.81176e-05
*RES
1 *11930:X *631:4 23
2 *631:4 *631:8 2.54786
3 *631:8 *631:10 4.43286
4 *631:10 *631:12 2.52714
5 *631:12 *631:16 4.45357
6 *631:16 *631:18 7.76786
7 *631:18 *631:20 5.38571
8 *631:20 *631:22 3.57839
9 *631:22 *631:30 35.163
10 *631:30 *631:36 7.30696
11 *631:36 *631:44 24.1816
12 *631:44 *11829:B1 38
13 *631:44 *631:55 21.1314
14 *631:55 *11826:B1 34.1236
15 *631:55 *11850:B1 26.8632
16 *631:36 *11844:B1 23.4971
17 *631:30 *11835:B1 23
18 *631:22 *11847:B1 23.4816
19 *631:20 *631:94 15
20 *631:94 *11832:B1 40.2579
21 *631:94 *631:109 19.8886
22 *631:109 *631:117 36.7477
23 *631:117 *11862:B1 23
24 *631:109 *11841:B1 25.0714
25 *631:18 *631:139 32.408
26 *631:139 *11853:B1 23
27 *631:16 *631:150 32.2579
28 *631:150 *11838:B1 23
29 *631:12 *631:165 36.5095
30 *631:165 *11856:B1 23
31 *631:10 *631:178 33.9305
32 *631:178 *11868:B1 23
33 *631:8 *631:191 33.9305
34 *631:191 *11859:B1 23
35 *631:4 *631:200 37.5371
36 *631:200 *631:212 49.9036
37 *631:212 *631:226 46.0921
38 *631:226 *11865:B1 38.1502
*END

*D_NET *632 0.0915147
*CONN
*I *11877:B1 I *D sky130_fd_sc_hd__o221a_2
*I *11883:B1 I *D sky130_fd_sc_hd__o221a_2
*I *11889:B1 I *D sky130_fd_sc_hd__o221a_2
*I *11907:B1 I *D sky130_fd_sc_hd__o221a_2
*I *11904:B1 I *D sky130_fd_sc_hd__o221a_2
*I *11901:B1 I *D sky130_fd_sc_hd__o221a_2
*I *11898:B1 I *D sky130_fd_sc_hd__o221a_2
*I *11895:B1 I *D sky130_fd_sc_hd__o221a_2
*I *11892:B1 I *D sky130_fd_sc_hd__o221a_2
*I *11886:B1 I *D sky130_fd_sc_hd__o221a_2
*I *11880:B1 I *D sky130_fd_sc_hd__o221a_2
*I *12124:EN I *D CF_SRAM_1024x32
*I *11874:B1 I *D sky130_fd_sc_hd__o221a_2
*I *11871:B1 I *D sky130_fd_sc_hd__o221a_2
*I *11930:A I *D sky130_fd_sc_hd__buf_4
*I *11931:X O *D sky130_fd_sc_hd__buf_8
*CAP
1 *11877:B1 0.000113026
2 *11883:B1 6.69944e-06
3 *11889:B1 3.25417e-05
4 *11907:B1 0
5 *11904:B1 0
6 *11901:B1 3.42556e-05
7 *11898:B1 6.20471e-05
8 *11895:B1 2.56839e-05
9 *11892:B1 2.6499e-05
10 *11886:B1 0
11 *11880:B1 2.18356e-05
12 *12124:EN 0.000165848
13 *11874:B1 2.30762e-05
14 *11871:B1 3.16875e-05
15 *11930:A 0
16 *11931:X 7.70726e-05
17 *632:248 0.000482132
18 *632:236 0.000878751
19 *632:221 0.00147257
20 *632:206 0.00230706
21 *632:193 0.00253135
22 *632:170 0.00242651
23 *632:155 0.00185382
24 *632:151 0.00165196
25 *632:136 0.00197219
26 *632:126 0.00230919
27 *632:107 0.00173419
28 *632:101 0.000784494
29 *632:95 0.00193546
30 *632:83 0.00575762
31 *632:73 0.00729575
32 *632:67 0.00286051
33 *632:48 0.00258324
34 *632:46 0.00140364
35 *632:44 0.00350028
36 *632:28 0.000671313
37 *632:16 0.000846052
38 *632:10 0.00214381
39 *632:8 7.70726e-05
40 *11871:B1 *634:233 4.71881e-05
41 *11883:B1 *634:42 1.28818e-05
42 *11892:B1 *634:106 2.12347e-06
43 *11895:B1 *634:106 1.4006e-05
44 *11898:B1 *634:131 2.64221e-06
45 *11901:B1 *634:135 1.58137e-05
46 *632:16 *634:233 3.05702e-05
47 *632:28 *634:233 0.000131413
48 *632:44 *634:22 3.56156e-05
49 *632:44 *634:219 0.00168545
50 *632:44 *634:233 7.53384e-06
51 *632:48 *634:16 0.000560107
52 *632:95 *634:22 0.000174788
53 *632:101 *634:28 0.000355603
54 *632:136 *11886:A2 9.72057e-06
55 *632:136 *634:56 1.69853e-05
56 *632:151 *11886:A2 5.90675e-06
57 *632:151 *634:56 1.03431e-05
58 *632:170 *634:106 0.000180268
59 *632:206 *634:131 0.00066584
60 *632:206 *634:135 7.53303e-06
61 *632:221 *634:135 1.99419e-05
62 *632:221 *634:148 0.000390033
63 *632:236 *634:148 2.69066e-07
64 *648:DIODE *632:28 0.000164978
65 *651:DIODE *632:101 0.000185212
66 *655:DIODE *632:126 1.34354e-05
67 *655:DIODE *632:136 3.98859e-05
68 *658:DIODE *632:151 8.62783e-05
69 *664:DIODE *632:236 2.31209e-05
70 *11874:A1 *11874:B1 5.28598e-05
71 *11874:A1 *632:67 0.000342939
72 *11874:B2 *11874:B1 5.28598e-05
73 *11877:A1 *11877:B1 6.94015e-05
74 *11877:C1 *11877:B1 4.08664e-05
75 *11877:C1 *632:95 9.77405e-05
76 *11877:C1 *632:101 3.4299e-05
77 *11883:A1 *11883:B1 6.39489e-06
78 *11892:A1 *11892:B1 1.4006e-05
79 *11898:C1 *632:193 2.60683e-05
80 *11901:A1 *632:221 5.50106e-05
81 *11901:C1 *11901:B1 5.47983e-06
82 *11901:C1 *632:206 5.79559e-05
83 *11904:B2 *632:221 1.4638e-05
84 *11904:C1 *632:221 0.000175903
85 *11910:C1 *632:248 5.66585e-05
86 *12124:WLOFF *12124:EN 4.81671e-05
87 *12124:SM *12124:EN 0
88 *8:9 *632:136 0.000151265
89 *79:8 *632:221 0.000119208
90 *133:16 *632:83 0.000670372
91 *136:26 *632:28 0
92 *139:36 *632:83 0.000317214
93 *144:28 *632:8 0.000140949
94 *148:14 *11877:B1 5.89771e-05
95 *148:14 *632:95 0.000976486
96 *150:18 *632:126 3.43144e-05
97 *150:26 *11880:B1 0
98 *150:26 *632:107 0
99 *150:26 *632:126 0.00231924
100 *152:32 *632:126 2.42715e-05
101 *154:20 *632:151 0.00105586
102 *156:26 *632:193 0.000707122
103 *157:61 *632:248 0.000160588
104 *158:28 *11895:B1 3.84478e-06
105 *158:36 *11892:B1 9.28078e-06
106 *158:36 *632:170 0.000137859
107 *164:26 *632:236 0.000352415
108 *166:14 *632:248 0.000341517
109 *180:14 *632:67 5.85822e-06
110 *188:22 *632:83 0.00118871
111 *188:30 *632:28 0.000303229
112 *191:21 *632:73 0
113 *191:27 *632:28 0
114 *192:31 *632:8 6.6869e-05
115 *193:16 *632:83 4.51403e-05
116 *195:19 *632:83 0.000980331
117 *195:23 *632:107 0.000130187
118 *196:43 *632:126 5.33213e-05
119 *199:27 *11889:B1 1.38978e-05
120 *199:27 *632:151 4.77554e-05
121 *200:19 *11892:B1 3.87221e-06
122 *201:38 *632:193 0.000121474
123 *202:39 *632:206 2.64616e-05
124 *203:15 *632:67 2.26406e-05
125 *204:31 *632:236 0.000116526
126 *224:19 *632:48 0.00124822
127 *224:19 *632:67 4.92689e-05
128 *352:12 *632:107 0.00121435
129 *407:16 *632:48 0
130 *474:14 *632:248 0
131 *557:191 *632:83 0.00113351
132 *557:213 *632:83 0.000880385
133 *557:219 *632:83 0.00039106
134 *557:239 *632:83 0.000543842
135 *557:259 *632:83 0.00200966
136 *560:30 *632:83 0.00069433
137 *560:54 *632:83 0.00115009
138 *560:76 *632:83 0.00101859
139 *560:82 *632:83 0.000870531
140 *560:102 *632:83 0.000788135
141 *560:122 *632:83 0.00150636
142 *560:154 *632:83 0.00308626
143 *585:12 *11889:B1 2.05503e-05
144 *585:12 *632:151 0.000247985
145 *588:30 *632:28 3.3746e-05
146 *589:8 *632:67 3.7122e-06
147 *591:12 *632:28 1.28726e-05
148 *591:16 *632:28 5.13514e-05
149 *594:16 *632:107 0.00159167
150 *594:20 *11880:B1 1.32314e-05
151 *594:20 *632:107 1.72202e-05
152 *594:22 *11880:B1 1.96418e-05
153 *594:22 *632:126 1.59285e-05
154 *599:20 *632:221 0.000487153
155 *601:10 *11889:B1 5.28598e-05
156 *601:10 *11892:B1 1.28818e-05
157 *601:10 *632:170 0.000156142
158 *601:16 *11895:B1 2.26497e-05
159 *610:12 *632:248 0.00116929
160 *622:16 *632:28 3.47781e-05
161 *625:55 *632:101 0
162 *627:31 *632:48 0.00291068
163 *627:31 *632:67 5.94125e-05
164 *628:12 *632:28 0
165 *630:12 *632:28 3.23248e-05
166 *630:57 *632:107 5.50106e-05
167 *630:80 *632:136 0.000486901
168 *630:97 *11889:B1 5.28598e-05
169 *630:105 *632:170 0.000180268
170 *630:113 *632:193 5.6241e-05
171 *630:121 *11898:B1 3.13509e-06
172 *630:121 *632:193 1.40314e-05
173 *630:121 *632:206 2.9055e-05
174 *630:152 *632:248 0.000137651
175 *631:191 *632:28 0
176 *631:200 *632:28 9.58714e-05
*RES
1 *11931:X *632:8 39.9057
2 *632:8 *632:10 15
3 *632:10 *632:16 2.56857
4 *632:16 *632:28 43.0707
5 *632:28 *11930:A 23
6 *632:16 *11871:B1 24.0202
7 *632:10 *632:44 36.3536
8 *632:44 *632:46 15
9 *632:46 *632:48 44.8671
10 *632:48 *11874:B1 38.6162
11 *632:48 *632:67 43.2261
12 *632:67 *632:73 18.9325
13 *632:73 *632:83 49.7935
14 *632:83 *12124:EN 18.3816
15 *632:44 *632:95 28.2543
16 *632:95 *632:101 36.4836
17 *632:101 *632:107 19.72
18 *632:107 *11880:B1 24.0202
19 *632:107 *632:126 45.7814
20 *632:126 *632:136 31.3798
21 *632:136 *11886:B1 23
22 *632:136 *632:151 31.4212
23 *632:151 *632:155 9.42987
24 *632:155 *11892:B1 46.4712
25 *632:155 *632:170 2.54613
26 *632:170 *11895:B1 46.4712
27 *632:170 *632:193 35.9984
28 *632:193 *11898:B1 23.8182
29 *632:193 *632:206 20.0307
30 *632:206 *11901:B1 24.0202
31 *632:206 *632:221 21.7448
32 *632:221 *11904:B1 23
33 *632:221 *632:236 36.0123
34 *632:236 *632:248 45.9137
35 *632:248 *11907:B1 23
36 *632:151 *11889:B1 38.9373
37 *632:126 *11883:B1 38.1502
38 *632:95 *11877:B1 25.118
*END

*D_NET *633 0.0353969
*CONN
*I *11865:A2 I *D sky130_fd_sc_hd__o221a_2
*I *11822:B I *D sky130_fd_sc_hd__nor2_4
*I *11856:A2 I *D sky130_fd_sc_hd__o221a_2
*I *11832:A2 I *D sky130_fd_sc_hd__o221a_1
*I *11847:A2 I *D sky130_fd_sc_hd__o221a_2
*I *11835:A2 I *D sky130_fd_sc_hd__o221a_1
*I *11829:A2 I *D sky130_fd_sc_hd__o221a_1
*I *11841:A2 I *D sky130_fd_sc_hd__o221a_1
*I *11862:A2 I *D sky130_fd_sc_hd__o221a_2
*I *11850:A2 I *D sky130_fd_sc_hd__o221a_2
*I *11826:A2 I *D sky130_fd_sc_hd__o221a_1
*I *11844:A2 I *D sky130_fd_sc_hd__o221a_2
*I *11853:A2 I *D sky130_fd_sc_hd__o221a_2
*I *11838:A2 I *D sky130_fd_sc_hd__o221a_1
*I *11859:A2 I *D sky130_fd_sc_hd__o221a_2
*I *11932:X O *D sky130_fd_sc_hd__buf_4
*CAP
1 *11865:A2 0
2 *11822:B 0
3 *11856:A2 0
4 *11832:A2 1.0388e-05
5 *11847:A2 0.0001064
6 *11835:A2 1.2297e-05
7 *11829:A2 0
8 *11841:A2 0
9 *11862:A2 0
10 *11850:A2 0
11 *11826:A2 0.000470317
12 *11844:A2 0
13 *11853:A2 0.000143046
14 *11838:A2 2.38674e-05
15 *11859:A2 2.52923e-05
16 *11932:X 0.000234898
17 *633:141 0.000343499
18 *633:126 0.000960686
19 *633:119 0.000894147
20 *633:110 0.000930651
21 *633:104 0.000676171
22 *633:85 0.000945797
23 *633:81 0.000695952
24 *633:79 0.000519245
25 *633:77 0.00124554
26 *633:60 0.00130363
27 *633:47 0.000392585
28 *633:41 0.000916449
29 *633:26 0.00206291
30 *633:24 0.00186183
31 *633:20 0.00122723
32 *633:12 0.00123983
33 *633:6 0.000727064
34 *656:DIODE *633:110 5.58975e-06
35 *675:DIODE *11835:A2 4.77164e-06
36 *676:DIODE *11838:A2 3.8696e-05
37 *678:DIODE *633:104 1.05441e-05
38 *11819:D *633:20 5.3304e-05
39 *11826:B1 *11826:A2 4.95081e-05
40 *11826:C1 *11826:A2 0.00078322
41 *11826:C1 *633:119 0.000179473
42 *11850:A1 *633:126 0.000175903
43 *11850:B1 *633:119 3.79384e-05
44 *11850:C1 *633:119 0.000129522
45 *11856:A1 *633:41 2.4431e-05
46 *11856:C1 *633:47 5.3304e-05
47 *11865:A1 *633:6 4.67488e-05
48 *61:15 *11832:A2 2.26406e-05
49 *105:13 *11838:A2 0
50 *105:13 *633:77 2.11066e-05
51 *109:8 *11853:A2 4.93223e-05
52 *110:22 *633:26 0.000135037
53 *110:31 *633:26 0.00184977
54 *116:28 *633:110 0.000396715
55 *118:24 *11832:A2 2.26406e-05
56 *120:28 *11835:A2 2.26406e-05
57 *122:36 *11838:A2 3.70094e-05
58 *122:36 *633:47 0.000356089
59 *124:32 *633:141 0.000113239
60 *126:22 *633:104 0.000402865
61 *128:24 *11847:A2 1.14452e-05
62 *136:26 *633:26 0.000144221
63 *136:26 *633:41 1.76557e-05
64 *189:34 *633:141 5.3304e-05
65 *189:42 *633:141 0.000132927
66 *197:27 *633:110 0.000181975
67 *203:15 *633:12 0.00144181
68 *205:29 *633:20 0.00144509
69 *208:29 *11847:A2 0.000168558
70 *211:27 *11835:A2 5.08422e-06
71 *212:27 *11838:A2 2.51382e-05
72 *212:27 *633:47 0.000359247
73 *213:25 *633:77 2.59282e-05
74 *213:25 *633:79 1.27516e-05
75 *213:25 *633:81 4.6698e-05
76 *213:25 *633:85 8.65033e-05
77 *214:27 *633:104 0.000376294
78 *217:27 *633:77 0
79 *363:28 *11853:A2 7.43025e-06
80 *363:28 *633:60 6.30556e-05
81 *363:41 *633:20 0.000181749
82 *363:41 *633:24 0.000374225
83 *374:16 *633:20 0.00025063
84 *374:16 *633:24 0.000110915
85 *523:8 *11847:A2 7.127e-05
86 *571:12 *633:141 0
87 *576:16 *633:12 0.00144496
88 *576:16 *633:20 0.00148553
89 *591:12 *633:41 6.66584e-06
90 *593:10 *633:141 0.000358845
91 *594:8 *633:6 0.000135037
92 *596:24 *633:20 2.24151e-05
93 *607:16 *633:20 6.02277e-06
94 *607:16 *633:24 0.000235013
95 *617:24 *633:77 0.000169691
96 *621:8 *11853:A2 0.000305425
97 *621:8 *633:60 0.000393287
98 *623:6 *633:126 0.000575579
99 *623:6 *633:141 6.08617e-05
100 *624:10 *11853:A2 4.9346e-05
101 *624:10 *633:60 6.7063e-05
102 *628:23 *633:41 0.000411218
103 *628:37 *633:41 0.000148592
104 *628:37 *633:47 0.000222671
105 *631:117 *633:126 5.51527e-05
106 *631:165 *633:41 1.59094e-05
107 *631:165 *633:47 3.43512e-05
108 *631:191 *633:41 2.91154e-05
109 *631:226 *633:20 0.000578523
*RES
1 *11932:X *633:6 26.48
2 *633:6 *633:12 49.5129
3 *633:12 *633:20 41.7421
4 *633:20 *633:24 26.0614
5 *633:24 *633:26 26.3486
6 *633:26 *11859:A2 23.4971
7 *633:26 *633:41 10.5643
8 *633:41 *633:47 22.6021
9 *633:47 *11838:A2 38.8493
10 *633:47 *633:60 19.4329
11 *633:60 *11853:A2 26.9771
12 *633:60 *633:77 25.2661
13 *633:77 *633:79 0.3136
14 *633:79 *633:81 0.5712
15 *633:81 *633:85 9.0864
16 *633:85 *11844:A2 38
17 *633:85 *633:104 25.8336
18 *633:104 *633:110 35.4271
19 *633:110 *11826:A2 33.6264
20 *633:110 *633:119 5.38571
21 *633:119 *11850:A2 23
22 *633:119 *633:126 13.485
23 *633:126 *11862:A2 23
24 *633:126 *633:141 37.6229
25 *633:141 *11841:A2 23
26 *633:104 *11829:A2 23
27 *633:81 *11835:A2 46.3211
28 *633:79 *11847:A2 48.4339
29 *633:77 *11832:A2 46.3211
30 *633:41 *11856:A2 23
31 *633:20 *11822:B 38
32 *633:6 *11865:A2 23
*END

*D_NET *634 0.0604625
*CONN
*I *11932:A I *D sky130_fd_sc_hd__buf_4
*I *11874:A2 I *D sky130_fd_sc_hd__o221a_2
*I *11871:A2 I *D sky130_fd_sc_hd__o221a_2
*I *11868:A2 I *D sky130_fd_sc_hd__o221a_2
*I *11877:A2 I *D sky130_fd_sc_hd__o221a_2
*I *11880:A2 I *D sky130_fd_sc_hd__o221a_2
*I *11883:A2 I *D sky130_fd_sc_hd__o221a_2
*I *11892:A2 I *D sky130_fd_sc_hd__o221a_2
*I *11898:A2 I *D sky130_fd_sc_hd__o221a_2
*I *11907:A2 I *D sky130_fd_sc_hd__o221a_2
*I *11904:A2 I *D sky130_fd_sc_hd__o221a_2
*I *11901:A2 I *D sky130_fd_sc_hd__o221a_2
*I *11895:A2 I *D sky130_fd_sc_hd__o221a_2
*I *11889:A2 I *D sky130_fd_sc_hd__o221a_2
*I *11886:A2 I *D sky130_fd_sc_hd__o221a_2
*I *11933:X O *D sky130_fd_sc_hd__clkbuf_8
*CAP
1 *11932:A 0.000655165
2 *11874:A2 0.000138956
3 *11871:A2 0
4 *11868:A2 0
5 *11877:A2 0.000398425
6 *11880:A2 5.3348e-05
7 *11883:A2 1.16903e-05
8 *11892:A2 1.17716e-05
9 *11898:A2 0
10 *11907:A2 0
11 *11904:A2 0
12 *11901:A2 0
13 *11895:A2 0
14 *11889:A2 0
15 *11886:A2 1.71566e-05
16 *11933:X 0.000170122
17 *634:233 0.000709349
18 *634:219 0.00241794
19 *634:167 0.000940437
20 *634:148 0.00196793
21 *634:135 0.00128241
22 *634:131 0.00069332
23 *634:121 0.00100329
24 *634:106 0.00140531
25 *634:90 0.00134753
26 *634:73 0.0012349
27 *634:56 0.00177959
28 *634:42 0.00172933
29 *634:32 0.00205449
30 *634:28 0.00153997
31 *634:22 0.00269301
32 *634:16 0.00526936
33 *634:10 0.00177512
34 *634:8 0.000961671
35 *653:DIODE *11880:A2 0
36 *653:DIODE *634:42 0
37 *659:DIODE *634:106 0
38 *664:DIODE *634:167 0
39 *11871:B1 *634:233 4.71881e-05
40 *11874:A1 *11874:A2 1.21972e-05
41 *11874:B2 *11874:A2 0.000175903
42 *11877:A1 *11877:A2 3.3716e-05
43 *11877:C1 *634:28 0.000180103
44 *11880:A1 *11880:A2 9.86551e-06
45 *11883:A1 *11883:A2 1.12349e-05
46 *11883:A1 *634:42 0.000139292
47 *11883:A1 *634:56 3.97382e-05
48 *11883:B1 *634:42 1.28818e-05
49 *11883:C1 *634:42 0.000111301
50 *11892:A1 *11892:A2 5.79559e-05
51 *11892:B1 *634:106 2.12347e-06
52 *11895:B1 *634:106 1.4006e-05
53 *11898:B1 *634:131 2.64221e-06
54 *11901:A1 *634:148 5.50106e-05
55 *11901:B1 *634:135 1.58137e-05
56 *11901:C1 *634:135 1.59071e-05
57 *11904:A1 *634:167 2.5343e-05
58 *11904:C1 *634:148 9.02364e-05
59 *12124:DI[13] *11932:A 3.88787e-05
60 *12124:DI[13] *634:8 3.23186e-05
61 *79:8 *634:148 0.000399183
62 *146:10 *11932:A 0.000252769
63 *146:10 *634:10 0.000173945
64 *148:14 *11877:A2 0.000107611
65 *148:14 *634:22 0.00100585
66 *149:59 *634:56 8.4047e-05
67 *151:69 *634:121 0.00020967
68 *152:14 *634:90 0.000158063
69 *152:22 *634:56 1.83618e-05
70 *153:38 *634:131 6.07306e-05
71 *154:20 *634:56 8.06804e-06
72 *154:20 *634:73 0.000384719
73 *156:14 *634:121 0.000142011
74 *156:26 *634:73 0.000186861
75 *157:61 *634:167 1.98125e-05
76 *158:28 *634:106 2.38733e-05
77 *158:28 *634:121 0.00129222
78 *158:36 *634:90 2.1154e-05
79 *158:36 *634:106 4.77164e-06
80 *162:16 *634:121 5.3304e-05
81 *162:22 *634:121 0.000185364
82 *166:14 *634:148 9.8971e-06
83 *166:14 *634:167 5.47808e-05
84 *168:26 *634:167 2.26406e-05
85 *180:23 *11874:A2 0.00021677
86 *191:27 *634:233 0.000133027
87 *199:46 *634:73 2.44117e-05
88 *199:46 *634:90 4.77164e-06
89 *201:38 *634:121 0.000179473
90 *202:39 *634:131 5.3304e-05
91 *205:60 *634:167 9.85586e-06
92 *224:19 *634:10 0.000173613
93 *224:19 *634:16 0.000563566
94 *224:23 *634:8 5.3304e-05
95 *362:52 *634:16 2.21614e-05
96 *365:24 *11932:A 4.52297e-05
97 *429:14 *634:42 0.000400193
98 *463:14 *634:167 0.000230016
99 *485:14 *634:167 0.000164663
100 *525:14 *634:42 0.00148169
101 *585:12 *634:90 9.51468e-05
102 *591:12 *634:233 0.000187754
103 *594:8 *11932:A 0.000229334
104 *594:16 *634:32 0.00165512
105 *594:20 *634:32 3.59635e-05
106 *594:22 *634:32 0.000141954
107 *594:22 *634:90 0.000270682
108 *594:30 *634:90 0
109 *597:10 *634:219 2.64616e-05
110 *597:14 *634:42 0.0012015
111 *597:20 *634:90 2.40392e-05
112 *597:24 *634:90 0.000142173
113 *599:20 *634:148 0.000289745
114 *600:12 *634:42 0
115 *601:8 *634:56 0.000426465
116 *601:10 *11892:A2 5.56279e-05
117 *601:10 *634:56 0.000151675
118 *601:10 *634:106 2.02872e-05
119 *601:18 *634:106 0.000142173
120 *601:18 *634:121 0.000306212
121 *603:14 *634:90 0.000707614
122 *605:12 *634:90 0
123 *605:12 *634:106 4.75704e-05
124 *627:31 *11932:A 1.76075e-05
125 *627:31 *634:10 4.24694e-06
126 *628:12 *634:233 0.000253909
127 *628:23 *634:233 0.000103637
128 *630:30 *634:10 7.98535e-06
129 *630:30 *634:16 0.00328095
130 *630:30 *634:22 6.38342e-05
131 *630:49 *634:28 0.000229717
132 *630:64 *634:42 0.000130369
133 *630:80 *634:42 0.000112171
134 *630:80 *634:56 0
135 *630:88 *634:56 0.000135162
136 *630:105 *634:106 0.000901384
137 *630:121 *634:131 0.00152126
138 *630:121 *634:135 5.56356e-05
139 *630:129 *634:131 2.21614e-05
140 *630:152 *634:167 0.00114683
141 *631:191 *634:233 9.2467e-06
142 *632:16 *634:233 3.05702e-05
143 *632:28 *634:233 0.000131413
144 *632:44 *634:22 3.56156e-05
145 *632:44 *634:219 0.00168545
146 *632:44 *634:233 7.53384e-06
147 *632:48 *634:16 0.000560107
148 *632:95 *634:22 0.000174788
149 *632:101 *634:28 0.000355603
150 *632:136 *11886:A2 9.72057e-06
151 *632:136 *634:56 1.69853e-05
152 *632:151 *11886:A2 5.90675e-06
153 *632:151 *634:56 1.03431e-05
154 *632:170 *634:106 0.000180268
155 *632:206 *634:131 0.00066584
156 *632:206 *634:135 7.53303e-06
157 *632:221 *634:135 1.99419e-05
158 *632:221 *634:148 0.000390033
159 *632:236 *634:148 2.69066e-07
*RES
1 *11933:X *634:8 40.5271
2 *634:8 *634:10 2.96214
3 *634:10 *634:16 45.6336
4 *634:16 *634:22 45.0564
5 *634:22 *634:28 35.7793
6 *634:28 *634:32 35.6314
7 *634:32 *634:42 44.2486
8 *634:42 *634:56 45.8257
9 *634:56 *11886:A2 23.4971
10 *634:56 *634:73 29.6036
11 *634:73 *11889:A2 38
12 *634:73 *634:90 43.6921
13 *634:90 *634:106 30.7636
14 *634:106 *11895:A2 23
15 *634:106 *634:121 48.3736
16 *634:121 *634:131 48.1664
17 *634:131 *634:135 3.85286
18 *634:135 *11901:A2 23
19 *634:135 *634:148 21.7707
20 *634:148 *11904:A2 23
21 *634:148 *634:167 36.3723
22 *634:167 *11907:A2 38
23 *634:121 *11898:A2 23
24 *634:90 *11892:A2 38.6214
25 *634:42 *11883:A2 23.4971
26 *634:32 *11880:A2 38.8493
27 *634:22 *11877:A2 28.9036
28 *634:16 *634:219 49.9243
29 *634:219 *634:233 44.4586
30 *634:233 *11868:A2 23
31 *634:219 *11871:A2 23
32 *634:10 *11874:A2 41.0243
33 *634:8 *11932:A 48.9579
*END

*D_NET *635 0.0404718
*CONN
*I *11823:S I *D sky130_fd_sc_hd__mux2_2
*I *11827:S I *D sky130_fd_sc_hd__mux2_2
*I *11845:S I *D sky130_fd_sc_hd__mux2_2
*I *11866:S I *D sky130_fd_sc_hd__mux2_2
*I *11860:S I *D sky130_fd_sc_hd__mux2_2
*I *11863:S I *D sky130_fd_sc_hd__mux2_2
*I *11869:S I *D sky130_fd_sc_hd__mux2_4
*I *11848:S I *D sky130_fd_sc_hd__mux2_2
*I *11857:S I *D sky130_fd_sc_hd__mux2_2
*I *11836:S I *D sky130_fd_sc_hd__mux2_2
*I *11839:S I *D sky130_fd_sc_hd__mux2_2
*I *11854:S I *D sky130_fd_sc_hd__mux2_2
*I *11830:S I *D sky130_fd_sc_hd__mux2_2
*I *11842:S I *D sky130_fd_sc_hd__mux2_2
*I *11851:S I *D sky130_fd_sc_hd__mux2_2
*I *11934:X O *D sky130_fd_sc_hd__clkbuf_8
*CAP
1 *11823:S 0.000297759
2 *11827:S 0.00010426
3 *11845:S 0
4 *11866:S 2.18268e-05
5 *11860:S 0.000277458
6 *11863:S 0
7 *11869:S 0
8 *11848:S 0
9 *11857:S 0
10 *11836:S 0.000421923
11 *11839:S 0.000267138
12 *11854:S 0
13 *11830:S 0.000115563
14 *11842:S 4.11105e-05
15 *11851:S 0.000210741
16 *11934:X 0.000191314
17 *635:144 0.000875589
18 *635:134 0.00111206
19 *635:132 0.00125397
20 *635:124 0.000785357
21 *635:122 0.00302374
22 *635:120 0.00300026
23 *635:118 0.00120843
24 *635:109 0.00130134
25 *635:100 0.000412801
26 *635:89 0.00110383
27 *635:78 0.00126451
28 *635:69 0.000947164
29 *635:63 0.000578033
30 *635:61 0.000370484
31 *635:59 0.000385404
32 *635:48 0.000481845
33 *635:37 0.00053281
34 *635:29 0.00066015
35 *635:10 0.000849142
36 *11842:S *637:25 9.41704e-05
37 *11851:S *636:130 9.41704e-05
38 *635:10 *636:130 0.000219101
39 *882:DIODE *635:100 6.63698e-05
40 *882:DIODE *635:109 7.75329e-06
41 *923:DIODE *635:69 0.000158566
42 *923:DIODE *635:78 1.05441e-05
43 *935:DIODE *635:100 0.000220895
44 *977:DIODE *11827:S 5.3304e-05
45 *977:DIODE *635:63 5.3304e-05
46 *1025:DIODE *11836:S 4.67488e-05
47 *1034:DIODE *11839:S 9.41704e-05
48 *11830:A1 *11830:S 2.64616e-05
49 *11836:A1 *11836:S 4.03039e-05
50 *11845:A0 *635:63 9.65021e-05
51 *11845:A1 *635:63 5.3304e-05
52 *11845:A1 *635:69 4.08664e-05
53 *11848:A1 *635:109 4.4382e-05
54 *11848:A1 *635:118 0.000131956
55 *11863:A0 *635:134 0.000277576
56 *11866:A0 *635:122 0.000155658
57 *123:6 *11839:S 0.000278798
58 *125:6 *11842:S 9.41704e-05
59 *127:6 *635:63 2.31687e-05
60 *129:10 *635:69 2.35393e-05
61 *129:10 *635:78 0.000452304
62 *129:10 *635:89 0.000323747
63 *129:10 *635:100 0.000130934
64 *131:6 *11851:S 9.41704e-05
65 *143:10 *635:144 5.50106e-05
66 *251:21 *635:69 8.27131e-05
67 *252:14 *635:109 2.1199e-05
68 *255:13 *635:122 0.00100561
69 *257:11 *635:118 0.000176799
70 *261:11 *635:78 0
71 *261:11 *635:100 0
72 *272:27 *11830:S 0.000135037
73 *275:13 *635:78 0
74 *275:21 *635:63 0.000204332
75 *275:21 *635:69 0.00051428
76 *276:15 *11836:S 0.000143352
77 *277:15 *11839:S 0.000110326
78 *279:19 *635:69 0.000471718
79 *280:11 *635:118 0.00164968
80 *282:41 *11823:S 4.05745e-05
81 *282:43 *11823:S 6.08617e-05
82 *282:45 *11823:S 2.64616e-05
83 *283:58 *635:78 0.000116449
84 *284:30 *635:100 5.55911e-05
85 *284:30 *635:109 0.000190227
86 *284:30 *635:118 0.00304758
87 *284:32 *635:100 0.000132665
88 *286:19 *11860:S 0.000564577
89 *286:19 *635:134 8.52481e-05
90 *287:26 *635:122 0.000582123
91 *288:36 *635:144 0.000146971
92 *293:35 *635:37 0.000123931
93 *293:35 *635:48 7.99698e-05
94 *293:55 *11827:S 8.40645e-05
95 *304:54 *11830:S 2.02872e-05
96 *308:31 *11836:S 4.05745e-05
97 *308:33 *11836:S 2.1819e-05
98 *308:35 *11836:S 2.31687e-05
99 *309:33 *11839:S 0.000122599
100 *309:35 *11839:S 4.08664e-05
101 *309:37 *11839:S 8.17328e-05
102 *313:35 *11851:S 8.73233e-05
103 *313:37 *11851:S 2.02872e-05
104 *313:46 *11851:S 0.000135037
105 *313:73 *635:29 6.17437e-06
106 *369:74 *635:78 0.000102288
107 *369:74 *635:118 0.000118027
108 *417:10 *11823:S 0.000156951
109 *417:10 *635:48 0.000476659
110 *417:10 *635:59 0.000213615
111 *417:68 *635:10 0.000175903
112 *438:74 *635:29 0.000585313
113 *509:68 *11823:S 0.000149184
114 *509:68 *635:29 0.000577828
115 *509:68 *635:37 0.00026813
116 *509:68 *635:48 0.000646113
117 *509:68 *635:59 0.000204439
118 *513:10 *635:10 0.000186054
119 *513:10 *635:29 0.000179149
120 *515:10 *635:10 0.000186054
121 *515:10 *635:29 0.000189157
122 *550:28 *635:37 4.67488e-05
*RES
1 *11934:X *635:10 43.1371
2 *635:10 *11851:S 41.9564
3 *635:10 *635:29 42.5529
4 *635:29 *635:37 34.7643
5 *635:37 *11842:S 39.0979
6 *635:37 *635:48 8.94857
7 *635:48 *11830:S 40.0507
8 *635:48 *635:59 2.96214
9 *635:59 *635:61 15
10 *635:61 *635:63 4.90929
11 *635:63 *635:69 23.8243
12 *635:69 *11854:S 38
13 *635:69 *635:78 14.2307
14 *635:78 *11839:S 44.3386
15 *635:78 *635:89 8.59643
16 *635:89 *11836:S 44.815
17 *635:89 *635:100 8.94857
18 *635:100 *11857:S 38
19 *635:100 *635:109 2.61
20 *635:109 *11848:S 38
21 *635:109 *635:118 47.3321
22 *635:118 *635:120 15
23 *635:120 *635:122 55.1725
24 *635:122 *635:124 0.497143
25 *635:124 *635:132 43.3089
26 *635:132 *635:134 5.38571
27 *635:134 *635:144 44.9143
28 *635:144 *11869:S 23
29 *635:134 *11863:S 23
30 *635:132 *11860:S 29.3386
31 *635:124 *11866:S 23.8596
32 *635:63 *11845:S 23
33 *635:61 *11827:S 25.0714
34 *635:59 *11823:S 43.2614
*END

*D_NET *636 0.0839896
*CONN
*I *11875:S I *D sky130_fd_sc_hd__mux2_2
*I *11934:A I *D sky130_fd_sc_hd__clkbuf_8
*I *11878:S I *D sky130_fd_sc_hd__mux2_4
*I *12144:EN I *D CF_SRAM_1024x32
*I *11881:S I *D sky130_fd_sc_hd__mux2_4
*I *11872:S I *D sky130_fd_sc_hd__mux2_2
*I *11833:S I *D sky130_fd_sc_hd__mux2_2
*I *11935:X O *D sky130_fd_sc_hd__buf_6
*CAP
1 *11875:S 0.000247835
2 *11934:A 0
3 *11878:S 0.000593214
4 *12144:EN 0.00041072
5 *11881:S 3.91206e-05
6 *11872:S 0.000326657
7 *11833:S 0
8 *11935:X 0.000446599
9 *636:130 0.000734427
10 *636:89 0.00689894
11 *636:87 0.00767793
12 *636:72 0.00532235
13 *636:70 0.00528323
14 *636:68 0.00282776
15 *636:66 0.00253113
16 *636:47 0.00141366
17 *636:43 0.00149861
18 *636:32 0.000174483
19 *636:20 0.0011411
20 *636:18 0.000883162
21 *636:8 0.00156121
22 *636:8 *637:12 4.67488e-05
23 *957:DIODE *11872:S 4.67488e-05
24 *964:DIODE *11875:S 9.84794e-05
25 *971:DIODE *636:72 9.84794e-05
26 *1058:DIODE *636:8 4.96303e-05
27 *11833:A1 *636:32 5.56279e-05
28 *11851:S *636:130 9.41704e-05
29 *11881:A1 *636:72 0.000441978
30 *12144:WLOFF *12144:EN 0.000896631
31 *119:6 *636:32 5.3304e-05
32 *257:31 *636:47 0.000112294
33 *257:31 *636:66 0.000113135
34 *259:11 *636:89 0
35 *259:23 *636:47 5.20172e-05
36 *259:33 *11878:S 0.000247463
37 *261:11 *636:89 0.00087207
38 *272:27 *636:32 1.85916e-05
39 *275:13 *636:89 0.0144072
40 *275:21 *636:32 0.000113153
41 *277:11 *636:89 0.0126353
42 *281:27 *636:8 4.71147e-05
43 *287:26 *636:72 0.00109169
44 *289:46 *11872:S 4.48439e-05
45 *289:48 *11872:S 4.05745e-05
46 *289:50 *11872:S 4.05745e-05
47 *290:76 *11875:S 9.41704e-05
48 *290:78 *11875:S 9.41704e-05
49 *291:25 *11878:S 2.1522e-05
50 *309:23 *11878:S 1.81737e-05
51 *309:25 *11878:S 2.9437e-05
52 *309:25 *636:43 1.61361e-05
53 *309:27 *636:43 1.61361e-05
54 *309:31 *636:43 2.45549e-06
55 *313:46 *636:8 2.93431e-05
56 *313:46 *636:130 1.56446e-05
57 *313:48 *636:8 4.96207e-05
58 *356:8 *636:89 0
59 *371:70 *636:47 0.000144327
60 *371:70 *636:66 0.000509305
61 *371:70 *636:68 0.00305142
62 *371:70 *636:87 0.000136281
63 *395:56 *636:130 2.96602e-05
64 *395:58 *636:18 0.00110787
65 *400:80 *636:18 0.00111039
66 *415:56 *636:130 0.000187986
67 *417:10 *636:47 0.000213529
68 *417:68 *11875:S 9.5877e-05
69 *417:68 *636:130 5.62191e-05
70 *438:74 *636:20 0.00047846
71 *438:74 *636:32 0.000108681
72 *438:74 *636:43 0.00146569
73 *438:74 *636:130 0.000191148
74 *471:102 *636:18 1.97345e-05
75 *509:68 *636:20 0.00047846
76 *509:68 *636:43 0.00147569
77 *509:68 *636:47 2.64173e-05
78 *509:68 *636:66 0.000665647
79 *509:68 *636:68 0
80 *509:68 *636:87 0
81 *524:20 *636:18 0.00010083
82 *635:10 *636:130 0.000219101
*RES
1 *11935:X *636:8 29.3593
2 *636:8 *636:18 46.2443
3 *636:18 *636:20 6.65964
4 *636:20 *636:32 48.2729
5 *636:32 *11833:S 23
6 *636:20 *636:43 37.2679
7 *636:43 *636:47 20.7793
8 *636:47 *11872:S 42.4536
9 *636:47 *636:66 24.0389
10 *636:66 *636:68 41.1489
11 *636:68 *636:70 15
12 *636:70 *636:72 84.4729
13 *636:72 *11881:S 23.4971
14 *636:68 *636:87 46.82
15 *636:87 *636:89 251.223
16 *636:89 *12144:EN 25.4348
17 *636:43 *11878:S 31.4721
18 *636:8 *636:130 39.4664
19 *636:130 *11934:A 23
20 *636:130 *11875:S 27.4536
*END

*D_NET *637 0.0720325
*CONN
*I *11917:S I *D sky130_fd_sc_hd__mux2_4
*I *11914:S I *D sky130_fd_sc_hd__mux2_4
*I *11911:S I *D sky130_fd_sc_hd__mux2_4
*I *11908:S I *D sky130_fd_sc_hd__mux2_4
*I *11905:S I *D sky130_fd_sc_hd__mux2_4
*I *11902:S I *D sky130_fd_sc_hd__mux2_4
*I *11899:S I *D sky130_fd_sc_hd__mux2_4
*I *11896:S I *D sky130_fd_sc_hd__mux2_4
*I *11893:S I *D sky130_fd_sc_hd__mux2_4
*I *11890:S I *D sky130_fd_sc_hd__mux2_4
*I *11887:S I *D sky130_fd_sc_hd__mux2_4
*I *11884:S I *D sky130_fd_sc_hd__mux2_4
*I *11935:A I *D sky130_fd_sc_hd__buf_6
*I *11936:X O *D sky130_fd_sc_hd__buf_8
*CAP
1 *11917:S 0
2 *11914:S 0
3 *11911:S 0
4 *11908:S 0
5 *11905:S 0
6 *11902:S 3.93866e-05
7 *11899:S 0
8 *11896:S 0
9 *11893:S 0
10 *11890:S 2.34823e-05
11 *11887:S 1.39224e-05
12 *11884:S 0
13 *11935:A 0
14 *11936:X 0
15 *637:196 0.000864011
16 *637:185 0.00124905
17 *637:172 0.000840159
18 *637:159 0.00106755
19 *637:146 0.00150039
20 *637:133 0.00154769
21 *637:122 0.00133033
22 *637:109 0.00105059
23 *637:96 0.000514994
24 *637:85 0.000277123
25 *637:83 0.000657172
26 *637:64 0.00167857
27 *637:49 0.000160063
28 *637:39 0.0015125
29 *637:31 0.00570716
30 *637:29 0.00544145
31 *637:27 0.00372028
32 *637:25 0.00523581
33 *637:12 0.000347987
34 *637:4 0.00186351
35 *645:DIODE *637:122 0.000189211
36 *890:DIODE *637:39 7.28836e-05
37 *987:DIODE *637:85 5.3304e-05
38 *989:DIODE *637:96 0.000185428
39 *991:DIODE *637:109 0.000184527
40 *11842:A1 *637:25 4.08664e-05
41 *11842:S *637:25 9.41704e-05
42 *11884:A1 *637:49 2.9205e-05
43 *11890:A0 *637:85 9.94414e-05
44 *11896:A0 *637:109 8.6949e-05
45 *11896:A1 *637:109 3.06608e-05
46 *11899:A0 *637:122 2.80512e-05
47 *11899:A0 *637:133 0.00012377
48 *11899:A1 *637:122 0.00021677
49 *11902:A0 *637:133 5.70419e-05
50 *11905:A0 *637:146 5.68958e-05
51 *11908:A0 *637:159 0.000102389
52 *11911:A0 *637:172 9.84851e-05
53 *11914:A0 *637:185 9.84851e-05
54 *11936:A *637:25 0.000175903
55 *11985:A *637:25 0
56 *3:23 *637:27 0
57 *3:25 *637:31 0.00783378
58 *3:41 *637:49 5.50106e-05
59 *3:41 *637:64 5.50106e-05
60 *3:41 *637:83 0.00108116
61 *125:6 *637:25 0.000733092
62 *163:6 *637:133 0.00171401
63 *177:16 *11887:S 1.14154e-05
64 *177:16 *637:49 2.93845e-05
65 *177:16 *637:64 2.93845e-05
66 *177:16 *637:83 0.00107334
67 *177:18 *637:31 0.000195995
68 *177:22 *637:27 0
69 *185:22 *637:85 4.75206e-05
70 *185:22 *637:96 0.00022554
71 *185:22 *637:109 0.00135664
72 *185:22 *637:122 0.000168441
73 *203:11 *637:12 0.0010779
74 *207:15 *637:27 0.00363641
75 *209:13 *637:27 0.000467919
76 *210:13 *637:27 0.000246867
77 *262:19 *637:39 1.2153e-05
78 *263:23 *637:64 0.000219094
79 *263:40 *11887:S 2.02517e-05
80 *263:40 *637:64 0.000116641
81 *278:23 *637:25 0.000274702
82 *281:27 *637:12 4.96207e-05
83 *286:15 *637:85 0.000268129
84 *286:15 *637:96 0.00079317
85 *286:15 *637:109 0.000539595
86 *286:15 *637:122 0.00125152
87 *286:15 *637:133 0.000952783
88 *287:26 *637:31 0.000861454
89 *287:26 *637:64 0.000253886
90 *296:31 *637:83 3.43144e-05
91 *297:15 *637:133 0.000419271
92 *297:15 *637:146 0.00056944
93 *297:15 *637:159 0.00121243
94 *297:15 *637:172 0.000921641
95 *297:15 *637:185 0.000688756
96 *297:15 *637:196 0.00160471
97 *302:23 *637:172 0.00011549
98 *306:33 *637:196 0
99 *306:35 *637:196 0
100 *310:34 *637:25 0.000288498
101 *310:36 *637:25 4.05745e-05
102 *310:38 *637:25 4.05745e-05
103 *310:40 *637:25 0.000127668
104 *310:42 *637:25 4.34559e-05
105 *369:74 *637:12 0.000203062
106 *474:26 *637:133 0.000146201
107 *506:8 *637:12 0.000462818
108 *506:54 *637:12 0.000610622
109 *555:8 *637:122 0.000136738
110 *636:8 *637:12 4.67488e-05
*RES
1 *11936:X *637:4 23
2 *637:4 *637:12 45.3286
3 *637:12 *11935:A 23
4 *637:4 *637:25 42.9436
5 *637:25 *637:27 97.6886
6 *637:27 *637:29 15
7 *637:29 *637:31 90.19
8 *637:31 *637:39 34.5571
9 *637:39 *637:49 33.0243
10 *637:49 *11884:S 23
11 *637:39 *637:64 49.8236
12 *637:64 *11887:S 23.4971
13 *637:64 *637:83 47.3171
14 *637:83 *637:85 3.00357
15 *637:85 *11890:S 23.4971
16 *637:85 *637:96 9.21786
17 *637:96 *11893:S 23
18 *637:96 *637:109 17.9593
19 *637:109 *11896:S 23
20 *637:109 *637:122 22.2471
21 *637:122 *11899:S 23
22 *637:122 *637:133 27.8193
23 *637:133 *11902:S 23.8493
24 *637:133 *637:146 17.8143
25 *637:146 *11905:S 23
26 *637:146 *637:159 16.53
27 *637:159 *11908:S 23
28 *637:159 *637:172 13.195
29 *637:172 *11911:S 23
30 *637:172 *637:185 10.8129
31 *637:185 *11914:S 23
32 *637:185 *637:196 36.0871
33 *637:196 *11917:S 38
*END

*D_NET *638 0.151069
*CONN
*I *12144:BEN[31] I *D CF_SRAM_1024x32
*I *12144:BEN[30] I *D CF_SRAM_1024x32
*I *12144:BEN[29] I *D CF_SRAM_1024x32
*I *12144:BEN[28] I *D CF_SRAM_1024x32
*I *12144:BEN[27] I *D CF_SRAM_1024x32
*I *12144:BEN[26] I *D CF_SRAM_1024x32
*I *12144:BEN[25] I *D CF_SRAM_1024x32
*I *12154:BEN[31] I *D CF_SRAM_1024x32
*I *12154:BEN[30] I *D CF_SRAM_1024x32
*I *12154:BEN[29] I *D CF_SRAM_1024x32
*I *12154:BEN[28] I *D CF_SRAM_1024x32
*I *12154:BEN[27] I *D CF_SRAM_1024x32
*I *12154:BEN[26] I *D CF_SRAM_1024x32
*I *12154:BEN[25] I *D CF_SRAM_1024x32
*I *12154:BEN[24] I *D CF_SRAM_1024x32
*I *12144:BEN[24] I *D CF_SRAM_1024x32
*I *12124:BEN[31] I *D CF_SRAM_1024x32
*I *12124:BEN[30] I *D CF_SRAM_1024x32
*I *12124:BEN[29] I *D CF_SRAM_1024x32
*I *12124:BEN[28] I *D CF_SRAM_1024x32
*I *12124:BEN[27] I *D CF_SRAM_1024x32
*I *12124:BEN[26] I *D CF_SRAM_1024x32
*I *12124:BEN[25] I *D CF_SRAM_1024x32
*I *12124:BEN[24] I *D CF_SRAM_1024x32
*I *12216:X O *D sky130_fd_sc_hd__clkbuf_16
*CAP
1 *12144:BEN[31] 0.000725086
2 *12144:BEN[30] 0.000159958
3 *12144:BEN[29] 0.000158979
4 *12144:BEN[28] 0.000106638
5 *12144:BEN[27] 0.000160447
6 *12144:BEN[26] 0.000115671
7 *12144:BEN[25] 0.000257235
8 *12154:BEN[31] 0.000606013
9 *12154:BEN[30] 0.00124351
10 *12154:BEN[29] 0.000208676
11 *12154:BEN[28] 0.000128059
12 *12154:BEN[27] 0.000158409
13 *12154:BEN[26] 0.000193405
14 *12154:BEN[25] 0.000155047
15 *12154:BEN[24] 0.000246854
16 *12144:BEN[24] 0.000162993
17 *12124:BEN[31] 0.000316045
18 *12124:BEN[30] 0.000288627
19 *12124:BEN[29] 0.000173329
20 *12124:BEN[28] 0.000134781
21 *12124:BEN[27] 0.00017433
22 *12124:BEN[26] 0.000251543
23 *12124:BEN[25] 0.000134265
24 *12124:BEN[24] 0.00129575
25 *12216:X 0.000826737
26 *638:361 0.001459
27 *638:349 0.00124632
28 *638:337 0.00127937
29 *638:325 0.00143391
30 *638:309 0.00143358
31 *638:281 0.00149156
32 *638:245 0.00125556
33 *638:240 0
34 *638:233 0.00103376
35 *638:228 0
36 *638:221 0.00105995
37 *638:209 0.00096608
38 *638:196 0.000834096
39 *638:184 0.000611445
40 *638:180 0.0211914
41 *638:178 0.0216749
42 *638:160 0.000787771
43 *638:156 0.0154843
44 *638:136 0.0158621
45 *638:116 0.00172457
46 *638:98 0.00154837
47 *638:80 0.00134318
48 *638:59 0.00123852
49 *638:39 0.00131457
50 *638:19 0.0011909
51 *638:19 *639:134 0.000280955
52 *638:39 *639:134 0.000888354
53 *638:59 *639:134 0.00075942
54 *638:80 *639:134 0.00088565
55 *638:98 *639:134 0.000892945
56 *638:116 *639:134 0.00103847
57 *638:136 *639:134 0.000919542
58 *638:156 *639:134 0.0220466
59 *638:156 *639:276 0.000907048
60 *638:156 *639:296 0.000822027
61 *638:156 *639:316 0.000877836
62 *638:156 *639:336 0.000851239
63 *638:156 *639:362 0.00107448
64 *12144:BEN[0] *638:156 0.000246181
65 *12144:DI[27] *12144:BEN[27] 0
66 *12144:DI[27] *638:325 2.11157e-05
67 *12144:DI[28] *638:337 2.11157e-05
68 *12144:DI[29] *12144:BEN[29] 0
69 *12144:DI[29] *638:349 2.11157e-05
70 *12144:DI[25] *12144:BEN[25] 0
71 *12144:DI[30] *12144:BEN[30] 0
72 *12144:DI[30] *638:361 2.11157e-05
73 *12144:DI[31] *12144:BEN[31] 2.11157e-05
74 *12154:DI[24] *638:180 0
75 *12154:DI[29] *12154:BEN[29] 0
76 *12154:DI[29] *638:245 4.98856e-06
77 *12154:DI[30] *12154:BEN[30] 1.28274e-05
78 *12154:DI[26] *638:209 2.11066e-05
79 *12154:DI[31] *12154:BEN[31] 4.755e-05
80 *3:19 *12124:BEN[31] 0
81 *125:6 *12124:BEN[24] 0
82 *133:14 *638:19 0.000999848
83 *133:14 *638:39 2.11157e-05
84 *135:16 *12124:BEN[28] 9.59396e-05
85 *204:19 *638:39 4.68613e-05
86 *205:9 *12124:BEN[26] 8.38425e-06
87 *206:9 *12124:BEN[27] 0
88 *210:9 *12124:BEN[30] 0
89 *255:9 *638:156 0.000783568
90 *271:11 *638:325 0
91 *271:11 *638:337 0
92 *271:11 *638:349 0
93 *272:11 *638:156 0.000457942
94 *276:11 *638:156 0.00103198
95 *278:11 *638:156 0.000847494
96 *279:11 *638:156 0.0011803
97 *281:11 *12124:BEN[27] 2.11157e-05
98 *281:11 *12124:BEN[28] 2.04528e-05
99 *281:11 *12124:BEN[29] 1.91269e-05
100 *281:11 *12124:BEN[30] 4.82774e-05
101 *281:11 *12124:BEN[31] 9.79368e-05
102 *281:11 *638:156 0.00124624
103 *281:15 *12124:BEN[26] 8.22421e-06
104 *299:15 *12154:BEN[24] 0
105 *299:15 *638:180 0
106 *303:15 *638:245 0.000136163
107 *305:13 *12154:BEN[30] 0.000177513
108 *306:15 *12154:BEN[31] 0.000396129
109 *382:48 *638:39 0
110 *382:48 *638:59 0
111 *382:48 *638:80 0
112 *382:48 *638:98 0
113 *382:48 *638:116 0
114 *382:48 *638:136 0
115 *382:48 *638:156 0
116 *467:56 *638:160 4.07923e-06
117 *467:56 *638:178 0.000111547
118 *467:56 *638:180 0
119 *471:72 *12144:BEN[25] 6.4e-06
120 *471:72 *638:180 0
121 *476:64 *638:309 4.07923e-06
122 *480:66 *638:184 0.000102781
123 *480:66 *638:196 0.000757703
124 *480:66 *638:209 0.00089453
125 *480:66 *638:221 0.000393556
126 *480:80 *638:221 7.53756e-05
127 *484:71 *638:221 0.000142267
128 *484:71 *638:233 0.000222032
129 *484:83 *638:233 9.9342e-06
130 *557:437 *638:156 0.000228978
131 *557:449 *638:156 0.000347026
132 *557:461 *638:156 0.000326857
133 *560:174 *638:156 0.0001397
134 *560:186 *638:156 0.000326857
135 *560:198 *638:156 0.000326857
136 *560:210 *638:156 0.000208809
137 *560:234 *638:156 0.000264274
*RES
1 *12216:X *12124:BEN[24] 36.2364
2 *12124:BEN[24] *638:19 28.92
3 *638:19 *12124:BEN[25] 17.6307
4 *638:19 *638:39 18.5928
5 *638:39 *12124:BEN[26] 34.1159
6 *638:39 *638:59 1.83307
7 *638:59 *12124:BEN[27] 32.6037
8 *638:59 *638:80 2.08693
9 *638:80 *12124:BEN[28] 32.5209
10 *638:80 *638:98 2.08693
11 *638:98 *12124:BEN[29] 32.5002
12 *638:98 *638:116 2.46773
13 *638:116 *12124:BEN[30] 34.7373
14 *638:116 *638:136 2.21387
15 *638:136 *12124:BEN[31] 35.4209
16 *638:136 *638:156 67.2037
17 *638:156 *638:160 8.1848
18 *638:160 *12144:BEN[24] 25.9932
19 *638:160 *638:178 1.61093
20 *638:178 *638:180 64.4131
21 *638:180 *638:184 9.3775
22 *638:184 *12154:BEN[24] 19.0393
23 *638:184 *638:196 10.005
24 *638:196 *12154:BEN[25] 17.5271
25 *638:196 *638:209 11.7657
26 *638:209 *12154:BEN[26] 17.9414
27 *638:209 *638:221 11.0614
28 *638:221 *12154:BEN[27] 17.5271
29 *12154:BEN[27] *638:228 0.203
30 *638:221 *638:233 11.4136
31 *638:233 *12154:BEN[28] 17.5271
32 *12154:BEN[28] *638:240 0.169167
33 *638:233 *638:245 10.005
34 *638:245 *12154:BEN[29] 19.0807
35 *638:245 *12154:BEN[30] 30.515
36 *12154:BEN[30] *12154:BEN[31] 44.4379
37 *638:156 *638:281 1.96
38 *638:281 *12144:BEN[25] 34.4266
39 *638:281 *638:309 18.7197
40 *638:309 *12144:BEN[26] 17.2371
41 *638:309 *638:325 11.8279
42 *638:325 *12144:BEN[27] 18.0864
43 *638:325 *638:337 12.47
44 *638:337 *12144:BEN[28] 17.0507
45 *638:337 *638:349 10.3571
46 *638:349 *12144:BEN[29] 18.1279
47 *638:349 *638:361 11.4136
48 *638:361 *12144:BEN[30] 18.1486
49 *638:361 *12144:BEN[31] 29.5829
*END

*D_NET *639 0.159612
*CONN
*I *12144:BEN[23] I *D CF_SRAM_1024x32
*I *12144:BEN[22] I *D CF_SRAM_1024x32
*I *12144:BEN[21] I *D CF_SRAM_1024x32
*I *12144:BEN[20] I *D CF_SRAM_1024x32
*I *12144:BEN[19] I *D CF_SRAM_1024x32
*I *12144:BEN[18] I *D CF_SRAM_1024x32
*I *12144:BEN[17] I *D CF_SRAM_1024x32
*I *12154:BEN[23] I *D CF_SRAM_1024x32
*I *12154:BEN[22] I *D CF_SRAM_1024x32
*I *12154:BEN[21] I *D CF_SRAM_1024x32
*I *12154:BEN[20] I *D CF_SRAM_1024x32
*I *12154:BEN[19] I *D CF_SRAM_1024x32
*I *12154:BEN[18] I *D CF_SRAM_1024x32
*I *12154:BEN[17] I *D CF_SRAM_1024x32
*I *12154:BEN[16] I *D CF_SRAM_1024x32
*I *12144:BEN[16] I *D CF_SRAM_1024x32
*I *12124:BEN[23] I *D CF_SRAM_1024x32
*I *12124:BEN[22] I *D CF_SRAM_1024x32
*I *12124:BEN[21] I *D CF_SRAM_1024x32
*I *12124:BEN[20] I *D CF_SRAM_1024x32
*I *12124:BEN[19] I *D CF_SRAM_1024x32
*I *12124:BEN[18] I *D CF_SRAM_1024x32
*I *12124:BEN[17] I *D CF_SRAM_1024x32
*I *12124:BEN[16] I *D CF_SRAM_1024x32
*I *12217:X O *D sky130_fd_sc_hd__clkbuf_16
*CAP
1 *12144:BEN[23] 0.000601254
2 *12144:BEN[22] 0.000156842
3 *12144:BEN[21] 8.30019e-05
4 *12144:BEN[20] 0.000336631
5 *12144:BEN[19] 0.000328468
6 *12144:BEN[18] 0.000328653
7 *12144:BEN[17] 0.000268949
8 *12154:BEN[23] 0.000609255
9 *12154:BEN[22] 0.000228757
10 *12154:BEN[21] 0.00011048
11 *12154:BEN[20] 0.000217115
12 *12154:BEN[19] 0.000188332
13 *12154:BEN[18] 0.000231487
14 *12154:BEN[17] 0.000184077
15 *12154:BEN[16] 0.000250705
16 *12144:BEN[16] 0.000101071
17 *12124:BEN[23] 0.000308171
18 *12124:BEN[22] 0.00037642
19 *12124:BEN[21] 0.00010966
20 *12124:BEN[20] 0.000192112
21 *12124:BEN[19] 0.000191389
22 *12124:BEN[18] 0.000200845
23 *12124:BEN[17] 0.000134385
24 *12124:BEN[16] 0.000184737
25 *12217:X 0.000840756
26 *639:379 0.0014409
27 *639:362 0.00137095
28 *639:336 0.00126842
29 *639:316 0.001096
30 *639:296 0.00119481
31 *639:276 0.00104009
32 *639:252 0.00122271
33 *639:234 0.000800067
34 *639:218 0.000713564
35 *639:206 0.000633833
36 *639:194 0.000892276
37 *639:174 0.000855556
38 *639:162 0.000552565
39 *639:158 0.0210256
40 *639:156 0.0215757
41 *639:138 0.000858288
42 *639:134 0.00917568
43 *639:114 0.00943115
44 *639:94 0.00155564
45 *639:74 0.0010753
46 *639:58 0.000625566
47 *639:46 0.000559578
48 *639:34 0.000638038
49 *639:22 0.000653719
50 *639:6 0.00129179
51 *12124:CLKin *12124:BEN[17] 9.91798e-05
52 *12124:TM *12124:BEN[16] 5.12137e-05
53 *12124:TM *639:6 1.39056e-05
54 *12124:DI[19] *639:46 4.82774e-05
55 *12124:DI[21] *639:74 4.82774e-05
56 *12124:DI[18] *639:34 4.82774e-05
57 *12124:DI[20] *639:58 2.11066e-05
58 *12124:DI[17] *639:22 2.11157e-05
59 *12144:CLKin *12144:BEN[17] 2.31581e-05
60 *12144:TM *12144:BEN[16] 0
61 *12144:DI[23] *12144:BEN[23] 2.11157e-05
62 *12144:DI[19] *12144:BEN[19] 0
63 *12144:DI[18] *12144:BEN[18] 0
64 *12144:DI[22] *639:379 2.11066e-05
65 *12144:DI[20] *12144:BEN[20] 0
66 *12154:WLBI *12154:BEN[16] 5.9604e-07
67 *12154:CLKin *12154:BEN[17] 1.32547e-05
68 *12154:TM *12154:BEN[16] 4.59251e-05
69 *12154:DI[22] *639:252 3.18322e-05
70 *123:18 *12124:BEN[22] 8.22421e-06
71 *123:18 *639:22 0.000402932
72 *123:18 *639:34 0.00106915
73 *123:18 *639:46 0.000888927
74 *123:18 *639:58 0.000888927
75 *123:18 *639:74 0.000686629
76 *123:18 *639:94 8.22421e-06
77 *133:14 *12124:BEN[23] 2.11157e-05
78 *133:14 *639:134 0.000156606
79 *133:16 *12124:BEN[22] 2.11157e-05
80 *133:16 *639:22 0.000465596
81 *133:16 *639:34 0.000455691
82 *133:16 *639:46 0.000435964
83 *133:16 *639:58 0.000450731
84 *133:16 *639:74 0.00042595
85 *133:16 *639:94 1.18349e-05
86 *179:24 *12144:BEN[17] 1.68715e-05
87 *179:44 *639:174 4.80465e-05
88 *194:18 *639:6 9.61662e-05
89 *194:18 *639:22 0.000181863
90 *195:17 *639:34 0.000127918
91 *196:9 *12124:BEN[18] 0
92 *198:9 *12124:BEN[19] 1.84962e-05
93 *199:17 *12124:BEN[20] 1.47955e-05
94 *199:17 *639:74 2.11066e-05
95 *202:11 *12124:BEN[23] 0
96 *204:19 *639:94 0
97 *204:19 *639:114 0
98 *204:19 *639:134 0
99 *264:9 *12144:BEN[21] 0
100 *265:7 *12144:BEN[22] 0
101 *271:11 *12144:BEN[23] 0
102 *271:11 *639:379 0
103 *290:17 *639:158 0.00221068
104 *290:17 *639:162 0.000102781
105 *290:17 *639:174 0.000154995
106 *292:15 *639:206 0.000498135
107 *294:15 *639:218 0.000254842
108 *295:19 *639:234 2.11066e-05
109 *296:17 *639:252 2.05503e-05
110 *417:40 *639:158 0
111 *426:72 *639:174 2.33476e-05
112 *426:74 *639:138 0
113 *426:74 *639:156 0
114 *426:74 *639:158 0
115 *432:54 *639:162 4.84329e-05
116 *432:54 *639:174 0.000371461
117 *432:54 *639:194 0.000256741
118 *432:74 *12144:BEN[18] 4.07923e-06
119 *443:74 *639:206 0.000102785
120 *443:76 *12144:BEN[19] 5.95675e-06
121 *449:82 *639:218 0.000102785
122 *449:84 *12144:BEN[20] 9.0331e-06
123 *454:70 *639:234 0.000102785
124 *458:64 *639:252 2.11157e-05
125 *480:58 *639:174 0.000249173
126 *480:58 *639:194 0.000138663
127 *480:64 *639:194 0.000410808
128 *480:64 *639:206 0.000948421
129 *480:64 *639:218 0.000798376
130 *480:64 *639:234 0.000646437
131 *480:64 *639:252 0.000206378
132 *480:66 *12154:BEN[23] 0.000829678
133 *480:66 *639:252 0.000370786
134 *484:55 *639:206 0.000176294
135 *484:55 *639:218 0.000217666
136 *484:55 *639:234 0.000803733
137 *484:55 *639:252 0.000493878
138 *560:154 *639:94 0.000944163
139 *560:154 *639:114 0.000948754
140 *560:154 *639:134 0.0191299
141 *638:19 *639:134 0.000280955
142 *638:39 *639:134 0.000888354
143 *638:59 *639:134 0.00075942
144 *638:80 *639:134 0.00088565
145 *638:98 *639:134 0.000892945
146 *638:116 *639:134 0.00103847
147 *638:136 *639:134 0.000919542
148 *638:156 *639:134 0.0220466
149 *638:156 *639:276 0.000907048
150 *638:156 *639:296 0.000822027
151 *638:156 *639:316 0.000877836
152 *638:156 *639:336 0.000851239
153 *638:156 *639:362 0.00107448
*RES
1 *12217:X *639:6 34.1029
2 *639:6 *12124:BEN[16] 3.64571
3 *639:6 *639:22 24.3629
4 *639:22 *12124:BEN[17] 17.9621
5 *639:22 *639:34 13.8786
6 *639:34 *12124:BEN[18] 18.7286
7 *639:34 *639:46 11.4136
8 *639:46 *12124:BEN[19] 18.7079
9 *639:46 *639:58 11.4136
10 *639:58 *12124:BEN[20] 18.6871
11 *639:58 *639:74 10.7714
12 *639:74 *12124:BEN[21] 16.7814
13 *639:74 *639:94 18.9773
14 *639:94 *12124:BEN[22] 34.2285
15 *639:94 *639:114 2.21387
16 *639:114 *12124:BEN[23] 34.3497
17 *639:114 *639:134 67.5845
18 *639:134 *639:138 8.35653
19 *639:138 *12144:BEN[16] 24.6468
20 *639:138 *639:156 1.484
21 *639:156 *639:158 64.4131
22 *639:158 *639:162 9.3775
23 *639:162 *12154:BEN[16] 19.205
24 *639:162 *639:174 10.005
25 *639:174 *12154:BEN[17] 17.7757
26 *639:174 *639:194 26.5171
27 *639:194 *12154:BEN[18] 3.72857
28 *639:194 *639:206 27.47
29 *639:206 *12154:BEN[19] 18.1693
30 *639:206 *639:218 10.3571
31 *639:218 *12154:BEN[20] 18.77
32 *639:218 *639:234 13.8475
33 *639:234 *12154:BEN[21] 16.5018
34 *639:234 *639:252 42.0454
35 *639:252 *12154:BEN[22] 18.7079
36 *639:252 *12154:BEN[23] 29.6657
37 *639:134 *639:276 2.08693
38 *639:276 *12144:BEN[17] 33.024
39 *639:276 *639:296 1.96
40 *639:296 *12144:BEN[18] 34.2255
41 *639:296 *639:316 2.08693
42 *639:316 *12144:BEN[19] 34.2462
43 *639:316 *639:336 1.96
44 *639:336 *12144:BEN[20] 34.4947
45 *639:336 *639:362 18.8243
46 *639:362 *12144:BEN[21] 16.4189
47 *639:362 *639:379 13.2675
48 *639:379 *12144:BEN[22] 18.1279
49 *639:379 *12144:BEN[23] 26.6
*END
