*SPEF "ieee 1481-1999"
*DESIGN "CF_SRAM_4096x32_wb_wrapper"
*DATE "12:27:16 Sunday July 13, 2025"
*VENDOR "The OpenROAD Project"
*PROGRAM "OpenROAD"
*VERSION "da0053d7b0014ab9c87ea148875ff6c2a0f9b658"
*DESIGN_FLOW "NAME_SCOPE LOCAL" "PIN_CAP NONE"
*DIVIDER /
*DELIMITER :
*BUS_DELIMITER []
*T_UNIT 1 NS
*C_UNIT 1 PF
*R_UNIT 1 OHM
*L_UNIT 1 HENRY

*NAME_MAP
*3 wb_clk_i
*4 wb_rst_i
*5 wbs_ack_o
*6 wbs_adr_i[0]
*7 wbs_adr_i[10]
*8 wbs_adr_i[11]
*9 wbs_adr_i[12]
*10 wbs_adr_i[13]
*11 wbs_adr_i[14]
*12 wbs_adr_i[15]
*13 wbs_adr_i[16]
*14 wbs_adr_i[17]
*15 wbs_adr_i[18]
*16 wbs_adr_i[19]
*17 wbs_adr_i[1]
*18 wbs_adr_i[20]
*19 wbs_adr_i[21]
*20 wbs_adr_i[22]
*21 wbs_adr_i[23]
*22 wbs_adr_i[24]
*23 wbs_adr_i[25]
*24 wbs_adr_i[26]
*25 wbs_adr_i[27]
*26 wbs_adr_i[28]
*27 wbs_adr_i[29]
*28 wbs_adr_i[2]
*29 wbs_adr_i[30]
*30 wbs_adr_i[31]
*31 wbs_adr_i[3]
*32 wbs_adr_i[4]
*33 wbs_adr_i[5]
*34 wbs_adr_i[6]
*35 wbs_adr_i[7]
*36 wbs_adr_i[8]
*37 wbs_adr_i[9]
*38 wbs_cyc_i
*39 wbs_dat_i[0]
*40 wbs_dat_i[10]
*41 wbs_dat_i[11]
*42 wbs_dat_i[12]
*43 wbs_dat_i[13]
*44 wbs_dat_i[14]
*45 wbs_dat_i[15]
*46 wbs_dat_i[16]
*47 wbs_dat_i[17]
*48 wbs_dat_i[18]
*49 wbs_dat_i[19]
*50 wbs_dat_i[1]
*51 wbs_dat_i[20]
*52 wbs_dat_i[21]
*53 wbs_dat_i[22]
*54 wbs_dat_i[23]
*55 wbs_dat_i[24]
*56 wbs_dat_i[25]
*57 wbs_dat_i[26]
*58 wbs_dat_i[27]
*59 wbs_dat_i[28]
*60 wbs_dat_i[29]
*61 wbs_dat_i[2]
*62 wbs_dat_i[30]
*63 wbs_dat_i[31]
*64 wbs_dat_i[3]
*65 wbs_dat_i[4]
*66 wbs_dat_i[5]
*67 wbs_dat_i[6]
*68 wbs_dat_i[7]
*69 wbs_dat_i[8]
*70 wbs_dat_i[9]
*71 wbs_dat_o[0]
*72 wbs_dat_o[10]
*73 wbs_dat_o[11]
*74 wbs_dat_o[12]
*75 wbs_dat_o[13]
*76 wbs_dat_o[14]
*77 wbs_dat_o[15]
*78 wbs_dat_o[16]
*79 wbs_dat_o[17]
*80 wbs_dat_o[18]
*81 wbs_dat_o[19]
*82 wbs_dat_o[1]
*83 wbs_dat_o[20]
*84 wbs_dat_o[21]
*85 wbs_dat_o[22]
*86 wbs_dat_o[23]
*87 wbs_dat_o[24]
*88 wbs_dat_o[25]
*89 wbs_dat_o[26]
*90 wbs_dat_o[27]
*91 wbs_dat_o[28]
*92 wbs_dat_o[29]
*93 wbs_dat_o[2]
*94 wbs_dat_o[30]
*95 wbs_dat_o[31]
*96 wbs_dat_o[3]
*97 wbs_dat_o[4]
*98 wbs_dat_o[5]
*99 wbs_dat_o[6]
*100 wbs_dat_o[7]
*101 wbs_dat_o[8]
*102 wbs_dat_o[9]
*103 wbs_sel_i[0]
*104 wbs_sel_i[1]
*105 wbs_sel_i[2]
*106 wbs_sel_i[3]
*107 wbs_stb_i
*108 wbs_we_i
*109 _000_
*110 _001_
*111 _002_
*112 _003_
*113 _004_
*114 _005_
*115 _006_
*116 _007_
*117 _008_
*118 _009_
*119 _010_
*120 _011_
*121 _012_
*122 _013_
*123 _014_
*124 _015_
*125 _016_
*126 _017_
*127 _018_
*128 _019_
*129 _020_
*130 _021_
*131 _022_
*132 _023_
*133 _024_
*134 _025_
*135 _026_
*136 _027_
*137 _028_
*138 _029_
*139 _030_
*140 _031_
*141 _032_
*142 _033_
*143 _034_
*144 _035_
*145 _036_
*146 _037_
*147 _038_
*148 _039_
*149 _040_
*150 _041_
*151 _042_
*152 _043_
*153 _044_
*154 _045_
*155 _046_
*156 _047_
*157 _048_
*158 _049_
*159 _050_
*160 _051_
*161 _052_
*162 _053_
*163 _054_
*164 _055_
*165 _056_
*166 _057_
*167 _058_
*168 _059_
*169 _060_
*170 _061_
*171 _062_
*172 _063_
*173 _064_
*174 _065_
*175 _066_
*176 _067_
*177 _068_
*178 _069_
*179 _070_
*180 _071_
*181 _072_
*182 _073_
*183 _074_
*184 _075_
*185 _076_
*186 _077_
*187 _078_
*188 _079_
*189 _080_
*190 _081_
*191 _082_
*192 _083_
*193 _084_
*194 _085_
*195 _086_
*196 clknet_0_wb_clk_i
*197 clknet_1_0__leaf_wb_clk_i
*198 clknet_1_1__leaf_wb_clk_i
*199 i_ram_wb_controller\.EN
*200 i_ram_wb_controller\.R_WB
*201 i_sram\.sram_cs\[0\]
*202 i_sram\.sram_cs\[1\]
*203 i_sram\.sram_cs\[2\]
*204 i_sram\.sram_cs\[3\]
*205 i_sram\.sram_do_0\[0\]
*206 i_sram\.sram_do_0\[10\]
*207 i_sram\.sram_do_0\[11\]
*208 i_sram\.sram_do_0\[12\]
*209 i_sram\.sram_do_0\[13\]
*210 i_sram\.sram_do_0\[14\]
*211 i_sram\.sram_do_0\[15\]
*212 i_sram\.sram_do_0\[16\]
*213 i_sram\.sram_do_0\[17\]
*214 i_sram\.sram_do_0\[18\]
*215 i_sram\.sram_do_0\[19\]
*216 i_sram\.sram_do_0\[1\]
*217 i_sram\.sram_do_0\[20\]
*218 i_sram\.sram_do_0\[21\]
*219 i_sram\.sram_do_0\[22\]
*220 i_sram\.sram_do_0\[23\]
*221 i_sram\.sram_do_0\[24\]
*222 i_sram\.sram_do_0\[25\]
*223 i_sram\.sram_do_0\[26\]
*224 i_sram\.sram_do_0\[27\]
*225 i_sram\.sram_do_0\[28\]
*226 i_sram\.sram_do_0\[29\]
*227 i_sram\.sram_do_0\[2\]
*228 i_sram\.sram_do_0\[30\]
*229 i_sram\.sram_do_0\[31\]
*230 i_sram\.sram_do_0\[3\]
*231 i_sram\.sram_do_0\[4\]
*232 i_sram\.sram_do_0\[5\]
*233 i_sram\.sram_do_0\[6\]
*234 i_sram\.sram_do_0\[7\]
*235 i_sram\.sram_do_0\[8\]
*236 i_sram\.sram_do_0\[9\]
*237 i_sram\.sram_do_1\[0\]
*238 i_sram\.sram_do_1\[10\]
*239 i_sram\.sram_do_1\[11\]
*240 i_sram\.sram_do_1\[12\]
*241 i_sram\.sram_do_1\[13\]
*242 i_sram\.sram_do_1\[14\]
*243 i_sram\.sram_do_1\[15\]
*244 i_sram\.sram_do_1\[16\]
*245 i_sram\.sram_do_1\[17\]
*246 i_sram\.sram_do_1\[18\]
*247 i_sram\.sram_do_1\[19\]
*248 i_sram\.sram_do_1\[1\]
*249 i_sram\.sram_do_1\[20\]
*250 i_sram\.sram_do_1\[21\]
*251 i_sram\.sram_do_1\[22\]
*252 i_sram\.sram_do_1\[23\]
*253 i_sram\.sram_do_1\[24\]
*254 i_sram\.sram_do_1\[25\]
*255 i_sram\.sram_do_1\[26\]
*256 i_sram\.sram_do_1\[27\]
*257 i_sram\.sram_do_1\[28\]
*258 i_sram\.sram_do_1\[29\]
*259 i_sram\.sram_do_1\[2\]
*260 i_sram\.sram_do_1\[30\]
*261 i_sram\.sram_do_1\[31\]
*262 i_sram\.sram_do_1\[3\]
*263 i_sram\.sram_do_1\[4\]
*264 i_sram\.sram_do_1\[5\]
*265 i_sram\.sram_do_1\[6\]
*266 i_sram\.sram_do_1\[7\]
*267 i_sram\.sram_do_1\[8\]
*268 i_sram\.sram_do_1\[9\]
*269 i_sram\.sram_do_2\[0\]
*270 i_sram\.sram_do_2\[10\]
*271 i_sram\.sram_do_2\[11\]
*272 i_sram\.sram_do_2\[12\]
*273 i_sram\.sram_do_2\[13\]
*274 i_sram\.sram_do_2\[14\]
*275 i_sram\.sram_do_2\[15\]
*276 i_sram\.sram_do_2\[16\]
*277 i_sram\.sram_do_2\[17\]
*278 i_sram\.sram_do_2\[18\]
*279 i_sram\.sram_do_2\[19\]
*280 i_sram\.sram_do_2\[1\]
*281 i_sram\.sram_do_2\[20\]
*282 i_sram\.sram_do_2\[21\]
*283 i_sram\.sram_do_2\[22\]
*284 i_sram\.sram_do_2\[23\]
*285 i_sram\.sram_do_2\[24\]
*286 i_sram\.sram_do_2\[25\]
*287 i_sram\.sram_do_2\[26\]
*288 i_sram\.sram_do_2\[27\]
*289 i_sram\.sram_do_2\[28\]
*290 i_sram\.sram_do_2\[29\]
*291 i_sram\.sram_do_2\[2\]
*292 i_sram\.sram_do_2\[30\]
*293 i_sram\.sram_do_2\[31\]
*294 i_sram\.sram_do_2\[3\]
*295 i_sram\.sram_do_2\[4\]
*296 i_sram\.sram_do_2\[5\]
*297 i_sram\.sram_do_2\[6\]
*298 i_sram\.sram_do_2\[7\]
*299 i_sram\.sram_do_2\[8\]
*300 i_sram\.sram_do_2\[9\]
*301 i_sram\.sram_do_3\[0\]
*302 i_sram\.sram_do_3\[10\]
*303 i_sram\.sram_do_3\[11\]
*304 i_sram\.sram_do_3\[12\]
*305 i_sram\.sram_do_3\[13\]
*306 i_sram\.sram_do_3\[14\]
*307 i_sram\.sram_do_3\[15\]
*308 i_sram\.sram_do_3\[16\]
*309 i_sram\.sram_do_3\[17\]
*310 i_sram\.sram_do_3\[18\]
*311 i_sram\.sram_do_3\[19\]
*312 i_sram\.sram_do_3\[1\]
*313 i_sram\.sram_do_3\[20\]
*314 i_sram\.sram_do_3\[21\]
*315 i_sram\.sram_do_3\[22\]
*316 i_sram\.sram_do_3\[23\]
*317 i_sram\.sram_do_3\[24\]
*318 i_sram\.sram_do_3\[25\]
*319 i_sram\.sram_do_3\[26\]
*320 i_sram\.sram_do_3\[27\]
*321 i_sram\.sram_do_3\[28\]
*322 i_sram\.sram_do_3\[29\]
*323 i_sram\.sram_do_3\[2\]
*324 i_sram\.sram_do_3\[30\]
*325 i_sram\.sram_do_3\[31\]
*326 i_sram\.sram_do_3\[3\]
*327 i_sram\.sram_do_3\[4\]
*328 i_sram\.sram_do_3\[5\]
*329 i_sram\.sram_do_3\[6\]
*330 i_sram\.sram_do_3\[7\]
*331 i_sram\.sram_do_3\[8\]
*332 i_sram\.sram_do_3\[9\]
*333 i_sram\.sram_scan_out_cc_0
*334 i_sram\.sram_scan_out_cc_1
*335 i_sram\.sram_scan_out_cc_2
*336 i_sram\.sram_scan_out_cc_3
*337 net1
*338 net10
*339 net100
*340 net101
*341 net102
*342 net103
*343 net104
*344 net105
*345 net106
*346 net107
*347 net108
*348 net109
*349 net11
*350 net110
*351 net111
*352 net112
*353 net113
*354 net114
*355 net115
*356 net116
*357 net117
*358 net118
*359 net119
*360 net12
*361 net120
*362 net121
*363 net122
*364 net123
*365 net124
*366 net125
*367 net126
*368 net127
*369 net128
*370 net129
*371 net13
*372 net130
*373 net131
*374 net132
*375 net133
*376 net134
*377 net135
*378 net136
*379 net137
*380 net138
*381 net139
*382 net14
*383 net140
*384 net141
*385 net142
*386 net143
*387 net144
*388 net145
*389 net146
*390 net147
*391 net148
*392 net149
*393 net15
*394 net150
*395 net151
*396 net152
*397 net153
*398 net154
*399 net155
*400 net156
*401 net157
*402 net158
*403 net159
*404 net16
*405 net160
*406 net161
*407 net162
*408 net163
*409 net164
*410 net165
*411 net166
*412 net167
*413 net168
*414 net169
*415 net17
*416 net170
*417 net171
*418 net172
*419 net173
*420 net174
*421 net175
*422 net176
*423 net177
*424 net178
*425 net179
*426 net18
*427 net180
*428 net181
*429 net182
*430 net183
*431 net184
*432 net185
*433 net186
*434 net187
*435 net188
*436 net189
*437 net19
*438 net190
*439 net191
*440 net192
*441 net193
*442 net194
*443 net195
*444 net196
*445 net197
*446 net198
*447 net199
*448 net2
*449 net20
*450 net200
*451 net201
*452 net202
*453 net203
*454 net204
*455 net205
*456 net206
*457 net207
*458 net208
*459 net209
*460 net21
*461 net210
*462 net211
*463 net212
*464 net213
*465 net214
*466 net215
*467 net216
*468 net217
*469 net218
*470 net219
*471 net22
*472 net220
*473 net221
*474 net222
*475 net223
*476 net224
*477 net225
*478 net226
*479 net227
*480 net228
*481 net229
*482 net23
*483 net230
*484 net231
*485 net232
*486 net233
*487 net234
*488 net235
*489 net236
*490 net237
*491 net238
*492 net239
*493 net24
*494 net240
*495 net241
*496 net242
*497 net243
*498 net244
*499 net245
*500 net246
*501 net247
*502 net248
*503 net249
*504 net25
*505 net250
*506 net251
*507 net252
*508 net253
*509 net254
*510 net255
*511 net256
*512 net257
*513 net258
*514 net259
*515 net26
*516 net260
*517 net261
*518 net262
*519 net263
*520 net264
*521 net265
*522 net266
*523 net267
*524 net268
*525 net269
*526 net27
*527 net270
*528 net271
*529 net272
*530 net273
*531 net274
*532 net275
*533 net276
*534 net277
*535 net278
*536 net279
*537 net28
*538 net280
*539 net281
*540 net282
*541 net283
*542 net284
*543 net285
*544 net286
*545 net287
*546 net288
*547 net289
*548 net29
*549 net290
*550 net291
*551 net292
*552 net293
*553 net294
*554 net295
*555 net296
*556 net297
*557 net298
*558 net299
*559 net3
*560 net30
*561 net300
*562 net301
*563 net302
*564 net303
*565 net304
*566 net305
*567 net306
*568 net307
*569 net31
*570 net32
*571 net33
*572 net34
*573 net35
*574 net36
*575 net37
*576 net38
*577 net39
*578 net4
*579 net40
*580 net41
*581 net42
*582 net43
*583 net44
*584 net45
*585 net46
*586 net47
*587 net48
*588 net49
*589 net5
*590 net50
*591 net51
*592 net52
*593 net53
*594 net54
*595 net55
*596 net56
*597 net57
*598 net58
*599 net59
*600 net6
*601 net60
*602 net61
*603 net62
*604 net63
*605 net64
*606 net65
*607 net66
*608 net67
*609 net68
*610 net69
*611 net7
*612 net70
*613 net71
*614 net72
*615 net73
*616 net74
*617 net75
*618 net76
*619 net77
*620 net78
*621 net79
*622 net8
*623 net80
*624 net81
*625 net82
*626 net83
*627 net84
*628 net85
*629 net86
*630 net87
*631 net88
*632 net89
*633 net9
*634 net90
*635 net91
*636 net92
*637 net93
*638 net94
*639 net95
*640 net96
*641 net97
*642 net98
*643 net99
*644 ANTENNA_1
*645 ANTENNA_10
*646 ANTENNA_100
*647 ANTENNA_101
*648 ANTENNA_102
*649 ANTENNA_103
*650 ANTENNA_104
*651 ANTENNA_105
*652 ANTENNA_106
*653 ANTENNA_107
*654 ANTENNA_108
*655 ANTENNA_109
*656 ANTENNA_11
*657 ANTENNA_110
*658 ANTENNA_111
*659 ANTENNA_112
*660 ANTENNA_113
*661 ANTENNA_114
*662 ANTENNA_115
*663 ANTENNA_116
*664 ANTENNA_117
*665 ANTENNA_118
*666 ANTENNA_119
*667 ANTENNA_12
*668 ANTENNA_120
*669 ANTENNA_121
*670 ANTENNA_122
*671 ANTENNA_123
*672 ANTENNA_124
*673 ANTENNA_125
*674 ANTENNA_126
*675 ANTENNA_127
*676 ANTENNA_128
*677 ANTENNA_129
*678 ANTENNA_13
*679 ANTENNA_130
*680 ANTENNA_131
*681 ANTENNA_132
*682 ANTENNA_133
*683 ANTENNA_134
*684 ANTENNA_135
*685 ANTENNA_136
*686 ANTENNA_137
*687 ANTENNA_138
*688 ANTENNA_139
*689 ANTENNA_14
*690 ANTENNA_140
*691 ANTENNA_141
*692 ANTENNA_142
*693 ANTENNA_143
*694 ANTENNA_144
*695 ANTENNA_145
*696 ANTENNA_146
*697 ANTENNA_147
*698 ANTENNA_148
*699 ANTENNA_149
*700 ANTENNA_15
*701 ANTENNA_150
*702 ANTENNA_151
*703 ANTENNA_152
*704 ANTENNA_153
*705 ANTENNA_154
*706 ANTENNA_155
*707 ANTENNA_156
*708 ANTENNA_157
*709 ANTENNA_158
*710 ANTENNA_159
*711 ANTENNA_16
*712 ANTENNA_160
*713 ANTENNA_161
*714 ANTENNA_162
*715 ANTENNA_163
*716 ANTENNA_164
*717 ANTENNA_165
*718 ANTENNA_166
*719 ANTENNA_167
*720 ANTENNA_168
*721 ANTENNA_169
*722 ANTENNA_17
*723 ANTENNA_170
*724 ANTENNA_171
*725 ANTENNA_172
*726 ANTENNA_173
*727 ANTENNA_174
*728 ANTENNA_175
*729 ANTENNA_176
*730 ANTENNA_177
*731 ANTENNA_178
*732 ANTENNA_179
*733 ANTENNA_18
*734 ANTENNA_180
*735 ANTENNA_181
*736 ANTENNA_182
*737 ANTENNA_183
*738 ANTENNA_184
*739 ANTENNA_185
*740 ANTENNA_186
*741 ANTENNA_187
*742 ANTENNA_188
*743 ANTENNA_189
*744 ANTENNA_19
*745 ANTENNA_190
*746 ANTENNA_191
*747 ANTENNA_192
*748 ANTENNA_193
*749 ANTENNA_194
*750 ANTENNA_195
*751 ANTENNA_196
*752 ANTENNA_197
*753 ANTENNA_198
*754 ANTENNA_199
*755 ANTENNA_2
*756 ANTENNA_20
*757 ANTENNA_200
*758 ANTENNA_201
*759 ANTENNA_202
*760 ANTENNA_203
*761 ANTENNA_204
*762 ANTENNA_205
*763 ANTENNA_206
*764 ANTENNA_207
*765 ANTENNA_208
*766 ANTENNA_209
*767 ANTENNA_21
*768 ANTENNA_210
*769 ANTENNA_211
*770 ANTENNA_212
*771 ANTENNA_213
*772 ANTENNA_214
*773 ANTENNA_215
*774 ANTENNA_216
*775 ANTENNA_217
*776 ANTENNA_218
*777 ANTENNA_219
*778 ANTENNA_22
*779 ANTENNA_220
*780 ANTENNA_221
*781 ANTENNA_222
*782 ANTENNA_223
*783 ANTENNA_224
*784 ANTENNA_225
*785 ANTENNA_226
*786 ANTENNA_227
*787 ANTENNA_228
*788 ANTENNA_229
*789 ANTENNA_23
*790 ANTENNA_230
*791 ANTENNA_231
*792 ANTENNA_232
*793 ANTENNA_233
*794 ANTENNA_234
*795 ANTENNA_235
*796 ANTENNA_236
*797 ANTENNA_237
*798 ANTENNA_238
*799 ANTENNA_239
*800 ANTENNA_24
*801 ANTENNA_240
*802 ANTENNA_241
*803 ANTENNA_242
*804 ANTENNA_243
*805 ANTENNA_244
*806 ANTENNA_245
*807 ANTENNA_246
*808 ANTENNA_247
*809 ANTENNA_248
*810 ANTENNA_249
*811 ANTENNA_25
*812 ANTENNA_250
*813 ANTENNA_251
*814 ANTENNA_252
*815 ANTENNA_253
*816 ANTENNA_254
*817 ANTENNA_255
*818 ANTENNA_256
*819 ANTENNA_257
*820 ANTENNA_258
*821 ANTENNA_259
*822 ANTENNA_26
*823 ANTENNA_260
*824 ANTENNA_261
*825 ANTENNA_262
*826 ANTENNA_263
*827 ANTENNA_264
*828 ANTENNA_265
*829 ANTENNA_266
*830 ANTENNA_267
*831 ANTENNA_268
*832 ANTENNA_269
*833 ANTENNA_27
*834 ANTENNA_270
*835 ANTENNA_271
*836 ANTENNA_272
*837 ANTENNA_273
*838 ANTENNA_274
*839 ANTENNA_275
*840 ANTENNA_276
*841 ANTENNA_277
*842 ANTENNA_278
*843 ANTENNA_279
*844 ANTENNA_28
*845 ANTENNA_280
*846 ANTENNA_281
*847 ANTENNA_282
*848 ANTENNA_283
*849 ANTENNA_284
*850 ANTENNA_285
*851 ANTENNA_286
*852 ANTENNA_287
*853 ANTENNA_288
*854 ANTENNA_289
*855 ANTENNA_29
*856 ANTENNA_290
*857 ANTENNA_291
*858 ANTENNA_292
*859 ANTENNA_293
*860 ANTENNA_294
*861 ANTENNA_295
*862 ANTENNA_296
*863 ANTENNA_297
*864 ANTENNA_298
*865 ANTENNA_299
*866 ANTENNA_3
*867 ANTENNA_30
*868 ANTENNA_300
*869 ANTENNA_301
*870 ANTENNA_302
*871 ANTENNA_303
*872 ANTENNA_304
*873 ANTENNA_305
*874 ANTENNA_306
*875 ANTENNA_307
*876 ANTENNA_308
*877 ANTENNA_309
*878 ANTENNA_31
*879 ANTENNA_310
*880 ANTENNA_311
*881 ANTENNA_312
*882 ANTENNA_313
*883 ANTENNA_314
*884 ANTENNA_315
*885 ANTENNA_316
*886 ANTENNA_317
*887 ANTENNA_318
*888 ANTENNA_319
*889 ANTENNA_32
*890 ANTENNA_320
*891 ANTENNA_321
*892 ANTENNA_322
*893 ANTENNA_323
*894 ANTENNA_324
*895 ANTENNA_325
*896 ANTENNA_326
*897 ANTENNA_327
*898 ANTENNA_328
*899 ANTENNA_329
*900 ANTENNA_33
*901 ANTENNA_330
*902 ANTENNA_331
*903 ANTENNA_332
*904 ANTENNA_333
*905 ANTENNA_334
*906 ANTENNA_335
*907 ANTENNA_336
*908 ANTENNA_337
*909 ANTENNA_338
*910 ANTENNA_339
*911 ANTENNA_34
*912 ANTENNA_340
*913 ANTENNA_341
*914 ANTENNA_342
*915 ANTENNA_343
*916 ANTENNA_344
*917 ANTENNA_345
*918 ANTENNA_346
*919 ANTENNA_347
*920 ANTENNA_348
*921 ANTENNA_349
*922 ANTENNA_35
*923 ANTENNA_350
*924 ANTENNA_351
*925 ANTENNA_352
*926 ANTENNA_353
*927 ANTENNA_354
*928 ANTENNA_355
*929 ANTENNA_356
*930 ANTENNA_357
*931 ANTENNA_358
*932 ANTENNA_359
*933 ANTENNA_36
*934 ANTENNA_360
*935 ANTENNA_361
*936 ANTENNA_362
*937 ANTENNA_363
*938 ANTENNA_364
*939 ANTENNA_365
*940 ANTENNA_366
*941 ANTENNA_367
*942 ANTENNA_368
*943 ANTENNA_369
*944 ANTENNA_37
*945 ANTENNA_370
*946 ANTENNA_371
*947 ANTENNA_372
*948 ANTENNA_373
*949 ANTENNA_374
*950 ANTENNA_375
*951 ANTENNA_376
*952 ANTENNA_377
*953 ANTENNA_378
*954 ANTENNA_379
*955 ANTENNA_38
*956 ANTENNA_380
*957 ANTENNA_381
*958 ANTENNA_382
*959 ANTENNA_383
*960 ANTENNA_384
*961 ANTENNA_385
*962 ANTENNA_386
*963 ANTENNA_387
*964 ANTENNA_388
*965 ANTENNA_389
*966 ANTENNA_39
*967 ANTENNA_390
*968 ANTENNA_391
*969 ANTENNA_392
*970 ANTENNA_393
*971 ANTENNA_394
*972 ANTENNA_395
*973 ANTENNA_396
*974 ANTENNA_397
*975 ANTENNA_398
*976 ANTENNA_399
*977 ANTENNA_4
*978 ANTENNA_40
*979 ANTENNA_400
*980 ANTENNA_401
*981 ANTENNA_402
*982 ANTENNA_403
*983 ANTENNA_404
*984 ANTENNA_405
*985 ANTENNA_406
*986 ANTENNA_407
*987 ANTENNA_408
*988 ANTENNA_409
*989 ANTENNA_41
*990 ANTENNA_410
*991 ANTENNA_411
*992 ANTENNA_412
*993 ANTENNA_413
*994 ANTENNA_414
*995 ANTENNA_415
*996 ANTENNA_416
*997 ANTENNA_417
*998 ANTENNA_418
*999 ANTENNA_419
*1000 ANTENNA_42
*1001 ANTENNA_420
*1002 ANTENNA_421
*1003 ANTENNA_422
*1004 ANTENNA_423
*1005 ANTENNA_424
*1006 ANTENNA_425
*1007 ANTENNA_426
*1008 ANTENNA_427
*1009 ANTENNA_428
*1010 ANTENNA_429
*1011 ANTENNA_43
*1012 ANTENNA_430
*1013 ANTENNA_431
*1014 ANTENNA_432
*1015 ANTENNA_433
*1016 ANTENNA_434
*1017 ANTENNA_435
*1018 ANTENNA_436
*1019 ANTENNA_437
*1020 ANTENNA_438
*1021 ANTENNA_439
*1022 ANTENNA_44
*1023 ANTENNA_440
*1024 ANTENNA_441
*1025 ANTENNA_442
*1026 ANTENNA_443
*1027 ANTENNA_444
*1028 ANTENNA_445
*1029 ANTENNA_446
*1030 ANTENNA_447
*1031 ANTENNA_448
*1032 ANTENNA_449
*1033 ANTENNA_45
*1034 ANTENNA_450
*1035 ANTENNA_451
*1036 ANTENNA_452
*1037 ANTENNA_453
*1038 ANTENNA_454
*1039 ANTENNA_455
*1040 ANTENNA_456
*1041 ANTENNA_457
*1042 ANTENNA_458
*1043 ANTENNA_459
*1044 ANTENNA_46
*1045 ANTENNA_460
*1046 ANTENNA_461
*1047 ANTENNA_462
*1048 ANTENNA_463
*1049 ANTENNA_464
*1050 ANTENNA_465
*1051 ANTENNA_466
*1052 ANTENNA_467
*1053 ANTENNA_468
*1054 ANTENNA_469
*1055 ANTENNA_47
*1056 ANTENNA_470
*1057 ANTENNA_471
*1058 ANTENNA_472
*1059 ANTENNA_473
*1060 ANTENNA_474
*1061 ANTENNA_475
*1062 ANTENNA_476
*1063 ANTENNA_477
*1064 ANTENNA_478
*1065 ANTENNA_479
*1066 ANTENNA_48
*1067 ANTENNA_480
*1068 ANTENNA_481
*1069 ANTENNA_482
*1070 ANTENNA_483
*1071 ANTENNA_484
*1072 ANTENNA_485
*1073 ANTENNA_486
*1074 ANTENNA_487
*1075 ANTENNA_488
*1076 ANTENNA_489
*1077 ANTENNA_49
*1078 ANTENNA_490
*1079 ANTENNA_491
*1080 ANTENNA_492
*1081 ANTENNA_493
*1082 ANTENNA_494
*1083 ANTENNA_495
*1084 ANTENNA_496
*1085 ANTENNA_497
*1086 ANTENNA_498
*1087 ANTENNA_499
*1088 ANTENNA_5
*1089 ANTENNA_50
*1090 ANTENNA_500
*1091 ANTENNA_501
*1092 ANTENNA_502
*1093 ANTENNA_503
*1094 ANTENNA_504
*1095 ANTENNA_505
*1096 ANTENNA_506
*1097 ANTENNA_507
*1098 ANTENNA_508
*1099 ANTENNA_509
*1100 ANTENNA_51
*1101 ANTENNA_510
*1102 ANTENNA_511
*1103 ANTENNA_512
*1104 ANTENNA_513
*1105 ANTENNA_514
*1106 ANTENNA_515
*1107 ANTENNA_516
*1108 ANTENNA_517
*1109 ANTENNA_518
*1110 ANTENNA_519
*1111 ANTENNA_52
*1112 ANTENNA_520
*1113 ANTENNA_521
*1114 ANTENNA_522
*1115 ANTENNA_523
*1116 ANTENNA_524
*1117 ANTENNA_525
*1118 ANTENNA_526
*1119 ANTENNA_527
*1120 ANTENNA_528
*1121 ANTENNA_529
*1122 ANTENNA_53
*1123 ANTENNA_530
*1124 ANTENNA_531
*1125 ANTENNA_532
*1126 ANTENNA_533
*1127 ANTENNA_534
*1128 ANTENNA_535
*1129 ANTENNA_536
*1130 ANTENNA_537
*1131 ANTENNA_538
*1132 ANTENNA_539
*1133 ANTENNA_54
*1134 ANTENNA_540
*1135 ANTENNA_541
*1136 ANTENNA_542
*1137 ANTENNA_543
*1138 ANTENNA_544
*1139 ANTENNA_545
*1140 ANTENNA_546
*1141 ANTENNA_547
*1142 ANTENNA_548
*1143 ANTENNA_549
*1144 ANTENNA_55
*1145 ANTENNA_550
*1146 ANTENNA_551
*1147 ANTENNA_552
*1148 ANTENNA_553
*1149 ANTENNA_554
*1150 ANTENNA_555
*1151 ANTENNA_556
*1152 ANTENNA_557
*1153 ANTENNA_558
*1154 ANTENNA_559
*1155 ANTENNA_56
*1156 ANTENNA_560
*1157 ANTENNA_561
*1158 ANTENNA_562
*1159 ANTENNA_563
*1160 ANTENNA_564
*1161 ANTENNA_565
*1162 ANTENNA_566
*1163 ANTENNA_567
*1164 ANTENNA_568
*1165 ANTENNA_569
*1166 ANTENNA_57
*1167 ANTENNA_570
*1168 ANTENNA_571
*1169 ANTENNA_572
*1170 ANTENNA_573
*1171 ANTENNA_574
*1172 ANTENNA_575
*1173 ANTENNA_576
*1174 ANTENNA_577
*1175 ANTENNA_578
*1176 ANTENNA_579
*1177 ANTENNA_58
*1178 ANTENNA_580
*1179 ANTENNA_581
*1180 ANTENNA_582
*1181 ANTENNA_583
*1182 ANTENNA_584
*1183 ANTENNA_585
*1184 ANTENNA_586
*1185 ANTENNA_587
*1186 ANTENNA_588
*1187 ANTENNA_589
*1188 ANTENNA_59
*1189 ANTENNA_590
*1190 ANTENNA_591
*1191 ANTENNA_592
*1192 ANTENNA_593
*1193 ANTENNA_594
*1194 ANTENNA_595
*1195 ANTENNA_596
*1196 ANTENNA_597
*1197 ANTENNA_598
*1198 ANTENNA_599
*1199 ANTENNA_6
*1200 ANTENNA_60
*1201 ANTENNA_600
*1202 ANTENNA_601
*1203 ANTENNA_602
*1204 ANTENNA_603
*1205 ANTENNA_61
*1206 ANTENNA_62
*1207 ANTENNA_63
*1208 ANTENNA_64
*1209 ANTENNA_65
*1210 ANTENNA_66
*1211 ANTENNA_67
*1212 ANTENNA_68
*1213 ANTENNA_69
*1214 ANTENNA_7
*1215 ANTENNA_70
*1216 ANTENNA_71
*1217 ANTENNA_72
*1218 ANTENNA_73
*1219 ANTENNA_74
*1220 ANTENNA_75
*1221 ANTENNA_76
*1222 ANTENNA_77
*1223 ANTENNA_78
*1224 ANTENNA_79
*1225 ANTENNA_8
*1226 ANTENNA_80
*1227 ANTENNA_81
*1228 ANTENNA_82
*1229 ANTENNA_83
*1230 ANTENNA_84
*1231 ANTENNA_85
*1232 ANTENNA_86
*1233 ANTENNA_87
*1234 ANTENNA_88
*1235 ANTENNA_89
*1236 ANTENNA_9
*1237 ANTENNA_90
*1238 ANTENNA_91
*1239 ANTENNA_92
*1240 ANTENNA_93
*1241 ANTENNA_94
*1242 ANTENNA_95
*1243 ANTENNA_96
*1244 ANTENNA_97
*1245 ANTENNA_98
*1246 ANTENNA_99
*1247 FILLER_0_0_1005
*1248 FILLER_0_0_1033
*1249 FILLER_0_0_1061
*1250 FILLER_0_0_1065
*1251 FILLER_0_0_109
*1252 FILLER_0_0_1091
*1253 FILLER_0_0_1093
*1254 FILLER_0_0_1113
*1255 FILLER_0_0_1119
*1256 FILLER_0_0_113
*1257 FILLER_0_0_1145
*1258 FILLER_0_0_1173
*1259 FILLER_0_0_1201
*1260 FILLER_0_0_1221
*1261 FILLER_0_0_1230
*1262 FILLER_0_0_125
*1263 FILLER_0_0_1257
*1264 FILLER_0_0_1285
*1265 FILLER_0_0_1313
*1266 FILLER_0_0_1333
*1267 FILLER_0_0_1369
*1268 FILLER_0_0_137
*1269 FILLER_0_0_1397
*1270 FILLER_0_0_141
*1271 FILLER_0_0_1425
*1272 FILLER_0_0_1453
*1273 FILLER_0_0_1481
*1274 FILLER_0_0_1485
*1275 FILLER_0_0_15
*1276 FILLER_0_0_1503
*1277 FILLER_0_0_153
*1278 FILLER_0_0_165
*1279 FILLER_0_0_169
*1280 FILLER_0_0_181
*1281 FILLER_0_0_193
*1282 FILLER_0_0_197
*1283 FILLER_0_0_209
*1284 FILLER_0_0_221
*1285 FILLER_0_0_225
*1286 FILLER_0_0_237
*1287 FILLER_0_0_249
*1288 FILLER_0_0_253
*1289 FILLER_0_0_265
*1290 FILLER_0_0_27
*1291 FILLER_0_0_277
*1292 FILLER_0_0_281
*1293 FILLER_0_0_29
*1294 FILLER_0_0_293
*1295 FILLER_0_0_3
*1296 FILLER_0_0_305
*1297 FILLER_0_0_309
*1298 FILLER_0_0_321
*1299 FILLER_0_0_333
*1300 FILLER_0_0_337
*1301 FILLER_0_0_349
*1302 FILLER_0_0_361
*1303 FILLER_0_0_365
*1304 FILLER_0_0_377
*1305 FILLER_0_0_389
*1306 FILLER_0_0_393
*1307 FILLER_0_0_405
*1308 FILLER_0_0_41
*1309 FILLER_0_0_417
*1310 FILLER_0_0_421
*1311 FILLER_0_0_433
*1312 FILLER_0_0_445
*1313 FILLER_0_0_449
*1314 FILLER_0_0_460
*1315 FILLER_0_0_472
*1316 FILLER_0_0_481
*1317 FILLER_0_0_491
*1318 FILLER_0_0_495
*1319 FILLER_0_0_505
*1320 FILLER_0_0_53
*1321 FILLER_0_0_533
*1322 FILLER_0_0_553
*1323 FILLER_0_0_559
*1324 FILLER_0_0_561
*1325 FILLER_0_0_57
*1326 FILLER_0_0_583
*1327 FILLER_0_0_587
*1328 FILLER_0_0_589
*1329 FILLER_0_0_617
*1330 FILLER_0_0_643
*1331 FILLER_0_0_645
*1332 FILLER_0_0_673
*1333 FILLER_0_0_69
*1334 FILLER_0_0_701
*1335 FILLER_0_0_729
*1336 FILLER_0_0_757
*1337 FILLER_0_0_783
*1338 FILLER_0_0_809
*1339 FILLER_0_0_81
*1340 FILLER_0_0_837
*1341 FILLER_0_0_85
*1342 FILLER_0_0_865
*1343 FILLER_0_0_893
*1344 FILLER_0_0_921
*1345 FILLER_0_0_949
*1346 FILLER_0_0_97
*1347 FILLER_0_0_977
*1348 FILLER_0_100_1464
*1349 FILLER_0_100_1476
*1350 FILLER_0_100_1488
*1351 FILLER_0_100_1490
*1352 FILLER_0_100_1502
*1353 FILLER_0_100_1506
*1354 FILLER_0_100_703
*1355 FILLER_0_100_715
*1356 FILLER_0_100_727
*1357 FILLER_0_100_729
*1358 FILLER_0_100_741
*1359 FILLER_0_101_1464
*1360 FILLER_0_101_1468
*1361 FILLER_0_101_1480
*1362 FILLER_0_101_1492
*1363 FILLER_0_101_1504
*1364 FILLER_0_101_703
*1365 FILLER_0_101_715
*1366 FILLER_0_101_727
*1367 FILLER_0_101_739
*1368 FILLER_0_102_1464
*1369 FILLER_0_102_1468
*1370 FILLER_0_102_1472
*1371 FILLER_0_102_1484
*1372 FILLER_0_102_1488
*1373 FILLER_0_102_1490
*1374 FILLER_0_102_1502
*1375 FILLER_0_102_1506
*1376 FILLER_0_102_703
*1377 FILLER_0_102_707
*1378 FILLER_0_102_719
*1379 FILLER_0_102_727
*1380 FILLER_0_102_729
*1381 FILLER_0_102_741
*1382 FILLER_0_103_1464
*1383 FILLER_0_103_1476
*1384 FILLER_0_103_1488
*1385 FILLER_0_103_1500
*1386 FILLER_0_103_1506
*1387 FILLER_0_103_703
*1388 FILLER_0_103_715
*1389 FILLER_0_103_727
*1390 FILLER_0_103_739
*1391 FILLER_0_104_1464
*1392 FILLER_0_104_1476
*1393 FILLER_0_104_1488
*1394 FILLER_0_104_1490
*1395 FILLER_0_104_1502
*1396 FILLER_0_104_1506
*1397 FILLER_0_104_703
*1398 FILLER_0_104_715
*1399 FILLER_0_104_727
*1400 FILLER_0_104_729
*1401 FILLER_0_104_741
*1402 FILLER_0_105_1464
*1403 FILLER_0_105_1476
*1404 FILLER_0_105_1488
*1405 FILLER_0_105_1500
*1406 FILLER_0_105_1506
*1407 FILLER_0_105_723
*1408 FILLER_0_105_735
*1409 FILLER_0_106_1464
*1410 FILLER_0_106_1468
*1411 FILLER_0_106_1480
*1412 FILLER_0_106_1488
*1413 FILLER_0_106_1490
*1414 FILLER_0_106_1502
*1415 FILLER_0_106_1506
*1416 FILLER_0_106_703
*1417 FILLER_0_106_707
*1418 FILLER_0_106_719
*1419 FILLER_0_106_727
*1420 FILLER_0_106_729
*1421 FILLER_0_106_741
*1422 FILLER_0_107_1464
*1423 FILLER_0_107_1476
*1424 FILLER_0_107_1488
*1425 FILLER_0_107_1500
*1426 FILLER_0_107_1506
*1427 FILLER_0_107_703
*1428 FILLER_0_107_715
*1429 FILLER_0_107_727
*1430 FILLER_0_107_739
*1431 FILLER_0_108_1464
*1432 FILLER_0_108_1476
*1433 FILLER_0_108_1488
*1434 FILLER_0_108_1490
*1435 FILLER_0_108_1502
*1436 FILLER_0_108_1506
*1437 FILLER_0_108_703
*1438 FILLER_0_108_715
*1439 FILLER_0_108_727
*1440 FILLER_0_108_729
*1441 FILLER_0_108_741
*1442 FILLER_0_109_1464
*1443 FILLER_0_109_1476
*1444 FILLER_0_109_1488
*1445 FILLER_0_109_1500
*1446 FILLER_0_109_1506
*1447 FILLER_0_109_703
*1448 FILLER_0_109_715
*1449 FILLER_0_109_727
*1450 FILLER_0_109_739
*1451 FILLER_0_10_1464
*1452 FILLER_0_10_1476
*1453 FILLER_0_10_1488
*1454 FILLER_0_10_1490
*1455 FILLER_0_10_1502
*1456 FILLER_0_10_1506
*1457 FILLER_0_10_703
*1458 FILLER_0_10_715
*1459 FILLER_0_10_727
*1460 FILLER_0_10_729
*1461 FILLER_0_10_740
*1462 FILLER_0_10_746
*1463 FILLER_0_110_1464
*1464 FILLER_0_110_1468
*1465 FILLER_0_110_1480
*1466 FILLER_0_110_1488
*1467 FILLER_0_110_1490
*1468 FILLER_0_110_1502
*1469 FILLER_0_110_1506
*1470 FILLER_0_110_703
*1471 FILLER_0_110_707
*1472 FILLER_0_110_719
*1473 FILLER_0_110_727
*1474 FILLER_0_110_729
*1475 FILLER_0_110_741
*1476 FILLER_0_111_1464
*1477 FILLER_0_111_1476
*1478 FILLER_0_111_1488
*1479 FILLER_0_111_1500
*1480 FILLER_0_111_1506
*1481 FILLER_0_111_703
*1482 FILLER_0_111_715
*1483 FILLER_0_111_727
*1484 FILLER_0_111_739
*1485 FILLER_0_112_1464
*1486 FILLER_0_112_1476
*1487 FILLER_0_112_1488
*1488 FILLER_0_112_1490
*1489 FILLER_0_112_1502
*1490 FILLER_0_112_1506
*1491 FILLER_0_112_703
*1492 FILLER_0_112_715
*1493 FILLER_0_112_727
*1494 FILLER_0_112_729
*1495 FILLER_0_112_741
*1496 FILLER_0_113_1464
*1497 FILLER_0_113_1476
*1498 FILLER_0_113_1488
*1499 FILLER_0_113_1500
*1500 FILLER_0_113_1506
*1501 FILLER_0_113_703
*1502 FILLER_0_113_715
*1503 FILLER_0_113_727
*1504 FILLER_0_113_739
*1505 FILLER_0_114_1464
*1506 FILLER_0_114_1468
*1507 FILLER_0_114_1480
*1508 FILLER_0_114_1488
*1509 FILLER_0_114_1490
*1510 FILLER_0_114_1502
*1511 FILLER_0_114_1506
*1512 FILLER_0_114_703
*1513 FILLER_0_114_707
*1514 FILLER_0_114_719
*1515 FILLER_0_114_727
*1516 FILLER_0_114_729
*1517 FILLER_0_114_741
*1518 FILLER_0_115_1464
*1519 FILLER_0_115_1476
*1520 FILLER_0_115_1488
*1521 FILLER_0_115_1500
*1522 FILLER_0_115_1506
*1523 FILLER_0_115_703
*1524 FILLER_0_115_715
*1525 FILLER_0_115_727
*1526 FILLER_0_115_739
*1527 FILLER_0_116_1464
*1528 FILLER_0_116_1476
*1529 FILLER_0_116_1488
*1530 FILLER_0_116_1490
*1531 FILLER_0_116_1502
*1532 FILLER_0_116_1506
*1533 FILLER_0_116_703
*1534 FILLER_0_116_715
*1535 FILLER_0_116_727
*1536 FILLER_0_116_729
*1537 FILLER_0_116_741
*1538 FILLER_0_117_1464
*1539 FILLER_0_117_1476
*1540 FILLER_0_117_1488
*1541 FILLER_0_117_1500
*1542 FILLER_0_117_1506
*1543 FILLER_0_117_703
*1544 FILLER_0_117_715
*1545 FILLER_0_117_727
*1546 FILLER_0_117_739
*1547 FILLER_0_118_1464
*1548 FILLER_0_118_1468
*1549 FILLER_0_118_1480
*1550 FILLER_0_118_1488
*1551 FILLER_0_118_1490
*1552 FILLER_0_118_1502
*1553 FILLER_0_118_1506
*1554 FILLER_0_118_703
*1555 FILLER_0_118_707
*1556 FILLER_0_118_719
*1557 FILLER_0_118_727
*1558 FILLER_0_118_729
*1559 FILLER_0_118_735
*1560 FILLER_0_119_1464
*1561 FILLER_0_119_1476
*1562 FILLER_0_119_1488
*1563 FILLER_0_119_1500
*1564 FILLER_0_119_1506
*1565 FILLER_0_119_703
*1566 FILLER_0_119_715
*1567 FILLER_0_119_727
*1568 FILLER_0_119_739
*1569 FILLER_0_11_1464
*1570 FILLER_0_11_1476
*1571 FILLER_0_11_1488
*1572 FILLER_0_11_1500
*1573 FILLER_0_11_1506
*1574 FILLER_0_11_703
*1575 FILLER_0_11_715
*1576 FILLER_0_11_727
*1577 FILLER_0_11_739
*1578 FILLER_0_120_1464
*1579 FILLER_0_120_1476
*1580 FILLER_0_120_1488
*1581 FILLER_0_120_1490
*1582 FILLER_0_120_1502
*1583 FILLER_0_120_1506
*1584 FILLER_0_120_703
*1585 FILLER_0_120_715
*1586 FILLER_0_120_727
*1587 FILLER_0_120_729
*1588 FILLER_0_120_741
*1589 FILLER_0_121_1464
*1590 FILLER_0_121_1476
*1591 FILLER_0_121_1488
*1592 FILLER_0_121_1500
*1593 FILLER_0_121_1506
*1594 FILLER_0_121_703
*1595 FILLER_0_121_715
*1596 FILLER_0_121_727
*1597 FILLER_0_121_739
*1598 FILLER_0_122_1464
*1599 FILLER_0_122_1468
*1600 FILLER_0_122_1480
*1601 FILLER_0_122_1488
*1602 FILLER_0_122_1490
*1603 FILLER_0_122_1502
*1604 FILLER_0_122_1506
*1605 FILLER_0_122_703
*1606 FILLER_0_122_707
*1607 FILLER_0_122_719
*1608 FILLER_0_122_727
*1609 FILLER_0_122_729
*1610 FILLER_0_122_741
*1611 FILLER_0_123_1464
*1612 FILLER_0_123_1476
*1613 FILLER_0_123_1488
*1614 FILLER_0_123_1500
*1615 FILLER_0_123_1506
*1616 FILLER_0_123_703
*1617 FILLER_0_123_707
*1618 FILLER_0_123_719
*1619 FILLER_0_123_731
*1620 FILLER_0_123_743
*1621 FILLER_0_124_1464
*1622 FILLER_0_124_1476
*1623 FILLER_0_124_1488
*1624 FILLER_0_124_1490
*1625 FILLER_0_124_1502
*1626 FILLER_0_124_1506
*1627 FILLER_0_124_703
*1628 FILLER_0_124_707
*1629 FILLER_0_124_711
*1630 FILLER_0_124_723
*1631 FILLER_0_124_727
*1632 FILLER_0_124_729
*1633 FILLER_0_124_741
*1634 FILLER_0_125_1464
*1635 FILLER_0_125_1468
*1636 FILLER_0_125_1472
*1637 FILLER_0_125_1484
*1638 FILLER_0_125_1496
*1639 FILLER_0_125_1504
*1640 FILLER_0_125_703
*1641 FILLER_0_125_715
*1642 FILLER_0_125_719
*1643 FILLER_0_125_723
*1644 FILLER_0_125_735
*1645 FILLER_0_125_739
*1646 FILLER_0_125_743
*1647 FILLER_0_126_1464
*1648 FILLER_0_126_1468
*1649 FILLER_0_126_1472
*1650 FILLER_0_126_1476
*1651 FILLER_0_126_1488
*1652 FILLER_0_126_1490
*1653 FILLER_0_126_1502
*1654 FILLER_0_126_1506
*1655 FILLER_0_126_703
*1656 FILLER_0_126_707
*1657 FILLER_0_126_710
*1658 FILLER_0_126_714
*1659 FILLER_0_126_718
*1660 FILLER_0_126_722
*1661 FILLER_0_126_726
*1662 FILLER_0_126_738
*1663 FILLER_0_126_742
*1664 FILLER_0_127_1464
*1665 FILLER_0_127_1468
*1666 FILLER_0_127_1480
*1667 FILLER_0_127_1492
*1668 FILLER_0_127_1504
*1669 FILLER_0_127_703
*1670 FILLER_0_127_708
*1671 FILLER_0_127_712
*1672 FILLER_0_127_716
*1673 FILLER_0_127_736
*1674 FILLER_0_127_740
*1675 FILLER_0_127_744
*1676 FILLER_0_128_1464
*1677 FILLER_0_128_1476
*1678 FILLER_0_128_1488
*1679 FILLER_0_128_1490
*1680 FILLER_0_128_1502
*1681 FILLER_0_128_1506
*1682 FILLER_0_128_712
*1683 FILLER_0_128_716
*1684 FILLER_0_128_720
*1685 FILLER_0_128_724
*1686 FILLER_0_128_729
*1687 FILLER_0_128_735
*1688 FILLER_0_128_739
*1689 FILLER_0_128_743
*1690 FILLER_0_129_1464
*1691 FILLER_0_129_1476
*1692 FILLER_0_129_1488
*1693 FILLER_0_129_1500
*1694 FILLER_0_129_1506
*1695 FILLER_0_129_703
*1696 FILLER_0_129_707
*1697 FILLER_0_129_712
*1698 FILLER_0_129_716
*1699 FILLER_0_129_720
*1700 FILLER_0_129_724
*1701 FILLER_0_129_728
*1702 FILLER_0_129_732
*1703 FILLER_0_129_743
*1704 FILLER_0_12_1464
*1705 FILLER_0_12_1476
*1706 FILLER_0_12_1488
*1707 FILLER_0_12_1490
*1708 FILLER_0_12_1502
*1709 FILLER_0_12_1506
*1710 FILLER_0_12_703
*1711 FILLER_0_12_715
*1712 FILLER_0_12_727
*1713 FILLER_0_12_729
*1714 FILLER_0_12_741
*1715 FILLER_0_130_1464
*1716 FILLER_0_130_1476
*1717 FILLER_0_130_1488
*1718 FILLER_0_130_1490
*1719 FILLER_0_130_1502
*1720 FILLER_0_130_1506
*1721 FILLER_0_130_703
*1722 FILLER_0_130_707
*1723 FILLER_0_130_719
*1724 FILLER_0_130_727
*1725 FILLER_0_130_729
*1726 FILLER_0_130_741
*1727 FILLER_0_131_1464
*1728 FILLER_0_131_1468
*1729 FILLER_0_131_1480
*1730 FILLER_0_131_1492
*1731 FILLER_0_131_1504
*1732 FILLER_0_131_703
*1733 FILLER_0_131_707
*1734 FILLER_0_131_713
*1735 FILLER_0_131_724
*1736 FILLER_0_131_728
*1737 FILLER_0_131_740
*1738 FILLER_0_131_746
*1739 FILLER_0_132_1464
*1740 FILLER_0_132_1476
*1741 FILLER_0_132_1488
*1742 FILLER_0_132_1490
*1743 FILLER_0_132_1502
*1744 FILLER_0_132_1506
*1745 FILLER_0_132_703
*1746 FILLER_0_132_715
*1747 FILLER_0_132_727
*1748 FILLER_0_132_729
*1749 FILLER_0_132_741
*1750 FILLER_0_133_1464
*1751 FILLER_0_133_1476
*1752 FILLER_0_133_1488
*1753 FILLER_0_133_1500
*1754 FILLER_0_133_1506
*1755 FILLER_0_133_703
*1756 FILLER_0_133_707
*1757 FILLER_0_133_711
*1758 FILLER_0_133_723
*1759 FILLER_0_133_735
*1760 FILLER_0_134_1464
*1761 FILLER_0_134_1476
*1762 FILLER_0_134_1488
*1763 FILLER_0_134_1490
*1764 FILLER_0_134_1502
*1765 FILLER_0_134_1506
*1766 FILLER_0_134_703
*1767 FILLER_0_134_709
*1768 FILLER_0_134_720
*1769 FILLER_0_134_724
*1770 FILLER_0_134_729
*1771 FILLER_0_134_733
*1772 FILLER_0_134_737
*1773 FILLER_0_134_741
*1774 FILLER_0_135_1464
*1775 FILLER_0_135_1468
*1776 FILLER_0_135_1480
*1777 FILLER_0_135_1492
*1778 FILLER_0_135_1504
*1779 FILLER_0_135_703
*1780 FILLER_0_135_707
*1781 FILLER_0_135_711
*1782 FILLER_0_135_719
*1783 FILLER_0_135_724
*1784 FILLER_0_135_735
*1785 FILLER_0_135_739
*1786 FILLER_0_135_743
*1787 FILLER_0_136_1464
*1788 FILLER_0_136_1476
*1789 FILLER_0_136_1488
*1790 FILLER_0_136_1490
*1791 FILLER_0_136_1502
*1792 FILLER_0_136_1506
*1793 FILLER_0_136_703
*1794 FILLER_0_136_711
*1795 FILLER_0_136_714
*1796 FILLER_0_136_718
*1797 FILLER_0_136_722
*1798 FILLER_0_136_726
*1799 FILLER_0_136_729
*1800 FILLER_0_136_733
*1801 FILLER_0_136_736
*1802 FILLER_0_137_1464
*1803 FILLER_0_137_1476
*1804 FILLER_0_137_1488
*1805 FILLER_0_137_1500
*1806 FILLER_0_137_1506
*1807 FILLER_0_137_723
*1808 FILLER_0_137_735
*1809 FILLER_0_137_743
*1810 FILLER_0_138_1464
*1811 FILLER_0_138_1476
*1812 FILLER_0_138_1488
*1813 FILLER_0_138_1490
*1814 FILLER_0_138_1502
*1815 FILLER_0_138_1506
*1816 FILLER_0_138_703
*1817 FILLER_0_138_707
*1818 FILLER_0_138_719
*1819 FILLER_0_138_727
*1820 FILLER_0_138_729
*1821 FILLER_0_138_741
*1822 FILLER_0_139_1464
*1823 FILLER_0_139_1468
*1824 FILLER_0_139_1480
*1825 FILLER_0_139_1492
*1826 FILLER_0_139_1504
*1827 FILLER_0_139_703
*1828 FILLER_0_139_707
*1829 FILLER_0_139_711
*1830 FILLER_0_139_715
*1831 FILLER_0_139_727
*1832 FILLER_0_139_739
*1833 FILLER_0_13_1464
*1834 FILLER_0_13_1476
*1835 FILLER_0_13_1488
*1836 FILLER_0_13_1500
*1837 FILLER_0_13_1506
*1838 FILLER_0_13_703
*1839 FILLER_0_13_715
*1840 FILLER_0_13_727
*1841 FILLER_0_13_739
*1842 FILLER_0_140_1464
*1843 FILLER_0_140_1476
*1844 FILLER_0_140_1488
*1845 FILLER_0_140_1490
*1846 FILLER_0_140_1502
*1847 FILLER_0_140_1506
*1848 FILLER_0_140_703
*1849 FILLER_0_140_709
*1850 FILLER_0_140_720
*1851 FILLER_0_140_724
*1852 FILLER_0_140_729
*1853 FILLER_0_140_733
*1854 FILLER_0_140_737
*1855 FILLER_0_140_741
*1856 FILLER_0_141_1464
*1857 FILLER_0_141_1476
*1858 FILLER_0_141_1488
*1859 FILLER_0_141_1500
*1860 FILLER_0_141_1506
*1861 FILLER_0_141_703
*1862 FILLER_0_141_707
*1863 FILLER_0_141_711
*1864 FILLER_0_141_715
*1865 FILLER_0_141_719
*1866 FILLER_0_141_723
*1867 FILLER_0_141_727
*1868 FILLER_0_142_1464
*1869 FILLER_0_142_1476
*1870 FILLER_0_142_1488
*1871 FILLER_0_142_1490
*1872 FILLER_0_142_1502
*1873 FILLER_0_142_1506
*1874 FILLER_0_142_703
*1875 FILLER_0_142_707
*1876 FILLER_0_142_711
*1877 FILLER_0_142_723
*1878 FILLER_0_142_727
*1879 FILLER_0_142_729
*1880 FILLER_0_142_739
*1881 FILLER_0_142_743
*1882 FILLER_0_143_1464
*1883 FILLER_0_143_1468
*1884 FILLER_0_143_1480
*1885 FILLER_0_143_1492
*1886 FILLER_0_143_1504
*1887 FILLER_0_143_712
*1888 FILLER_0_143_716
*1889 FILLER_0_143_720
*1890 FILLER_0_143_724
*1891 FILLER_0_143_736
*1892 FILLER_0_143_744
*1893 FILLER_0_144_1464
*1894 FILLER_0_144_1476
*1895 FILLER_0_144_1488
*1896 FILLER_0_144_1490
*1897 FILLER_0_144_1502
*1898 FILLER_0_144_1506
*1899 FILLER_0_144_703
*1900 FILLER_0_144_707
*1901 FILLER_0_144_711
*1902 FILLER_0_144_723
*1903 FILLER_0_144_727
*1904 FILLER_0_144_729
*1905 FILLER_0_144_741
*1906 FILLER_0_145_1464
*1907 FILLER_0_145_1476
*1908 FILLER_0_145_1488
*1909 FILLER_0_145_1500
*1910 FILLER_0_145_1506
*1911 FILLER_0_145_703
*1912 FILLER_0_145_707
*1913 FILLER_0_145_719
*1914 FILLER_0_145_731
*1915 FILLER_0_145_743
*1916 FILLER_0_146_1464
*1917 FILLER_0_146_1476
*1918 FILLER_0_146_1488
*1919 FILLER_0_146_1490
*1920 FILLER_0_146_1502
*1921 FILLER_0_146_1506
*1922 FILLER_0_146_712
*1923 FILLER_0_146_716
*1924 FILLER_0_146_720
*1925 FILLER_0_146_724
*1926 FILLER_0_146_729
*1927 FILLER_0_146_741
*1928 FILLER_0_147_1464
*1929 FILLER_0_147_1468
*1930 FILLER_0_147_1480
*1931 FILLER_0_147_1492
*1932 FILLER_0_147_1504
*1933 FILLER_0_147_703
*1934 FILLER_0_147_707
*1935 FILLER_0_147_711
*1936 FILLER_0_147_723
*1937 FILLER_0_147_735
*1938 FILLER_0_148_1464
*1939 FILLER_0_148_1476
*1940 FILLER_0_148_1488
*1941 FILLER_0_148_1490
*1942 FILLER_0_148_1502
*1943 FILLER_0_148_1506
*1944 FILLER_0_148_703
*1945 FILLER_0_148_715
*1946 FILLER_0_148_727
*1947 FILLER_0_148_729
*1948 FILLER_0_148_741
*1949 FILLER_0_149_1464
*1950 FILLER_0_149_1476
*1951 FILLER_0_149_1488
*1952 FILLER_0_149_1500
*1953 FILLER_0_149_1506
*1954 FILLER_0_149_703
*1955 FILLER_0_149_715
*1956 FILLER_0_149_727
*1957 FILLER_0_149_739
*1958 FILLER_0_14_1464
*1959 FILLER_0_14_1476
*1960 FILLER_0_14_1488
*1961 FILLER_0_14_1490
*1962 FILLER_0_14_1502
*1963 FILLER_0_14_1506
*1964 FILLER_0_14_703
*1965 FILLER_0_14_715
*1966 FILLER_0_14_727
*1967 FILLER_0_14_729
*1968 FILLER_0_14_741
*1969 FILLER_0_150_1464
*1970 FILLER_0_150_1476
*1971 FILLER_0_150_1488
*1972 FILLER_0_150_1490
*1973 FILLER_0_150_1502
*1974 FILLER_0_150_1506
*1975 FILLER_0_150_703
*1976 FILLER_0_150_715
*1977 FILLER_0_150_727
*1978 FILLER_0_150_729
*1979 FILLER_0_150_741
*1980 FILLER_0_151_1464
*1981 FILLER_0_151_1468
*1982 FILLER_0_151_1480
*1983 FILLER_0_151_1492
*1984 FILLER_0_151_1504
*1985 FILLER_0_151_703
*1986 FILLER_0_151_707
*1987 FILLER_0_151_719
*1988 FILLER_0_151_731
*1989 FILLER_0_151_743
*1990 FILLER_0_152_1464
*1991 FILLER_0_152_1476
*1992 FILLER_0_152_1488
*1993 FILLER_0_152_1490
*1994 FILLER_0_152_1502
*1995 FILLER_0_152_1506
*1996 FILLER_0_152_703
*1997 FILLER_0_152_715
*1998 FILLER_0_152_727
*1999 FILLER_0_152_729
*2000 FILLER_0_152_741
*2001 FILLER_0_153_1464
*2002 FILLER_0_153_1476
*2003 FILLER_0_153_1488
*2004 FILLER_0_153_1500
*2005 FILLER_0_153_1506
*2006 FILLER_0_153_703
*2007 FILLER_0_153_715
*2008 FILLER_0_153_727
*2009 FILLER_0_153_739
*2010 FILLER_0_154_1464
*2011 FILLER_0_154_1476
*2012 FILLER_0_154_1488
*2013 FILLER_0_154_1490
*2014 FILLER_0_154_1502
*2015 FILLER_0_154_1506
*2016 FILLER_0_154_703
*2017 FILLER_0_154_715
*2018 FILLER_0_154_727
*2019 FILLER_0_154_729
*2020 FILLER_0_154_741
*2021 FILLER_0_155_1464
*2022 FILLER_0_155_1476
*2023 FILLER_0_155_1488
*2024 FILLER_0_155_1500
*2025 FILLER_0_155_1506
*2026 FILLER_0_155_703
*2027 FILLER_0_155_715
*2028 FILLER_0_155_727
*2029 FILLER_0_155_739
*2030 FILLER_0_156_1464
*2031 FILLER_0_156_1476
*2032 FILLER_0_156_1488
*2033 FILLER_0_156_1490
*2034 FILLER_0_156_1502
*2035 FILLER_0_156_1506
*2036 FILLER_0_156_703
*2037 FILLER_0_156_715
*2038 FILLER_0_156_727
*2039 FILLER_0_156_729
*2040 FILLER_0_156_741
*2041 FILLER_0_157_1464
*2042 FILLER_0_157_1476
*2043 FILLER_0_157_1488
*2044 FILLER_0_157_1500
*2045 FILLER_0_157_1506
*2046 FILLER_0_157_703
*2047 FILLER_0_157_715
*2048 FILLER_0_157_727
*2049 FILLER_0_157_739
*2050 FILLER_0_158_1464
*2051 FILLER_0_158_1476
*2052 FILLER_0_158_1488
*2053 FILLER_0_158_1490
*2054 FILLER_0_158_1502
*2055 FILLER_0_158_1506
*2056 FILLER_0_158_703
*2057 FILLER_0_158_715
*2058 FILLER_0_158_727
*2059 FILLER_0_158_729
*2060 FILLER_0_158_741
*2061 FILLER_0_159_1003
*2062 FILLER_0_159_1007
*2063 FILLER_0_159_1009
*2064 FILLER_0_159_1013
*2065 FILLER_0_159_1017
*2066 FILLER_0_159_1021
*2067 FILLER_0_159_1025
*2068 FILLER_0_159_1029
*2069 FILLER_0_159_1035
*2070 FILLER_0_159_1057
*2071 FILLER_0_159_1061
*2072 FILLER_0_159_1065
*2073 FILLER_0_159_1070
*2074 FILLER_0_159_1075
*2075 FILLER_0_159_1080
*2076 FILLER_0_159_109
*2077 FILLER_0_159_1093
*2078 FILLER_0_159_1101
*2079 FILLER_0_159_1105
*2080 FILLER_0_159_1109
*2081 FILLER_0_159_1113
*2082 FILLER_0_159_1117
*2083 FILLER_0_159_1121
*2084 FILLER_0_159_113
*2085 FILLER_0_159_1133
*2086 FILLER_0_159_1141
*2087 FILLER_0_159_1144
*2088 FILLER_0_159_1149
*2089 FILLER_0_159_1161
*2090 FILLER_0_159_1173
*2091 FILLER_0_159_1177
*2092 FILLER_0_159_1182
*2093 FILLER_0_159_1186
*2094 FILLER_0_159_1190
*2095 FILLER_0_159_1194
*2096 FILLER_0_159_1198
*2097 FILLER_0_159_1202
*2098 FILLER_0_159_1217
*2099 FILLER_0_159_1221
*2100 FILLER_0_159_1225
*2101 FILLER_0_159_1229
*2102 FILLER_0_159_1233
*2103 FILLER_0_159_1249
*2104 FILLER_0_159_125
*2105 FILLER_0_159_1253
*2106 FILLER_0_159_1257
*2107 FILLER_0_159_1261
*2108 FILLER_0_159_1273
*2109 FILLER_0_159_1285
*2110 FILLER_0_159_1289
*2111 FILLER_0_159_1294
*2112 FILLER_0_159_1308
*2113 FILLER_0_159_1312
*2114 FILLER_0_159_1317
*2115 FILLER_0_159_1329
*2116 FILLER_0_159_1341
*2117 FILLER_0_159_1345
*2118 FILLER_0_159_1357
*2119 FILLER_0_159_1369
*2120 FILLER_0_159_137
*2121 FILLER_0_159_1373
*2122 FILLER_0_159_1385
*2123 FILLER_0_159_1397
*2124 FILLER_0_159_1401
*2125 FILLER_0_159_141
*2126 FILLER_0_159_1413
*2127 FILLER_0_159_1425
*2128 FILLER_0_159_1429
*2129 FILLER_0_159_1441
*2130 FILLER_0_159_1453
*2131 FILLER_0_159_1457
*2132 FILLER_0_159_1469
*2133 FILLER_0_159_1481
*2134 FILLER_0_159_1485
*2135 FILLER_0_159_1497
*2136 FILLER_0_159_15
*2137 FILLER_0_159_1505
*2138 FILLER_0_159_153
*2139 FILLER_0_159_165
*2140 FILLER_0_159_169
*2141 FILLER_0_159_181
*2142 FILLER_0_159_193
*2143 FILLER_0_159_197
*2144 FILLER_0_159_209
*2145 FILLER_0_159_221
*2146 FILLER_0_159_225
*2147 FILLER_0_159_237
*2148 FILLER_0_159_249
*2149 FILLER_0_159_253
*2150 FILLER_0_159_265
*2151 FILLER_0_159_27
*2152 FILLER_0_159_277
*2153 FILLER_0_159_281
*2154 FILLER_0_159_29
*2155 FILLER_0_159_293
*2156 FILLER_0_159_3
*2157 FILLER_0_159_305
*2158 FILLER_0_159_309
*2159 FILLER_0_159_321
*2160 FILLER_0_159_333
*2161 FILLER_0_159_337
*2162 FILLER_0_159_349
*2163 FILLER_0_159_361
*2164 FILLER_0_159_365
*2165 FILLER_0_159_377
*2166 FILLER_0_159_389
*2167 FILLER_0_159_393
*2168 FILLER_0_159_405
*2169 FILLER_0_159_41
*2170 FILLER_0_159_417
*2171 FILLER_0_159_421
*2172 FILLER_0_159_433
*2173 FILLER_0_159_445
*2174 FILLER_0_159_449
*2175 FILLER_0_159_461
*2176 FILLER_0_159_473
*2177 FILLER_0_159_477
*2178 FILLER_0_159_489
*2179 FILLER_0_159_501
*2180 FILLER_0_159_505
*2181 FILLER_0_159_517
*2182 FILLER_0_159_529
*2183 FILLER_0_159_53
*2184 FILLER_0_159_545
*2185 FILLER_0_159_549
*2186 FILLER_0_159_557
*2187 FILLER_0_159_561
*2188 FILLER_0_159_57
*2189 FILLER_0_159_574
*2190 FILLER_0_159_578
*2191 FILLER_0_159_586
*2192 FILLER_0_159_589
*2193 FILLER_0_159_601
*2194 FILLER_0_159_613
*2195 FILLER_0_159_617
*2196 FILLER_0_159_629
*2197 FILLER_0_159_641
*2198 FILLER_0_159_645
*2199 FILLER_0_159_657
*2200 FILLER_0_159_669
*2201 FILLER_0_159_673
*2202 FILLER_0_159_685
*2203 FILLER_0_159_69
*2204 FILLER_0_159_697
*2205 FILLER_0_159_701
*2206 FILLER_0_159_713
*2207 FILLER_0_159_725
*2208 FILLER_0_159_729
*2209 FILLER_0_159_741
*2210 FILLER_0_159_753
*2211 FILLER_0_159_757
*2212 FILLER_0_159_769
*2213 FILLER_0_159_781
*2214 FILLER_0_159_785
*2215 FILLER_0_159_797
*2216 FILLER_0_159_809
*2217 FILLER_0_159_81
*2218 FILLER_0_159_813
*2219 FILLER_0_159_825
*2220 FILLER_0_159_837
*2221 FILLER_0_159_841
*2222 FILLER_0_159_85
*2223 FILLER_0_159_853
*2224 FILLER_0_159_865
*2225 FILLER_0_159_869
*2226 FILLER_0_159_881
*2227 FILLER_0_159_893
*2228 FILLER_0_159_897
*2229 FILLER_0_159_903
*2230 FILLER_0_159_906
*2231 FILLER_0_159_910
*2232 FILLER_0_159_914
*2233 FILLER_0_159_918
*2234 FILLER_0_159_922
*2235 FILLER_0_159_925
*2236 FILLER_0_159_940
*2237 FILLER_0_159_944
*2238 FILLER_0_159_948
*2239 FILLER_0_159_953
*2240 FILLER_0_159_957
*2241 FILLER_0_159_961
*2242 FILLER_0_159_965
*2243 FILLER_0_159_97
*2244 FILLER_0_159_970
*2245 FILLER_0_159_974
*2246 FILLER_0_159_978
*2247 FILLER_0_159_981
*2248 FILLER_0_159_985
*2249 FILLER_0_159_989
*2250 FILLER_0_15_1464
*2251 FILLER_0_15_1476
*2252 FILLER_0_15_1488
*2253 FILLER_0_15_1500
*2254 FILLER_0_15_1506
*2255 FILLER_0_15_712
*2256 FILLER_0_15_724
*2257 FILLER_0_15_736
*2258 FILLER_0_15_744
*2259 FILLER_0_160_1005
*2260 FILLER_0_160_1013
*2261 FILLER_0_160_1018
*2262 FILLER_0_160_1022
*2263 FILLER_0_160_1026
*2264 FILLER_0_160_1030
*2265 FILLER_0_160_1034
*2266 FILLER_0_160_1037
*2267 FILLER_0_160_1041
*2268 FILLER_0_160_1054
*2269 FILLER_0_160_1058
*2270 FILLER_0_160_1062
*2271 FILLER_0_160_1066
*2272 FILLER_0_160_1070
*2273 FILLER_0_160_1073
*2274 FILLER_0_160_1087
*2275 FILLER_0_160_109
*2276 FILLER_0_160_1091
*2277 FILLER_0_160_1093
*2278 FILLER_0_160_1097
*2279 FILLER_0_160_1101
*2280 FILLER_0_160_1118
*2281 FILLER_0_160_1122
*2282 FILLER_0_160_1126
*2283 FILLER_0_160_1130
*2284 FILLER_0_160_1134
*2285 FILLER_0_160_1138
*2286 FILLER_0_160_1142
*2287 FILLER_0_160_1146
*2288 FILLER_0_160_1161
*2289 FILLER_0_160_1165
*2290 FILLER_0_160_1169
*2291 FILLER_0_160_1173
*2292 FILLER_0_160_1177
*2293 FILLER_0_160_1181
*2294 FILLER_0_160_1185
*2295 FILLER_0_160_1189
*2296 FILLER_0_160_1193
*2297 FILLER_0_160_1197
*2298 FILLER_0_160_1201
*2299 FILLER_0_160_1205
*2300 FILLER_0_160_121
*2301 FILLER_0_160_1217
*2302 FILLER_0_160_1229
*2303 FILLER_0_160_1243
*2304 FILLER_0_160_1255
*2305 FILLER_0_160_1259
*2306 FILLER_0_160_1261
*2307 FILLER_0_160_1273
*2308 FILLER_0_160_1285
*2309 FILLER_0_160_1297
*2310 FILLER_0_160_1309
*2311 FILLER_0_160_1315
*2312 FILLER_0_160_1317
*2313 FILLER_0_160_1329
*2314 FILLER_0_160_133
*2315 FILLER_0_160_1341
*2316 FILLER_0_160_1353
*2317 FILLER_0_160_1365
*2318 FILLER_0_160_1371
*2319 FILLER_0_160_1373
*2320 FILLER_0_160_1385
*2321 FILLER_0_160_139
*2322 FILLER_0_160_1397
*2323 FILLER_0_160_1409
*2324 FILLER_0_160_141
*2325 FILLER_0_160_1421
*2326 FILLER_0_160_1427
*2327 FILLER_0_160_1429
*2328 FILLER_0_160_1441
*2329 FILLER_0_160_1453
*2330 FILLER_0_160_1465
*2331 FILLER_0_160_1477
*2332 FILLER_0_160_1483
*2333 FILLER_0_160_1485
*2334 FILLER_0_160_1497
*2335 FILLER_0_160_15
*2336 FILLER_0_160_1505
*2337 FILLER_0_160_153
*2338 FILLER_0_160_165
*2339 FILLER_0_160_177
*2340 FILLER_0_160_189
*2341 FILLER_0_160_195
*2342 FILLER_0_160_197
*2343 FILLER_0_160_209
*2344 FILLER_0_160_221
*2345 FILLER_0_160_233
*2346 FILLER_0_160_245
*2347 FILLER_0_160_251
*2348 FILLER_0_160_253
*2349 FILLER_0_160_265
*2350 FILLER_0_160_27
*2351 FILLER_0_160_277
*2352 FILLER_0_160_289
*2353 FILLER_0_160_29
*2354 FILLER_0_160_3
*2355 FILLER_0_160_301
*2356 FILLER_0_160_307
*2357 FILLER_0_160_309
*2358 FILLER_0_160_321
*2359 FILLER_0_160_333
*2360 FILLER_0_160_345
*2361 FILLER_0_160_357
*2362 FILLER_0_160_363
*2363 FILLER_0_160_365
*2364 FILLER_0_160_377
*2365 FILLER_0_160_389
*2366 FILLER_0_160_401
*2367 FILLER_0_160_41
*2368 FILLER_0_160_413
*2369 FILLER_0_160_419
*2370 FILLER_0_160_421
*2371 FILLER_0_160_433
*2372 FILLER_0_160_445
*2373 FILLER_0_160_457
*2374 FILLER_0_160_469
*2375 FILLER_0_160_475
*2376 FILLER_0_160_477
*2377 FILLER_0_160_489
*2378 FILLER_0_160_501
*2379 FILLER_0_160_513
*2380 FILLER_0_160_525
*2381 FILLER_0_160_53
*2382 FILLER_0_160_531
*2383 FILLER_0_160_533
*2384 FILLER_0_160_545
*2385 FILLER_0_160_557
*2386 FILLER_0_160_569
*2387 FILLER_0_160_581
*2388 FILLER_0_160_587
*2389 FILLER_0_160_589
*2390 FILLER_0_160_593
*2391 FILLER_0_160_604
*2392 FILLER_0_160_608
*2393 FILLER_0_160_612
*2394 FILLER_0_160_624
*2395 FILLER_0_160_636
*2396 FILLER_0_160_645
*2397 FILLER_0_160_65
*2398 FILLER_0_160_657
*2399 FILLER_0_160_669
*2400 FILLER_0_160_681
*2401 FILLER_0_160_693
*2402 FILLER_0_160_699
*2403 FILLER_0_160_701
*2404 FILLER_0_160_713
*2405 FILLER_0_160_725
*2406 FILLER_0_160_737
*2407 FILLER_0_160_749
*2408 FILLER_0_160_755
*2409 FILLER_0_160_757
*2410 FILLER_0_160_769
*2411 FILLER_0_160_77
*2412 FILLER_0_160_781
*2413 FILLER_0_160_793
*2414 FILLER_0_160_805
*2415 FILLER_0_160_811
*2416 FILLER_0_160_813
*2417 FILLER_0_160_825
*2418 FILLER_0_160_83
*2419 FILLER_0_160_837
*2420 FILLER_0_160_849
*2421 FILLER_0_160_85
*2422 FILLER_0_160_861
*2423 FILLER_0_160_867
*2424 FILLER_0_160_869
*2425 FILLER_0_160_881
*2426 FILLER_0_160_893
*2427 FILLER_0_160_905
*2428 FILLER_0_160_917
*2429 FILLER_0_160_923
*2430 FILLER_0_160_925
*2431 FILLER_0_160_937
*2432 FILLER_0_160_949
*2433 FILLER_0_160_961
*2434 FILLER_0_160_966
*2435 FILLER_0_160_97
*2436 FILLER_0_160_978
*2437 FILLER_0_160_981
*2438 FILLER_0_160_993
*2439 FILLER_0_161_1002
*2440 FILLER_0_161_1006
*2441 FILLER_0_161_1009
*2442 FILLER_0_161_1013
*2443 FILLER_0_161_1016
*2444 FILLER_0_161_1030
*2445 FILLER_0_161_1034
*2446 FILLER_0_161_1038
*2447 FILLER_0_161_1042
*2448 FILLER_0_161_1046
*2449 FILLER_0_161_105
*2450 FILLER_0_161_1050
*2451 FILLER_0_161_1054
*2452 FILLER_0_161_1062
*2453 FILLER_0_161_1065
*2454 FILLER_0_161_1077
*2455 FILLER_0_161_1089
*2456 FILLER_0_161_1101
*2457 FILLER_0_161_1109
*2458 FILLER_0_161_111
*2459 FILLER_0_161_1113
*2460 FILLER_0_161_1117
*2461 FILLER_0_161_1121
*2462 FILLER_0_161_113
*2463 FILLER_0_161_1133
*2464 FILLER_0_161_1141
*2465 FILLER_0_161_1144
*2466 FILLER_0_161_1148
*2467 FILLER_0_161_1152
*2468 FILLER_0_161_1166
*2469 FILLER_0_161_1170
*2470 FILLER_0_161_1174
*2471 FILLER_0_161_1189
*2472 FILLER_0_161_1193
*2473 FILLER_0_161_1197
*2474 FILLER_0_161_1201
*2475 FILLER_0_161_1209
*2476 FILLER_0_161_1223
*2477 FILLER_0_161_1227
*2478 FILLER_0_161_1231
*2479 FILLER_0_161_1233
*2480 FILLER_0_161_1247
*2481 FILLER_0_161_125
*2482 FILLER_0_161_1261
*2483 FILLER_0_161_1265
*2484 FILLER_0_161_1277
*2485 FILLER_0_161_1285
*2486 FILLER_0_161_1289
*2487 FILLER_0_161_1301
*2488 FILLER_0_161_1313
*2489 FILLER_0_161_1325
*2490 FILLER_0_161_1337
*2491 FILLER_0_161_1343
*2492 FILLER_0_161_1345
*2493 FILLER_0_161_1357
*2494 FILLER_0_161_1369
*2495 FILLER_0_161_137
*2496 FILLER_0_161_1381
*2497 FILLER_0_161_1393
*2498 FILLER_0_161_1399
*2499 FILLER_0_161_1401
*2500 FILLER_0_161_1413
*2501 FILLER_0_161_1425
*2502 FILLER_0_161_1437
*2503 FILLER_0_161_1449
*2504 FILLER_0_161_1455
*2505 FILLER_0_161_1457
*2506 FILLER_0_161_1469
*2507 FILLER_0_161_1481
*2508 FILLER_0_161_149
*2509 FILLER_0_161_1493
*2510 FILLER_0_161_15
*2511 FILLER_0_161_1505
*2512 FILLER_0_161_161
*2513 FILLER_0_161_167
*2514 FILLER_0_161_169
*2515 FILLER_0_161_181
*2516 FILLER_0_161_193
*2517 FILLER_0_161_205
*2518 FILLER_0_161_217
*2519 FILLER_0_161_223
*2520 FILLER_0_161_225
*2521 FILLER_0_161_237
*2522 FILLER_0_161_249
*2523 FILLER_0_161_261
*2524 FILLER_0_161_27
*2525 FILLER_0_161_273
*2526 FILLER_0_161_279
*2527 FILLER_0_161_281
*2528 FILLER_0_161_293
*2529 FILLER_0_161_3
*2530 FILLER_0_161_305
*2531 FILLER_0_161_317
*2532 FILLER_0_161_329
*2533 FILLER_0_161_335
*2534 FILLER_0_161_337
*2535 FILLER_0_161_349
*2536 FILLER_0_161_361
*2537 FILLER_0_161_373
*2538 FILLER_0_161_385
*2539 FILLER_0_161_39
*2540 FILLER_0_161_391
*2541 FILLER_0_161_393
*2542 FILLER_0_161_405
*2543 FILLER_0_161_417
*2544 FILLER_0_161_429
*2545 FILLER_0_161_441
*2546 FILLER_0_161_447
*2547 FILLER_0_161_449
*2548 FILLER_0_161_461
*2549 FILLER_0_161_473
*2550 FILLER_0_161_485
*2551 FILLER_0_161_497
*2552 FILLER_0_161_503
*2553 FILLER_0_161_505
*2554 FILLER_0_161_51
*2555 FILLER_0_161_517
*2556 FILLER_0_161_529
*2557 FILLER_0_161_541
*2558 FILLER_0_161_55
*2559 FILLER_0_161_553
*2560 FILLER_0_161_559
*2561 FILLER_0_161_561
*2562 FILLER_0_161_57
*2563 FILLER_0_161_573
*2564 FILLER_0_161_585
*2565 FILLER_0_161_597
*2566 FILLER_0_161_609
*2567 FILLER_0_161_615
*2568 FILLER_0_161_617
*2569 FILLER_0_161_629
*2570 FILLER_0_161_641
*2571 FILLER_0_161_653
*2572 FILLER_0_161_665
*2573 FILLER_0_161_671
*2574 FILLER_0_161_673
*2575 FILLER_0_161_685
*2576 FILLER_0_161_69
*2577 FILLER_0_161_697
*2578 FILLER_0_161_709
*2579 FILLER_0_161_721
*2580 FILLER_0_161_727
*2581 FILLER_0_161_729
*2582 FILLER_0_161_741
*2583 FILLER_0_161_753
*2584 FILLER_0_161_765
*2585 FILLER_0_161_777
*2586 FILLER_0_161_783
*2587 FILLER_0_161_785
*2588 FILLER_0_161_797
*2589 FILLER_0_161_809
*2590 FILLER_0_161_81
*2591 FILLER_0_161_821
*2592 FILLER_0_161_833
*2593 FILLER_0_161_839
*2594 FILLER_0_161_841
*2595 FILLER_0_161_853
*2596 FILLER_0_161_865
*2597 FILLER_0_161_877
*2598 FILLER_0_161_889
*2599 FILLER_0_161_895
*2600 FILLER_0_161_897
*2601 FILLER_0_161_909
*2602 FILLER_0_161_921
*2603 FILLER_0_161_93
*2604 FILLER_0_161_931
*2605 FILLER_0_161_935
*2606 FILLER_0_161_945
*2607 FILLER_0_161_951
*2608 FILLER_0_161_953
*2609 FILLER_0_161_965
*2610 FILLER_0_161_977
*2611 FILLER_0_161_989
*2612 FILLER_0_161_995
*2613 FILLER_0_161_998
*2614 FILLER_0_162_1005
*2615 FILLER_0_162_1017
*2616 FILLER_0_162_1029
*2617 FILLER_0_162_1035
*2618 FILLER_0_162_1037
*2619 FILLER_0_162_1049
*2620 FILLER_0_162_1061
*2621 FILLER_0_162_1073
*2622 FILLER_0_162_1085
*2623 FILLER_0_162_109
*2624 FILLER_0_162_1091
*2625 FILLER_0_162_1093
*2626 FILLER_0_162_1105
*2627 FILLER_0_162_1113
*2628 FILLER_0_162_1125
*2629 FILLER_0_162_1137
*2630 FILLER_0_162_1145
*2631 FILLER_0_162_1149
*2632 FILLER_0_162_1161
*2633 FILLER_0_162_1173
*2634 FILLER_0_162_1187
*2635 FILLER_0_162_1199
*2636 FILLER_0_162_1203
*2637 FILLER_0_162_1205
*2638 FILLER_0_162_121
*2639 FILLER_0_162_1217
*2640 FILLER_0_162_1229
*2641 FILLER_0_162_1241
*2642 FILLER_0_162_1253
*2643 FILLER_0_162_1259
*2644 FILLER_0_162_1261
*2645 FILLER_0_162_1273
*2646 FILLER_0_162_1285
*2647 FILLER_0_162_1297
*2648 FILLER_0_162_1309
*2649 FILLER_0_162_1315
*2650 FILLER_0_162_1317
*2651 FILLER_0_162_1329
*2652 FILLER_0_162_133
*2653 FILLER_0_162_1341
*2654 FILLER_0_162_1353
*2655 FILLER_0_162_1365
*2656 FILLER_0_162_1371
*2657 FILLER_0_162_1373
*2658 FILLER_0_162_1385
*2659 FILLER_0_162_139
*2660 FILLER_0_162_1397
*2661 FILLER_0_162_1409
*2662 FILLER_0_162_141
*2663 FILLER_0_162_1421
*2664 FILLER_0_162_1427
*2665 FILLER_0_162_1429
*2666 FILLER_0_162_1441
*2667 FILLER_0_162_1453
*2668 FILLER_0_162_1465
*2669 FILLER_0_162_1477
*2670 FILLER_0_162_1483
*2671 FILLER_0_162_1485
*2672 FILLER_0_162_1497
*2673 FILLER_0_162_15
*2674 FILLER_0_162_1505
*2675 FILLER_0_162_153
*2676 FILLER_0_162_165
*2677 FILLER_0_162_177
*2678 FILLER_0_162_189
*2679 FILLER_0_162_195
*2680 FILLER_0_162_197
*2681 FILLER_0_162_209
*2682 FILLER_0_162_221
*2683 FILLER_0_162_233
*2684 FILLER_0_162_245
*2685 FILLER_0_162_251
*2686 FILLER_0_162_253
*2687 FILLER_0_162_265
*2688 FILLER_0_162_27
*2689 FILLER_0_162_277
*2690 FILLER_0_162_289
*2691 FILLER_0_162_29
*2692 FILLER_0_162_3
*2693 FILLER_0_162_301
*2694 FILLER_0_162_307
*2695 FILLER_0_162_309
*2696 FILLER_0_162_321
*2697 FILLER_0_162_333
*2698 FILLER_0_162_345
*2699 FILLER_0_162_357
*2700 FILLER_0_162_363
*2701 FILLER_0_162_365
*2702 FILLER_0_162_377
*2703 FILLER_0_162_389
*2704 FILLER_0_162_401
*2705 FILLER_0_162_41
*2706 FILLER_0_162_413
*2707 FILLER_0_162_419
*2708 FILLER_0_162_421
*2709 FILLER_0_162_433
*2710 FILLER_0_162_445
*2711 FILLER_0_162_457
*2712 FILLER_0_162_469
*2713 FILLER_0_162_475
*2714 FILLER_0_162_477
*2715 FILLER_0_162_489
*2716 FILLER_0_162_501
*2717 FILLER_0_162_513
*2718 FILLER_0_162_525
*2719 FILLER_0_162_53
*2720 FILLER_0_162_531
*2721 FILLER_0_162_533
*2722 FILLER_0_162_545
*2723 FILLER_0_162_557
*2724 FILLER_0_162_569
*2725 FILLER_0_162_575
*2726 FILLER_0_162_589
*2727 FILLER_0_162_601
*2728 FILLER_0_162_613
*2729 FILLER_0_162_625
*2730 FILLER_0_162_637
*2731 FILLER_0_162_643
*2732 FILLER_0_162_645
*2733 FILLER_0_162_65
*2734 FILLER_0_162_657
*2735 FILLER_0_162_669
*2736 FILLER_0_162_681
*2737 FILLER_0_162_693
*2738 FILLER_0_162_699
*2739 FILLER_0_162_701
*2740 FILLER_0_162_713
*2741 FILLER_0_162_725
*2742 FILLER_0_162_737
*2743 FILLER_0_162_749
*2744 FILLER_0_162_755
*2745 FILLER_0_162_757
*2746 FILLER_0_162_769
*2747 FILLER_0_162_77
*2748 FILLER_0_162_781
*2749 FILLER_0_162_793
*2750 FILLER_0_162_805
*2751 FILLER_0_162_811
*2752 FILLER_0_162_813
*2753 FILLER_0_162_825
*2754 FILLER_0_162_83
*2755 FILLER_0_162_837
*2756 FILLER_0_162_849
*2757 FILLER_0_162_85
*2758 FILLER_0_162_861
*2759 FILLER_0_162_867
*2760 FILLER_0_162_869
*2761 FILLER_0_162_881
*2762 FILLER_0_162_893
*2763 FILLER_0_162_905
*2764 FILLER_0_162_917
*2765 FILLER_0_162_923
*2766 FILLER_0_162_925
*2767 FILLER_0_162_937
*2768 FILLER_0_162_949
*2769 FILLER_0_162_961
*2770 FILLER_0_162_97
*2771 FILLER_0_162_973
*2772 FILLER_0_162_979
*2773 FILLER_0_162_981
*2774 FILLER_0_162_993
*2775 FILLER_0_163_1001
*2776 FILLER_0_163_1007
*2777 FILLER_0_163_1009
*2778 FILLER_0_163_1021
*2779 FILLER_0_163_1033
*2780 FILLER_0_163_1045
*2781 FILLER_0_163_105
*2782 FILLER_0_163_1057
*2783 FILLER_0_163_1063
*2784 FILLER_0_163_1065
*2785 FILLER_0_163_1080
*2786 FILLER_0_163_1092
*2787 FILLER_0_163_1104
*2788 FILLER_0_163_111
*2789 FILLER_0_163_1116
*2790 FILLER_0_163_1121
*2791 FILLER_0_163_113
*2792 FILLER_0_163_1133
*2793 FILLER_0_163_1145
*2794 FILLER_0_163_1157
*2795 FILLER_0_163_1169
*2796 FILLER_0_163_1175
*2797 FILLER_0_163_1177
*2798 FILLER_0_163_1189
*2799 FILLER_0_163_1201
*2800 FILLER_0_163_1213
*2801 FILLER_0_163_1225
*2802 FILLER_0_163_1231
*2803 FILLER_0_163_1233
*2804 FILLER_0_163_1245
*2805 FILLER_0_163_125
*2806 FILLER_0_163_1257
*2807 FILLER_0_163_1269
*2808 FILLER_0_163_1281
*2809 FILLER_0_163_1287
*2810 FILLER_0_163_1289
*2811 FILLER_0_163_1301
*2812 FILLER_0_163_1313
*2813 FILLER_0_163_1325
*2814 FILLER_0_163_1337
*2815 FILLER_0_163_1343
*2816 FILLER_0_163_1345
*2817 FILLER_0_163_1357
*2818 FILLER_0_163_1369
*2819 FILLER_0_163_137
*2820 FILLER_0_163_1381
*2821 FILLER_0_163_1393
*2822 FILLER_0_163_1399
*2823 FILLER_0_163_1401
*2824 FILLER_0_163_1413
*2825 FILLER_0_163_1425
*2826 FILLER_0_163_1437
*2827 FILLER_0_163_1449
*2828 FILLER_0_163_1455
*2829 FILLER_0_163_1457
*2830 FILLER_0_163_1469
*2831 FILLER_0_163_1481
*2832 FILLER_0_163_149
*2833 FILLER_0_163_1493
*2834 FILLER_0_163_15
*2835 FILLER_0_163_1505
*2836 FILLER_0_163_161
*2837 FILLER_0_163_167
*2838 FILLER_0_163_169
*2839 FILLER_0_163_181
*2840 FILLER_0_163_193
*2841 FILLER_0_163_205
*2842 FILLER_0_163_217
*2843 FILLER_0_163_223
*2844 FILLER_0_163_225
*2845 FILLER_0_163_237
*2846 FILLER_0_163_249
*2847 FILLER_0_163_261
*2848 FILLER_0_163_27
*2849 FILLER_0_163_273
*2850 FILLER_0_163_279
*2851 FILLER_0_163_281
*2852 FILLER_0_163_293
*2853 FILLER_0_163_3
*2854 FILLER_0_163_305
*2855 FILLER_0_163_317
*2856 FILLER_0_163_329
*2857 FILLER_0_163_335
*2858 FILLER_0_163_337
*2859 FILLER_0_163_349
*2860 FILLER_0_163_361
*2861 FILLER_0_163_373
*2862 FILLER_0_163_385
*2863 FILLER_0_163_39
*2864 FILLER_0_163_391
*2865 FILLER_0_163_393
*2866 FILLER_0_163_405
*2867 FILLER_0_163_417
*2868 FILLER_0_163_429
*2869 FILLER_0_163_441
*2870 FILLER_0_163_447
*2871 FILLER_0_163_449
*2872 FILLER_0_163_461
*2873 FILLER_0_163_473
*2874 FILLER_0_163_485
*2875 FILLER_0_163_497
*2876 FILLER_0_163_503
*2877 FILLER_0_163_505
*2878 FILLER_0_163_51
*2879 FILLER_0_163_517
*2880 FILLER_0_163_529
*2881 FILLER_0_163_541
*2882 FILLER_0_163_55
*2883 FILLER_0_163_553
*2884 FILLER_0_163_559
*2885 FILLER_0_163_561
*2886 FILLER_0_163_57
*2887 FILLER_0_163_573
*2888 FILLER_0_163_585
*2889 FILLER_0_163_597
*2890 FILLER_0_163_609
*2891 FILLER_0_163_615
*2892 FILLER_0_163_617
*2893 FILLER_0_163_629
*2894 FILLER_0_163_641
*2895 FILLER_0_163_653
*2896 FILLER_0_163_665
*2897 FILLER_0_163_671
*2898 FILLER_0_163_673
*2899 FILLER_0_163_685
*2900 FILLER_0_163_69
*2901 FILLER_0_163_697
*2902 FILLER_0_163_709
*2903 FILLER_0_163_721
*2904 FILLER_0_163_727
*2905 FILLER_0_163_729
*2906 FILLER_0_163_741
*2907 FILLER_0_163_753
*2908 FILLER_0_163_765
*2909 FILLER_0_163_777
*2910 FILLER_0_163_783
*2911 FILLER_0_163_785
*2912 FILLER_0_163_797
*2913 FILLER_0_163_809
*2914 FILLER_0_163_81
*2915 FILLER_0_163_821
*2916 FILLER_0_163_833
*2917 FILLER_0_163_839
*2918 FILLER_0_163_841
*2919 FILLER_0_163_853
*2920 FILLER_0_163_865
*2921 FILLER_0_163_877
*2922 FILLER_0_163_889
*2923 FILLER_0_163_895
*2924 FILLER_0_163_897
*2925 FILLER_0_163_909
*2926 FILLER_0_163_921
*2927 FILLER_0_163_93
*2928 FILLER_0_163_933
*2929 FILLER_0_163_945
*2930 FILLER_0_163_951
*2931 FILLER_0_163_953
*2932 FILLER_0_163_965
*2933 FILLER_0_163_977
*2934 FILLER_0_163_989
*2935 FILLER_0_164_1005
*2936 FILLER_0_164_1017
*2937 FILLER_0_164_1029
*2938 FILLER_0_164_1035
*2939 FILLER_0_164_1037
*2940 FILLER_0_164_1049
*2941 FILLER_0_164_1061
*2942 FILLER_0_164_1073
*2943 FILLER_0_164_1085
*2944 FILLER_0_164_109
*2945 FILLER_0_164_1091
*2946 FILLER_0_164_1093
*2947 FILLER_0_164_1105
*2948 FILLER_0_164_1117
*2949 FILLER_0_164_1129
*2950 FILLER_0_164_1141
*2951 FILLER_0_164_1147
*2952 FILLER_0_164_1149
*2953 FILLER_0_164_1161
*2954 FILLER_0_164_1173
*2955 FILLER_0_164_1185
*2956 FILLER_0_164_1197
*2957 FILLER_0_164_1203
*2958 FILLER_0_164_1205
*2959 FILLER_0_164_121
*2960 FILLER_0_164_1217
*2961 FILLER_0_164_1229
*2962 FILLER_0_164_1241
*2963 FILLER_0_164_1253
*2964 FILLER_0_164_1259
*2965 FILLER_0_164_1261
*2966 FILLER_0_164_1273
*2967 FILLER_0_164_1285
*2968 FILLER_0_164_1297
*2969 FILLER_0_164_1309
*2970 FILLER_0_164_1315
*2971 FILLER_0_164_1317
*2972 FILLER_0_164_1329
*2973 FILLER_0_164_133
*2974 FILLER_0_164_1341
*2975 FILLER_0_164_1353
*2976 FILLER_0_164_1365
*2977 FILLER_0_164_1371
*2978 FILLER_0_164_1373
*2979 FILLER_0_164_1385
*2980 FILLER_0_164_139
*2981 FILLER_0_164_1397
*2982 FILLER_0_164_1409
*2983 FILLER_0_164_141
*2984 FILLER_0_164_1421
*2985 FILLER_0_164_1427
*2986 FILLER_0_164_1429
*2987 FILLER_0_164_1441
*2988 FILLER_0_164_1453
*2989 FILLER_0_164_1465
*2990 FILLER_0_164_1477
*2991 FILLER_0_164_1483
*2992 FILLER_0_164_1485
*2993 FILLER_0_164_1497
*2994 FILLER_0_164_15
*2995 FILLER_0_164_1505
*2996 FILLER_0_164_153
*2997 FILLER_0_164_165
*2998 FILLER_0_164_177
*2999 FILLER_0_164_189
*3000 FILLER_0_164_195
*3001 FILLER_0_164_197
*3002 FILLER_0_164_209
*3003 FILLER_0_164_221
*3004 FILLER_0_164_233
*3005 FILLER_0_164_245
*3006 FILLER_0_164_251
*3007 FILLER_0_164_253
*3008 FILLER_0_164_265
*3009 FILLER_0_164_27
*3010 FILLER_0_164_277
*3011 FILLER_0_164_289
*3012 FILLER_0_164_29
*3013 FILLER_0_164_3
*3014 FILLER_0_164_301
*3015 FILLER_0_164_307
*3016 FILLER_0_164_309
*3017 FILLER_0_164_321
*3018 FILLER_0_164_333
*3019 FILLER_0_164_345
*3020 FILLER_0_164_357
*3021 FILLER_0_164_363
*3022 FILLER_0_164_365
*3023 FILLER_0_164_377
*3024 FILLER_0_164_389
*3025 FILLER_0_164_401
*3026 FILLER_0_164_41
*3027 FILLER_0_164_413
*3028 FILLER_0_164_419
*3029 FILLER_0_164_421
*3030 FILLER_0_164_433
*3031 FILLER_0_164_445
*3032 FILLER_0_164_457
*3033 FILLER_0_164_469
*3034 FILLER_0_164_475
*3035 FILLER_0_164_477
*3036 FILLER_0_164_489
*3037 FILLER_0_164_501
*3038 FILLER_0_164_513
*3039 FILLER_0_164_525
*3040 FILLER_0_164_53
*3041 FILLER_0_164_531
*3042 FILLER_0_164_533
*3043 FILLER_0_164_545
*3044 FILLER_0_164_557
*3045 FILLER_0_164_569
*3046 FILLER_0_164_581
*3047 FILLER_0_164_587
*3048 FILLER_0_164_589
*3049 FILLER_0_164_601
*3050 FILLER_0_164_613
*3051 FILLER_0_164_625
*3052 FILLER_0_164_637
*3053 FILLER_0_164_643
*3054 FILLER_0_164_645
*3055 FILLER_0_164_65
*3056 FILLER_0_164_657
*3057 FILLER_0_164_669
*3058 FILLER_0_164_681
*3059 FILLER_0_164_693
*3060 FILLER_0_164_699
*3061 FILLER_0_164_701
*3062 FILLER_0_164_713
*3063 FILLER_0_164_725
*3064 FILLER_0_164_737
*3065 FILLER_0_164_749
*3066 FILLER_0_164_755
*3067 FILLER_0_164_757
*3068 FILLER_0_164_769
*3069 FILLER_0_164_77
*3070 FILLER_0_164_781
*3071 FILLER_0_164_793
*3072 FILLER_0_164_805
*3073 FILLER_0_164_811
*3074 FILLER_0_164_813
*3075 FILLER_0_164_825
*3076 FILLER_0_164_83
*3077 FILLER_0_164_837
*3078 FILLER_0_164_849
*3079 FILLER_0_164_85
*3080 FILLER_0_164_861
*3081 FILLER_0_164_867
*3082 FILLER_0_164_869
*3083 FILLER_0_164_881
*3084 FILLER_0_164_893
*3085 FILLER_0_164_905
*3086 FILLER_0_164_917
*3087 FILLER_0_164_923
*3088 FILLER_0_164_925
*3089 FILLER_0_164_937
*3090 FILLER_0_164_949
*3091 FILLER_0_164_961
*3092 FILLER_0_164_97
*3093 FILLER_0_164_973
*3094 FILLER_0_164_979
*3095 FILLER_0_164_981
*3096 FILLER_0_164_993
*3097 FILLER_0_165_1001
*3098 FILLER_0_165_1007
*3099 FILLER_0_165_1009
*3100 FILLER_0_165_1021
*3101 FILLER_0_165_1033
*3102 FILLER_0_165_1045
*3103 FILLER_0_165_105
*3104 FILLER_0_165_1057
*3105 FILLER_0_165_1063
*3106 FILLER_0_165_1065
*3107 FILLER_0_165_1077
*3108 FILLER_0_165_1089
*3109 FILLER_0_165_1101
*3110 FILLER_0_165_111
*3111 FILLER_0_165_1113
*3112 FILLER_0_165_1119
*3113 FILLER_0_165_1121
*3114 FILLER_0_165_113
*3115 FILLER_0_165_1133
*3116 FILLER_0_165_1145
*3117 FILLER_0_165_1157
*3118 FILLER_0_165_1169
*3119 FILLER_0_165_1175
*3120 FILLER_0_165_1177
*3121 FILLER_0_165_1189
*3122 FILLER_0_165_1201
*3123 FILLER_0_165_1213
*3124 FILLER_0_165_1225
*3125 FILLER_0_165_1231
*3126 FILLER_0_165_1233
*3127 FILLER_0_165_1245
*3128 FILLER_0_165_125
*3129 FILLER_0_165_1257
*3130 FILLER_0_165_1269
*3131 FILLER_0_165_1281
*3132 FILLER_0_165_1287
*3133 FILLER_0_165_1289
*3134 FILLER_0_165_1301
*3135 FILLER_0_165_1313
*3136 FILLER_0_165_1325
*3137 FILLER_0_165_1337
*3138 FILLER_0_165_1343
*3139 FILLER_0_165_1345
*3140 FILLER_0_165_1357
*3141 FILLER_0_165_1369
*3142 FILLER_0_165_137
*3143 FILLER_0_165_1381
*3144 FILLER_0_165_1393
*3145 FILLER_0_165_1399
*3146 FILLER_0_165_1401
*3147 FILLER_0_165_1413
*3148 FILLER_0_165_1425
*3149 FILLER_0_165_1437
*3150 FILLER_0_165_1449
*3151 FILLER_0_165_1455
*3152 FILLER_0_165_1457
*3153 FILLER_0_165_1469
*3154 FILLER_0_165_1481
*3155 FILLER_0_165_149
*3156 FILLER_0_165_1493
*3157 FILLER_0_165_15
*3158 FILLER_0_165_1505
*3159 FILLER_0_165_161
*3160 FILLER_0_165_167
*3161 FILLER_0_165_169
*3162 FILLER_0_165_181
*3163 FILLER_0_165_193
*3164 FILLER_0_165_205
*3165 FILLER_0_165_217
*3166 FILLER_0_165_223
*3167 FILLER_0_165_225
*3168 FILLER_0_165_237
*3169 FILLER_0_165_249
*3170 FILLER_0_165_261
*3171 FILLER_0_165_27
*3172 FILLER_0_165_273
*3173 FILLER_0_165_279
*3174 FILLER_0_165_281
*3175 FILLER_0_165_293
*3176 FILLER_0_165_3
*3177 FILLER_0_165_305
*3178 FILLER_0_165_317
*3179 FILLER_0_165_329
*3180 FILLER_0_165_335
*3181 FILLER_0_165_337
*3182 FILLER_0_165_349
*3183 FILLER_0_165_361
*3184 FILLER_0_165_373
*3185 FILLER_0_165_385
*3186 FILLER_0_165_39
*3187 FILLER_0_165_391
*3188 FILLER_0_165_393
*3189 FILLER_0_165_405
*3190 FILLER_0_165_417
*3191 FILLER_0_165_429
*3192 FILLER_0_165_441
*3193 FILLER_0_165_447
*3194 FILLER_0_165_449
*3195 FILLER_0_165_461
*3196 FILLER_0_165_473
*3197 FILLER_0_165_485
*3198 FILLER_0_165_497
*3199 FILLER_0_165_503
*3200 FILLER_0_165_505
*3201 FILLER_0_165_51
*3202 FILLER_0_165_517
*3203 FILLER_0_165_529
*3204 FILLER_0_165_541
*3205 FILLER_0_165_55
*3206 FILLER_0_165_553
*3207 FILLER_0_165_559
*3208 FILLER_0_165_561
*3209 FILLER_0_165_57
*3210 FILLER_0_165_573
*3211 FILLER_0_165_585
*3212 FILLER_0_165_597
*3213 FILLER_0_165_609
*3214 FILLER_0_165_615
*3215 FILLER_0_165_617
*3216 FILLER_0_165_629
*3217 FILLER_0_165_641
*3218 FILLER_0_165_653
*3219 FILLER_0_165_665
*3220 FILLER_0_165_671
*3221 FILLER_0_165_673
*3222 FILLER_0_165_685
*3223 FILLER_0_165_69
*3224 FILLER_0_165_697
*3225 FILLER_0_165_709
*3226 FILLER_0_165_721
*3227 FILLER_0_165_727
*3228 FILLER_0_165_729
*3229 FILLER_0_165_741
*3230 FILLER_0_165_753
*3231 FILLER_0_165_765
*3232 FILLER_0_165_777
*3233 FILLER_0_165_783
*3234 FILLER_0_165_785
*3235 FILLER_0_165_797
*3236 FILLER_0_165_809
*3237 FILLER_0_165_81
*3238 FILLER_0_165_821
*3239 FILLER_0_165_833
*3240 FILLER_0_165_839
*3241 FILLER_0_165_841
*3242 FILLER_0_165_853
*3243 FILLER_0_165_865
*3244 FILLER_0_165_877
*3245 FILLER_0_165_889
*3246 FILLER_0_165_895
*3247 FILLER_0_165_897
*3248 FILLER_0_165_909
*3249 FILLER_0_165_921
*3250 FILLER_0_165_93
*3251 FILLER_0_165_933
*3252 FILLER_0_165_945
*3253 FILLER_0_165_951
*3254 FILLER_0_165_953
*3255 FILLER_0_165_965
*3256 FILLER_0_165_977
*3257 FILLER_0_165_989
*3258 FILLER_0_166_1005
*3259 FILLER_0_166_1017
*3260 FILLER_0_166_1029
*3261 FILLER_0_166_1035
*3262 FILLER_0_166_1037
*3263 FILLER_0_166_1049
*3264 FILLER_0_166_1061
*3265 FILLER_0_166_1073
*3266 FILLER_0_166_1085
*3267 FILLER_0_166_109
*3268 FILLER_0_166_1091
*3269 FILLER_0_166_1093
*3270 FILLER_0_166_1105
*3271 FILLER_0_166_1117
*3272 FILLER_0_166_1129
*3273 FILLER_0_166_1141
*3274 FILLER_0_166_1147
*3275 FILLER_0_166_1149
*3276 FILLER_0_166_1161
*3277 FILLER_0_166_1173
*3278 FILLER_0_166_1185
*3279 FILLER_0_166_1197
*3280 FILLER_0_166_1203
*3281 FILLER_0_166_1205
*3282 FILLER_0_166_121
*3283 FILLER_0_166_1217
*3284 FILLER_0_166_1229
*3285 FILLER_0_166_1241
*3286 FILLER_0_166_1253
*3287 FILLER_0_166_1259
*3288 FILLER_0_166_1261
*3289 FILLER_0_166_1273
*3290 FILLER_0_166_1285
*3291 FILLER_0_166_1297
*3292 FILLER_0_166_1309
*3293 FILLER_0_166_1315
*3294 FILLER_0_166_1317
*3295 FILLER_0_166_1329
*3296 FILLER_0_166_133
*3297 FILLER_0_166_1341
*3298 FILLER_0_166_1353
*3299 FILLER_0_166_1365
*3300 FILLER_0_166_1371
*3301 FILLER_0_166_1373
*3302 FILLER_0_166_1385
*3303 FILLER_0_166_139
*3304 FILLER_0_166_1397
*3305 FILLER_0_166_1409
*3306 FILLER_0_166_141
*3307 FILLER_0_166_1421
*3308 FILLER_0_166_1427
*3309 FILLER_0_166_1429
*3310 FILLER_0_166_1441
*3311 FILLER_0_166_1453
*3312 FILLER_0_166_1465
*3313 FILLER_0_166_1477
*3314 FILLER_0_166_1483
*3315 FILLER_0_166_1485
*3316 FILLER_0_166_1497
*3317 FILLER_0_166_15
*3318 FILLER_0_166_1505
*3319 FILLER_0_166_153
*3320 FILLER_0_166_165
*3321 FILLER_0_166_177
*3322 FILLER_0_166_189
*3323 FILLER_0_166_195
*3324 FILLER_0_166_197
*3325 FILLER_0_166_209
*3326 FILLER_0_166_221
*3327 FILLER_0_166_233
*3328 FILLER_0_166_245
*3329 FILLER_0_166_251
*3330 FILLER_0_166_253
*3331 FILLER_0_166_265
*3332 FILLER_0_166_27
*3333 FILLER_0_166_277
*3334 FILLER_0_166_289
*3335 FILLER_0_166_29
*3336 FILLER_0_166_3
*3337 FILLER_0_166_301
*3338 FILLER_0_166_307
*3339 FILLER_0_166_309
*3340 FILLER_0_166_321
*3341 FILLER_0_166_333
*3342 FILLER_0_166_345
*3343 FILLER_0_166_357
*3344 FILLER_0_166_363
*3345 FILLER_0_166_365
*3346 FILLER_0_166_377
*3347 FILLER_0_166_389
*3348 FILLER_0_166_401
*3349 FILLER_0_166_41
*3350 FILLER_0_166_413
*3351 FILLER_0_166_419
*3352 FILLER_0_166_421
*3353 FILLER_0_166_433
*3354 FILLER_0_166_445
*3355 FILLER_0_166_457
*3356 FILLER_0_166_469
*3357 FILLER_0_166_475
*3358 FILLER_0_166_477
*3359 FILLER_0_166_489
*3360 FILLER_0_166_501
*3361 FILLER_0_166_513
*3362 FILLER_0_166_525
*3363 FILLER_0_166_53
*3364 FILLER_0_166_531
*3365 FILLER_0_166_533
*3366 FILLER_0_166_545
*3367 FILLER_0_166_557
*3368 FILLER_0_166_569
*3369 FILLER_0_166_581
*3370 FILLER_0_166_587
*3371 FILLER_0_166_589
*3372 FILLER_0_166_601
*3373 FILLER_0_166_613
*3374 FILLER_0_166_625
*3375 FILLER_0_166_637
*3376 FILLER_0_166_643
*3377 FILLER_0_166_645
*3378 FILLER_0_166_65
*3379 FILLER_0_166_657
*3380 FILLER_0_166_669
*3381 FILLER_0_166_681
*3382 FILLER_0_166_693
*3383 FILLER_0_166_699
*3384 FILLER_0_166_701
*3385 FILLER_0_166_713
*3386 FILLER_0_166_725
*3387 FILLER_0_166_737
*3388 FILLER_0_166_749
*3389 FILLER_0_166_755
*3390 FILLER_0_166_757
*3391 FILLER_0_166_769
*3392 FILLER_0_166_77
*3393 FILLER_0_166_781
*3394 FILLER_0_166_793
*3395 FILLER_0_166_805
*3396 FILLER_0_166_811
*3397 FILLER_0_166_813
*3398 FILLER_0_166_825
*3399 FILLER_0_166_83
*3400 FILLER_0_166_837
*3401 FILLER_0_166_849
*3402 FILLER_0_166_85
*3403 FILLER_0_166_861
*3404 FILLER_0_166_867
*3405 FILLER_0_166_869
*3406 FILLER_0_166_881
*3407 FILLER_0_166_893
*3408 FILLER_0_166_905
*3409 FILLER_0_166_917
*3410 FILLER_0_166_923
*3411 FILLER_0_166_925
*3412 FILLER_0_166_937
*3413 FILLER_0_166_949
*3414 FILLER_0_166_961
*3415 FILLER_0_166_97
*3416 FILLER_0_166_973
*3417 FILLER_0_166_979
*3418 FILLER_0_166_981
*3419 FILLER_0_166_993
*3420 FILLER_0_167_1001
*3421 FILLER_0_167_1007
*3422 FILLER_0_167_1009
*3423 FILLER_0_167_1021
*3424 FILLER_0_167_1033
*3425 FILLER_0_167_1045
*3426 FILLER_0_167_105
*3427 FILLER_0_167_1057
*3428 FILLER_0_167_1063
*3429 FILLER_0_167_1065
*3430 FILLER_0_167_1077
*3431 FILLER_0_167_1089
*3432 FILLER_0_167_1101
*3433 FILLER_0_167_111
*3434 FILLER_0_167_1113
*3435 FILLER_0_167_1119
*3436 FILLER_0_167_1121
*3437 FILLER_0_167_113
*3438 FILLER_0_167_1133
*3439 FILLER_0_167_1145
*3440 FILLER_0_167_1157
*3441 FILLER_0_167_1169
*3442 FILLER_0_167_1175
*3443 FILLER_0_167_1177
*3444 FILLER_0_167_1189
*3445 FILLER_0_167_1201
*3446 FILLER_0_167_1213
*3447 FILLER_0_167_1225
*3448 FILLER_0_167_1231
*3449 FILLER_0_167_1233
*3450 FILLER_0_167_1245
*3451 FILLER_0_167_125
*3452 FILLER_0_167_1257
*3453 FILLER_0_167_1269
*3454 FILLER_0_167_1281
*3455 FILLER_0_167_1287
*3456 FILLER_0_167_1289
*3457 FILLER_0_167_1301
*3458 FILLER_0_167_1313
*3459 FILLER_0_167_1325
*3460 FILLER_0_167_1337
*3461 FILLER_0_167_1343
*3462 FILLER_0_167_1345
*3463 FILLER_0_167_1357
*3464 FILLER_0_167_1369
*3465 FILLER_0_167_137
*3466 FILLER_0_167_1381
*3467 FILLER_0_167_1393
*3468 FILLER_0_167_1399
*3469 FILLER_0_167_1401
*3470 FILLER_0_167_1413
*3471 FILLER_0_167_1425
*3472 FILLER_0_167_1437
*3473 FILLER_0_167_1449
*3474 FILLER_0_167_1455
*3475 FILLER_0_167_1457
*3476 FILLER_0_167_1469
*3477 FILLER_0_167_1481
*3478 FILLER_0_167_149
*3479 FILLER_0_167_1493
*3480 FILLER_0_167_15
*3481 FILLER_0_167_1505
*3482 FILLER_0_167_161
*3483 FILLER_0_167_167
*3484 FILLER_0_167_169
*3485 FILLER_0_167_181
*3486 FILLER_0_167_193
*3487 FILLER_0_167_205
*3488 FILLER_0_167_217
*3489 FILLER_0_167_223
*3490 FILLER_0_167_225
*3491 FILLER_0_167_237
*3492 FILLER_0_167_249
*3493 FILLER_0_167_261
*3494 FILLER_0_167_27
*3495 FILLER_0_167_273
*3496 FILLER_0_167_279
*3497 FILLER_0_167_281
*3498 FILLER_0_167_293
*3499 FILLER_0_167_3
*3500 FILLER_0_167_305
*3501 FILLER_0_167_317
*3502 FILLER_0_167_329
*3503 FILLER_0_167_335
*3504 FILLER_0_167_337
*3505 FILLER_0_167_349
*3506 FILLER_0_167_361
*3507 FILLER_0_167_373
*3508 FILLER_0_167_385
*3509 FILLER_0_167_39
*3510 FILLER_0_167_391
*3511 FILLER_0_167_393
*3512 FILLER_0_167_405
*3513 FILLER_0_167_417
*3514 FILLER_0_167_429
*3515 FILLER_0_167_441
*3516 FILLER_0_167_447
*3517 FILLER_0_167_449
*3518 FILLER_0_167_461
*3519 FILLER_0_167_473
*3520 FILLER_0_167_485
*3521 FILLER_0_167_497
*3522 FILLER_0_167_503
*3523 FILLER_0_167_505
*3524 FILLER_0_167_51
*3525 FILLER_0_167_517
*3526 FILLER_0_167_529
*3527 FILLER_0_167_541
*3528 FILLER_0_167_55
*3529 FILLER_0_167_553
*3530 FILLER_0_167_559
*3531 FILLER_0_167_561
*3532 FILLER_0_167_57
*3533 FILLER_0_167_573
*3534 FILLER_0_167_585
*3535 FILLER_0_167_597
*3536 FILLER_0_167_609
*3537 FILLER_0_167_615
*3538 FILLER_0_167_617
*3539 FILLER_0_167_629
*3540 FILLER_0_167_641
*3541 FILLER_0_167_653
*3542 FILLER_0_167_665
*3543 FILLER_0_167_671
*3544 FILLER_0_167_673
*3545 FILLER_0_167_685
*3546 FILLER_0_167_69
*3547 FILLER_0_167_697
*3548 FILLER_0_167_709
*3549 FILLER_0_167_721
*3550 FILLER_0_167_727
*3551 FILLER_0_167_729
*3552 FILLER_0_167_741
*3553 FILLER_0_167_753
*3554 FILLER_0_167_765
*3555 FILLER_0_167_777
*3556 FILLER_0_167_783
*3557 FILLER_0_167_785
*3558 FILLER_0_167_797
*3559 FILLER_0_167_809
*3560 FILLER_0_167_81
*3561 FILLER_0_167_821
*3562 FILLER_0_167_833
*3563 FILLER_0_167_839
*3564 FILLER_0_167_841
*3565 FILLER_0_167_853
*3566 FILLER_0_167_865
*3567 FILLER_0_167_877
*3568 FILLER_0_167_889
*3569 FILLER_0_167_895
*3570 FILLER_0_167_897
*3571 FILLER_0_167_909
*3572 FILLER_0_167_921
*3573 FILLER_0_167_93
*3574 FILLER_0_167_933
*3575 FILLER_0_167_945
*3576 FILLER_0_167_951
*3577 FILLER_0_167_953
*3578 FILLER_0_167_965
*3579 FILLER_0_167_977
*3580 FILLER_0_167_989
*3581 FILLER_0_168_1005
*3582 FILLER_0_168_1017
*3583 FILLER_0_168_1029
*3584 FILLER_0_168_1035
*3585 FILLER_0_168_1037
*3586 FILLER_0_168_1049
*3587 FILLER_0_168_1061
*3588 FILLER_0_168_1073
*3589 FILLER_0_168_1085
*3590 FILLER_0_168_109
*3591 FILLER_0_168_1091
*3592 FILLER_0_168_1093
*3593 FILLER_0_168_1105
*3594 FILLER_0_168_1117
*3595 FILLER_0_168_1129
*3596 FILLER_0_168_1141
*3597 FILLER_0_168_1147
*3598 FILLER_0_168_1149
*3599 FILLER_0_168_1161
*3600 FILLER_0_168_1173
*3601 FILLER_0_168_1185
*3602 FILLER_0_168_1197
*3603 FILLER_0_168_1203
*3604 FILLER_0_168_1205
*3605 FILLER_0_168_121
*3606 FILLER_0_168_1217
*3607 FILLER_0_168_1229
*3608 FILLER_0_168_1241
*3609 FILLER_0_168_1253
*3610 FILLER_0_168_1259
*3611 FILLER_0_168_1261
*3612 FILLER_0_168_1273
*3613 FILLER_0_168_1285
*3614 FILLER_0_168_1297
*3615 FILLER_0_168_1309
*3616 FILLER_0_168_1315
*3617 FILLER_0_168_1317
*3618 FILLER_0_168_1329
*3619 FILLER_0_168_133
*3620 FILLER_0_168_1341
*3621 FILLER_0_168_1353
*3622 FILLER_0_168_1365
*3623 FILLER_0_168_1371
*3624 FILLER_0_168_1373
*3625 FILLER_0_168_1385
*3626 FILLER_0_168_139
*3627 FILLER_0_168_1397
*3628 FILLER_0_168_1409
*3629 FILLER_0_168_141
*3630 FILLER_0_168_1421
*3631 FILLER_0_168_1427
*3632 FILLER_0_168_1429
*3633 FILLER_0_168_1441
*3634 FILLER_0_168_1453
*3635 FILLER_0_168_1465
*3636 FILLER_0_168_1477
*3637 FILLER_0_168_1483
*3638 FILLER_0_168_1485
*3639 FILLER_0_168_1497
*3640 FILLER_0_168_15
*3641 FILLER_0_168_1505
*3642 FILLER_0_168_153
*3643 FILLER_0_168_165
*3644 FILLER_0_168_177
*3645 FILLER_0_168_189
*3646 FILLER_0_168_195
*3647 FILLER_0_168_197
*3648 FILLER_0_168_209
*3649 FILLER_0_168_221
*3650 FILLER_0_168_233
*3651 FILLER_0_168_245
*3652 FILLER_0_168_251
*3653 FILLER_0_168_253
*3654 FILLER_0_168_265
*3655 FILLER_0_168_27
*3656 FILLER_0_168_277
*3657 FILLER_0_168_289
*3658 FILLER_0_168_29
*3659 FILLER_0_168_3
*3660 FILLER_0_168_301
*3661 FILLER_0_168_307
*3662 FILLER_0_168_309
*3663 FILLER_0_168_321
*3664 FILLER_0_168_333
*3665 FILLER_0_168_345
*3666 FILLER_0_168_357
*3667 FILLER_0_168_363
*3668 FILLER_0_168_365
*3669 FILLER_0_168_377
*3670 FILLER_0_168_389
*3671 FILLER_0_168_401
*3672 FILLER_0_168_41
*3673 FILLER_0_168_413
*3674 FILLER_0_168_419
*3675 FILLER_0_168_421
*3676 FILLER_0_168_433
*3677 FILLER_0_168_445
*3678 FILLER_0_168_457
*3679 FILLER_0_168_469
*3680 FILLER_0_168_475
*3681 FILLER_0_168_477
*3682 FILLER_0_168_489
*3683 FILLER_0_168_501
*3684 FILLER_0_168_513
*3685 FILLER_0_168_525
*3686 FILLER_0_168_53
*3687 FILLER_0_168_531
*3688 FILLER_0_168_533
*3689 FILLER_0_168_545
*3690 FILLER_0_168_557
*3691 FILLER_0_168_569
*3692 FILLER_0_168_581
*3693 FILLER_0_168_587
*3694 FILLER_0_168_589
*3695 FILLER_0_168_601
*3696 FILLER_0_168_613
*3697 FILLER_0_168_625
*3698 FILLER_0_168_637
*3699 FILLER_0_168_643
*3700 FILLER_0_168_645
*3701 FILLER_0_168_65
*3702 FILLER_0_168_657
*3703 FILLER_0_168_669
*3704 FILLER_0_168_681
*3705 FILLER_0_168_693
*3706 FILLER_0_168_699
*3707 FILLER_0_168_701
*3708 FILLER_0_168_713
*3709 FILLER_0_168_725
*3710 FILLER_0_168_737
*3711 FILLER_0_168_749
*3712 FILLER_0_168_755
*3713 FILLER_0_168_757
*3714 FILLER_0_168_769
*3715 FILLER_0_168_77
*3716 FILLER_0_168_781
*3717 FILLER_0_168_793
*3718 FILLER_0_168_805
*3719 FILLER_0_168_811
*3720 FILLER_0_168_813
*3721 FILLER_0_168_825
*3722 FILLER_0_168_83
*3723 FILLER_0_168_837
*3724 FILLER_0_168_849
*3725 FILLER_0_168_85
*3726 FILLER_0_168_861
*3727 FILLER_0_168_867
*3728 FILLER_0_168_869
*3729 FILLER_0_168_881
*3730 FILLER_0_168_893
*3731 FILLER_0_168_905
*3732 FILLER_0_168_917
*3733 FILLER_0_168_923
*3734 FILLER_0_168_925
*3735 FILLER_0_168_937
*3736 FILLER_0_168_949
*3737 FILLER_0_168_961
*3738 FILLER_0_168_97
*3739 FILLER_0_168_973
*3740 FILLER_0_168_979
*3741 FILLER_0_168_981
*3742 FILLER_0_168_993
*3743 FILLER_0_169_1005
*3744 FILLER_0_169_1009
*3745 FILLER_0_169_1021
*3746 FILLER_0_169_1033
*3747 FILLER_0_169_1037
*3748 FILLER_0_169_1043
*3749 FILLER_0_169_1065
*3750 FILLER_0_169_1077
*3751 FILLER_0_169_1089
*3752 FILLER_0_169_109
*3753 FILLER_0_169_1101
*3754 FILLER_0_169_1113
*3755 FILLER_0_169_1119
*3756 FILLER_0_169_1121
*3757 FILLER_0_169_113
*3758 FILLER_0_169_1133
*3759 FILLER_0_169_1145
*3760 FILLER_0_169_1149
*3761 FILLER_0_169_1161
*3762 FILLER_0_169_1173
*3763 FILLER_0_169_1177
*3764 FILLER_0_169_1189
*3765 FILLER_0_169_1201
*3766 FILLER_0_169_1205
*3767 FILLER_0_169_1217
*3768 FILLER_0_169_1229
*3769 FILLER_0_169_1233
*3770 FILLER_0_169_1245
*3771 FILLER_0_169_125
*3772 FILLER_0_169_1257
*3773 FILLER_0_169_1261
*3774 FILLER_0_169_1273
*3775 FILLER_0_169_1285
*3776 FILLER_0_169_1289
*3777 FILLER_0_169_1301
*3778 FILLER_0_169_1313
*3779 FILLER_0_169_1317
*3780 FILLER_0_169_1329
*3781 FILLER_0_169_1341
*3782 FILLER_0_169_1345
*3783 FILLER_0_169_1357
*3784 FILLER_0_169_1369
*3785 FILLER_0_169_137
*3786 FILLER_0_169_1373
*3787 FILLER_0_169_1385
*3788 FILLER_0_169_1397
*3789 FILLER_0_169_1401
*3790 FILLER_0_169_141
*3791 FILLER_0_169_1413
*3792 FILLER_0_169_1425
*3793 FILLER_0_169_1429
*3794 FILLER_0_169_1441
*3795 FILLER_0_169_1453
*3796 FILLER_0_169_1457
*3797 FILLER_0_169_1469
*3798 FILLER_0_169_1481
*3799 FILLER_0_169_1485
*3800 FILLER_0_169_1497
*3801 FILLER_0_169_15
*3802 FILLER_0_169_1505
*3803 FILLER_0_169_153
*3804 FILLER_0_169_165
*3805 FILLER_0_169_169
*3806 FILLER_0_169_181
*3807 FILLER_0_169_193
*3808 FILLER_0_169_197
*3809 FILLER_0_169_209
*3810 FILLER_0_169_221
*3811 FILLER_0_169_225
*3812 FILLER_0_169_237
*3813 FILLER_0_169_249
*3814 FILLER_0_169_253
*3815 FILLER_0_169_265
*3816 FILLER_0_169_27
*3817 FILLER_0_169_277
*3818 FILLER_0_169_281
*3819 FILLER_0_169_29
*3820 FILLER_0_169_293
*3821 FILLER_0_169_3
*3822 FILLER_0_169_305
*3823 FILLER_0_169_309
*3824 FILLER_0_169_321
*3825 FILLER_0_169_333
*3826 FILLER_0_169_337
*3827 FILLER_0_169_349
*3828 FILLER_0_169_361
*3829 FILLER_0_169_365
*3830 FILLER_0_169_377
*3831 FILLER_0_169_389
*3832 FILLER_0_169_393
*3833 FILLER_0_169_405
*3834 FILLER_0_169_41
*3835 FILLER_0_169_417
*3836 FILLER_0_169_421
*3837 FILLER_0_169_433
*3838 FILLER_0_169_445
*3839 FILLER_0_169_449
*3840 FILLER_0_169_461
*3841 FILLER_0_169_473
*3842 FILLER_0_169_477
*3843 FILLER_0_169_489
*3844 FILLER_0_169_501
*3845 FILLER_0_169_505
*3846 FILLER_0_169_517
*3847 FILLER_0_169_529
*3848 FILLER_0_169_53
*3849 FILLER_0_169_533
*3850 FILLER_0_169_545
*3851 FILLER_0_169_557
*3852 FILLER_0_169_561
*3853 FILLER_0_169_57
*3854 FILLER_0_169_573
*3855 FILLER_0_169_585
*3856 FILLER_0_169_589
*3857 FILLER_0_169_601
*3858 FILLER_0_169_613
*3859 FILLER_0_169_617
*3860 FILLER_0_169_629
*3861 FILLER_0_169_641
*3862 FILLER_0_169_645
*3863 FILLER_0_169_657
*3864 FILLER_0_169_669
*3865 FILLER_0_169_673
*3866 FILLER_0_169_685
*3867 FILLER_0_169_69
*3868 FILLER_0_169_697
*3869 FILLER_0_169_701
*3870 FILLER_0_169_713
*3871 FILLER_0_169_725
*3872 FILLER_0_169_729
*3873 FILLER_0_169_741
*3874 FILLER_0_169_753
*3875 FILLER_0_169_757
*3876 FILLER_0_169_769
*3877 FILLER_0_169_781
*3878 FILLER_0_169_785
*3879 FILLER_0_169_797
*3880 FILLER_0_169_809
*3881 FILLER_0_169_81
*3882 FILLER_0_169_813
*3883 FILLER_0_169_825
*3884 FILLER_0_169_837
*3885 FILLER_0_169_841
*3886 FILLER_0_169_85
*3887 FILLER_0_169_853
*3888 FILLER_0_169_865
*3889 FILLER_0_169_869
*3890 FILLER_0_169_881
*3891 FILLER_0_169_893
*3892 FILLER_0_169_897
*3893 FILLER_0_169_909
*3894 FILLER_0_169_921
*3895 FILLER_0_169_925
*3896 FILLER_0_169_937
*3897 FILLER_0_169_949
*3898 FILLER_0_169_953
*3899 FILLER_0_169_965
*3900 FILLER_0_169_97
*3901 FILLER_0_169_977
*3902 FILLER_0_169_981
*3903 FILLER_0_169_993
*3904 FILLER_0_16_1464
*3905 FILLER_0_16_1476
*3906 FILLER_0_16_1488
*3907 FILLER_0_16_1490
*3908 FILLER_0_16_1502
*3909 FILLER_0_16_1506
*3910 FILLER_0_16_703
*3911 FILLER_0_16_715
*3912 FILLER_0_16_727
*3913 FILLER_0_16_729
*3914 FILLER_0_16_741
*3915 FILLER_0_170_1464
*3916 FILLER_0_170_1476
*3917 FILLER_0_170_1488
*3918 FILLER_0_170_1490
*3919 FILLER_0_170_1502
*3920 FILLER_0_170_1506
*3921 FILLER_0_170_703
*3922 FILLER_0_170_715
*3923 FILLER_0_170_727
*3924 FILLER_0_170_729
*3925 FILLER_0_170_741
*3926 FILLER_0_171_1464
*3927 FILLER_0_171_1476
*3928 FILLER_0_171_1488
*3929 FILLER_0_171_1500
*3930 FILLER_0_171_1506
*3931 FILLER_0_171_703
*3932 FILLER_0_171_715
*3933 FILLER_0_171_727
*3934 FILLER_0_171_739
*3935 FILLER_0_172_1464
*3936 FILLER_0_172_1476
*3937 FILLER_0_172_1488
*3938 FILLER_0_172_1490
*3939 FILLER_0_172_1502
*3940 FILLER_0_172_1506
*3941 FILLER_0_172_703
*3942 FILLER_0_172_715
*3943 FILLER_0_172_727
*3944 FILLER_0_172_729
*3945 FILLER_0_172_741
*3946 FILLER_0_173_1464
*3947 FILLER_0_173_1476
*3948 FILLER_0_173_1488
*3949 FILLER_0_173_1500
*3950 FILLER_0_173_1506
*3951 FILLER_0_173_703
*3952 FILLER_0_173_715
*3953 FILLER_0_173_727
*3954 FILLER_0_173_739
*3955 FILLER_0_174_1464
*3956 FILLER_0_174_1476
*3957 FILLER_0_174_1488
*3958 FILLER_0_174_1490
*3959 FILLER_0_174_1502
*3960 FILLER_0_174_1506
*3961 FILLER_0_174_703
*3962 FILLER_0_174_715
*3963 FILLER_0_174_727
*3964 FILLER_0_174_729
*3965 FILLER_0_174_741
*3966 FILLER_0_175_1464
*3967 FILLER_0_175_1476
*3968 FILLER_0_175_1488
*3969 FILLER_0_175_1500
*3970 FILLER_0_175_1506
*3971 FILLER_0_175_703
*3972 FILLER_0_175_715
*3973 FILLER_0_175_727
*3974 FILLER_0_175_739
*3975 FILLER_0_176_1464
*3976 FILLER_0_176_1476
*3977 FILLER_0_176_1488
*3978 FILLER_0_176_1490
*3979 FILLER_0_176_1502
*3980 FILLER_0_176_1506
*3981 FILLER_0_176_703
*3982 FILLER_0_176_715
*3983 FILLER_0_176_727
*3984 FILLER_0_176_729
*3985 FILLER_0_176_741
*3986 FILLER_0_177_1464
*3987 FILLER_0_177_1476
*3988 FILLER_0_177_1488
*3989 FILLER_0_177_1500
*3990 FILLER_0_177_1506
*3991 FILLER_0_177_703
*3992 FILLER_0_177_715
*3993 FILLER_0_177_727
*3994 FILLER_0_177_739
*3995 FILLER_0_178_1464
*3996 FILLER_0_178_1476
*3997 FILLER_0_178_1488
*3998 FILLER_0_178_1490
*3999 FILLER_0_178_1502
*4000 FILLER_0_178_1506
*4001 FILLER_0_178_703
*4002 FILLER_0_178_715
*4003 FILLER_0_178_727
*4004 FILLER_0_178_729
*4005 FILLER_0_178_741
*4006 FILLER_0_179_1464
*4007 FILLER_0_179_1476
*4008 FILLER_0_179_1488
*4009 FILLER_0_179_1500
*4010 FILLER_0_179_1506
*4011 FILLER_0_179_703
*4012 FILLER_0_179_715
*4013 FILLER_0_179_727
*4014 FILLER_0_179_739
*4015 FILLER_0_17_1464
*4016 FILLER_0_17_1468
*4017 FILLER_0_17_1480
*4018 FILLER_0_17_1492
*4019 FILLER_0_17_1504
*4020 FILLER_0_17_703
*4021 FILLER_0_17_715
*4022 FILLER_0_17_727
*4023 FILLER_0_17_733
*4024 FILLER_0_17_736
*4025 FILLER_0_180_1464
*4026 FILLER_0_180_1476
*4027 FILLER_0_180_1488
*4028 FILLER_0_180_1490
*4029 FILLER_0_180_1502
*4030 FILLER_0_180_1506
*4031 FILLER_0_180_703
*4032 FILLER_0_180_715
*4033 FILLER_0_180_727
*4034 FILLER_0_180_729
*4035 FILLER_0_180_741
*4036 FILLER_0_181_1464
*4037 FILLER_0_181_1476
*4038 FILLER_0_181_1488
*4039 FILLER_0_181_1500
*4040 FILLER_0_181_1506
*4041 FILLER_0_181_703
*4042 FILLER_0_181_715
*4043 FILLER_0_181_727
*4044 FILLER_0_181_739
*4045 FILLER_0_182_1464
*4046 FILLER_0_182_1476
*4047 FILLER_0_182_1488
*4048 FILLER_0_182_1490
*4049 FILLER_0_182_1502
*4050 FILLER_0_182_1506
*4051 FILLER_0_182_703
*4052 FILLER_0_182_715
*4053 FILLER_0_182_727
*4054 FILLER_0_182_729
*4055 FILLER_0_182_741
*4056 FILLER_0_183_1464
*4057 FILLER_0_183_1476
*4058 FILLER_0_183_1488
*4059 FILLER_0_183_1500
*4060 FILLER_0_183_1506
*4061 FILLER_0_183_703
*4062 FILLER_0_183_707
*4063 FILLER_0_183_719
*4064 FILLER_0_183_731
*4065 FILLER_0_183_743
*4066 FILLER_0_184_1464
*4067 FILLER_0_184_1476
*4068 FILLER_0_184_1488
*4069 FILLER_0_184_1490
*4070 FILLER_0_184_1502
*4071 FILLER_0_184_1506
*4072 FILLER_0_184_703
*4073 FILLER_0_184_715
*4074 FILLER_0_184_727
*4075 FILLER_0_184_729
*4076 FILLER_0_184_741
*4077 FILLER_0_185_1464
*4078 FILLER_0_185_1476
*4079 FILLER_0_185_1488
*4080 FILLER_0_185_1500
*4081 FILLER_0_185_1506
*4082 FILLER_0_185_703
*4083 FILLER_0_185_715
*4084 FILLER_0_185_727
*4085 FILLER_0_185_739
*4086 FILLER_0_186_1464
*4087 FILLER_0_186_1476
*4088 FILLER_0_186_1488
*4089 FILLER_0_186_1490
*4090 FILLER_0_186_1502
*4091 FILLER_0_186_1506
*4092 FILLER_0_186_703
*4093 FILLER_0_186_715
*4094 FILLER_0_186_727
*4095 FILLER_0_186_729
*4096 FILLER_0_186_741
*4097 FILLER_0_187_1464
*4098 FILLER_0_187_1476
*4099 FILLER_0_187_1488
*4100 FILLER_0_187_1500
*4101 FILLER_0_187_1506
*4102 FILLER_0_187_703
*4103 FILLER_0_187_715
*4104 FILLER_0_187_727
*4105 FILLER_0_187_739
*4106 FILLER_0_188_1464
*4107 FILLER_0_188_1476
*4108 FILLER_0_188_1488
*4109 FILLER_0_188_1490
*4110 FILLER_0_188_1502
*4111 FILLER_0_188_1506
*4112 FILLER_0_188_703
*4113 FILLER_0_188_715
*4114 FILLER_0_188_727
*4115 FILLER_0_188_729
*4116 FILLER_0_188_741
*4117 FILLER_0_189_1464
*4118 FILLER_0_189_1476
*4119 FILLER_0_189_1488
*4120 FILLER_0_189_1500
*4121 FILLER_0_189_1506
*4122 FILLER_0_189_703
*4123 FILLER_0_189_715
*4124 FILLER_0_189_727
*4125 FILLER_0_189_739
*4126 FILLER_0_18_1464
*4127 FILLER_0_18_1476
*4128 FILLER_0_18_1488
*4129 FILLER_0_18_1490
*4130 FILLER_0_18_1502
*4131 FILLER_0_18_1506
*4132 FILLER_0_18_703
*4133 FILLER_0_18_715
*4134 FILLER_0_18_727
*4135 FILLER_0_18_729
*4136 FILLER_0_18_741
*4137 FILLER_0_190_1464
*4138 FILLER_0_190_1468
*4139 FILLER_0_190_1480
*4140 FILLER_0_190_1488
*4141 FILLER_0_190_1490
*4142 FILLER_0_190_1502
*4143 FILLER_0_190_1506
*4144 FILLER_0_190_703
*4145 FILLER_0_190_715
*4146 FILLER_0_190_727
*4147 FILLER_0_190_729
*4148 FILLER_0_190_741
*4149 FILLER_0_191_1464
*4150 FILLER_0_191_1468
*4151 FILLER_0_191_1472
*4152 FILLER_0_191_1484
*4153 FILLER_0_191_1496
*4154 FILLER_0_191_1504
*4155 FILLER_0_191_703
*4156 FILLER_0_191_707
*4157 FILLER_0_191_719
*4158 FILLER_0_191_731
*4159 FILLER_0_191_743
*4160 FILLER_0_192_1464
*4161 FILLER_0_192_1468
*4162 FILLER_0_192_1480
*4163 FILLER_0_192_1488
*4164 FILLER_0_192_1490
*4165 FILLER_0_192_1502
*4166 FILLER_0_192_1506
*4167 FILLER_0_192_703
*4168 FILLER_0_192_715
*4169 FILLER_0_192_727
*4170 FILLER_0_192_729
*4171 FILLER_0_192_741
*4172 FILLER_0_193_1464
*4173 FILLER_0_193_1476
*4174 FILLER_0_193_1488
*4175 FILLER_0_193_1500
*4176 FILLER_0_193_1506
*4177 FILLER_0_193_703
*4178 FILLER_0_193_715
*4179 FILLER_0_193_727
*4180 FILLER_0_193_739
*4181 FILLER_0_194_1464
*4182 FILLER_0_194_1476
*4183 FILLER_0_194_1488
*4184 FILLER_0_194_1490
*4185 FILLER_0_194_1502
*4186 FILLER_0_194_1506
*4187 FILLER_0_194_703
*4188 FILLER_0_194_715
*4189 FILLER_0_194_727
*4190 FILLER_0_194_729
*4191 FILLER_0_194_741
*4192 FILLER_0_195_1464
*4193 FILLER_0_195_1468
*4194 FILLER_0_195_1480
*4195 FILLER_0_195_1492
*4196 FILLER_0_195_1504
*4197 FILLER_0_195_703
*4198 FILLER_0_195_707
*4199 FILLER_0_195_719
*4200 FILLER_0_195_731
*4201 FILLER_0_195_743
*4202 FILLER_0_196_1464
*4203 FILLER_0_196_1476
*4204 FILLER_0_196_1488
*4205 FILLER_0_196_1490
*4206 FILLER_0_196_1502
*4207 FILLER_0_196_1506
*4208 FILLER_0_196_703
*4209 FILLER_0_196_715
*4210 FILLER_0_196_727
*4211 FILLER_0_196_729
*4212 FILLER_0_196_741
*4213 FILLER_0_197_1464
*4214 FILLER_0_197_1476
*4215 FILLER_0_197_1488
*4216 FILLER_0_197_1500
*4217 FILLER_0_197_1506
*4218 FILLER_0_197_703
*4219 FILLER_0_197_715
*4220 FILLER_0_197_727
*4221 FILLER_0_197_739
*4222 FILLER_0_198_1464
*4223 FILLER_0_198_1468
*4224 FILLER_0_198_1480
*4225 FILLER_0_198_1488
*4226 FILLER_0_198_1490
*4227 FILLER_0_198_1502
*4228 FILLER_0_198_1506
*4229 FILLER_0_198_703
*4230 FILLER_0_198_715
*4231 FILLER_0_198_727
*4232 FILLER_0_198_729
*4233 FILLER_0_198_741
*4234 FILLER_0_199_1464
*4235 FILLER_0_199_1468
*4236 FILLER_0_199_1472
*4237 FILLER_0_199_1484
*4238 FILLER_0_199_1496
*4239 FILLER_0_199_1504
*4240 FILLER_0_199_703
*4241 FILLER_0_199_707
*4242 FILLER_0_199_719
*4243 FILLER_0_199_731
*4244 FILLER_0_199_743
*4245 FILLER_0_19_1464
*4246 FILLER_0_19_1476
*4247 FILLER_0_19_1488
*4248 FILLER_0_19_1500
*4249 FILLER_0_19_1506
*4250 FILLER_0_19_703
*4251 FILLER_0_19_715
*4252 FILLER_0_19_727
*4253 FILLER_0_19_739
*4254 FILLER_0_1_1003
*4255 FILLER_0_1_1007
*4256 FILLER_0_1_1033
*4257 FILLER_0_1_1037
*4258 FILLER_0_1_1046
*4259 FILLER_0_1_105
*4260 FILLER_0_1_1063
*4261 FILLER_0_1_1065
*4262 FILLER_0_1_1076
*4263 FILLER_0_1_1093
*4264 FILLER_0_1_1099
*4265 FILLER_0_1_111
*4266 FILLER_0_1_1116
*4267 FILLER_0_1_1121
*4268 FILLER_0_1_113
*4269 FILLER_0_1_1175
*4270 FILLER_0_1_1177
*4271 FILLER_0_1_1203
*4272 FILLER_0_1_1215
*4273 FILLER_0_1_1223
*4274 FILLER_0_1_125
*4275 FILLER_0_1_1273
*4276 FILLER_0_1_1279
*4277 FILLER_0_1_1305
*4278 FILLER_0_1_1331
*4279 FILLER_0_1_1343
*4280 FILLER_0_1_1345
*4281 FILLER_0_1_1363
*4282 FILLER_0_1_137
*4283 FILLER_0_1_1393
*4284 FILLER_0_1_1399
*4285 FILLER_0_1_1401
*4286 FILLER_0_1_1423
*4287 FILLER_0_1_1427
*4288 FILLER_0_1_1436
*4289 FILLER_0_1_1453
*4290 FILLER_0_1_1457
*4291 FILLER_0_1_1466
*4292 FILLER_0_1_149
*4293 FILLER_0_1_15
*4294 FILLER_0_1_161
*4295 FILLER_0_1_167
*4296 FILLER_0_1_169
*4297 FILLER_0_1_181
*4298 FILLER_0_1_193
*4299 FILLER_0_1_205
*4300 FILLER_0_1_217
*4301 FILLER_0_1_223
*4302 FILLER_0_1_225
*4303 FILLER_0_1_237
*4304 FILLER_0_1_249
*4305 FILLER_0_1_261
*4306 FILLER_0_1_27
*4307 FILLER_0_1_273
*4308 FILLER_0_1_279
*4309 FILLER_0_1_281
*4310 FILLER_0_1_293
*4311 FILLER_0_1_3
*4312 FILLER_0_1_305
*4313 FILLER_0_1_317
*4314 FILLER_0_1_329
*4315 FILLER_0_1_335
*4316 FILLER_0_1_337
*4317 FILLER_0_1_349
*4318 FILLER_0_1_361
*4319 FILLER_0_1_373
*4320 FILLER_0_1_385
*4321 FILLER_0_1_39
*4322 FILLER_0_1_391
*4323 FILLER_0_1_393
*4324 FILLER_0_1_405
*4325 FILLER_0_1_417
*4326 FILLER_0_1_429
*4327 FILLER_0_1_441
*4328 FILLER_0_1_447
*4329 FILLER_0_1_449
*4330 FILLER_0_1_461
*4331 FILLER_0_1_483
*4332 FILLER_0_1_495
*4333 FILLER_0_1_503
*4334 FILLER_0_1_505
*4335 FILLER_0_1_51
*4336 FILLER_0_1_517
*4337 FILLER_0_1_55
*4338 FILLER_0_1_551
*4339 FILLER_0_1_57
*4340 FILLER_0_1_613
*4341 FILLER_0_1_633
*4342 FILLER_0_1_653
*4343 FILLER_0_1_673
*4344 FILLER_0_1_69
*4345 FILLER_0_1_723
*4346 FILLER_0_1_727
*4347 FILLER_0_1_753
*4348 FILLER_0_1_781
*4349 FILLER_0_1_785
*4350 FILLER_0_1_81
*4351 FILLER_0_1_835
*4352 FILLER_0_1_839
*4353 FILLER_0_1_873
*4354 FILLER_0_1_893
*4355 FILLER_0_1_925
*4356 FILLER_0_1_93
*4357 FILLER_0_1_951
*4358 FILLER_0_1_953
*4359 FILLER_0_1_973
*4360 FILLER_0_200_1464
*4361 FILLER_0_200_1476
*4362 FILLER_0_200_1488
*4363 FILLER_0_200_1490
*4364 FILLER_0_200_1502
*4365 FILLER_0_200_1506
*4366 FILLER_0_200_703
*4367 FILLER_0_200_715
*4368 FILLER_0_200_727
*4369 FILLER_0_200_729
*4370 FILLER_0_200_741
*4371 FILLER_0_201_1464
*4372 FILLER_0_201_1476
*4373 FILLER_0_201_1488
*4374 FILLER_0_201_1500
*4375 FILLER_0_201_1506
*4376 FILLER_0_201_703
*4377 FILLER_0_201_715
*4378 FILLER_0_201_727
*4379 FILLER_0_201_739
*4380 FILLER_0_202_1464
*4381 FILLER_0_202_1476
*4382 FILLER_0_202_1488
*4383 FILLER_0_202_1490
*4384 FILLER_0_202_1502
*4385 FILLER_0_202_1506
*4386 FILLER_0_202_703
*4387 FILLER_0_202_715
*4388 FILLER_0_202_727
*4389 FILLER_0_202_729
*4390 FILLER_0_202_741
*4391 FILLER_0_203_1464
*4392 FILLER_0_203_1468
*4393 FILLER_0_203_1480
*4394 FILLER_0_203_1492
*4395 FILLER_0_203_1504
*4396 FILLER_0_203_703
*4397 FILLER_0_203_707
*4398 FILLER_0_203_719
*4399 FILLER_0_203_731
*4400 FILLER_0_203_743
*4401 FILLER_0_204_1464
*4402 FILLER_0_204_1476
*4403 FILLER_0_204_1488
*4404 FILLER_0_204_1490
*4405 FILLER_0_204_1502
*4406 FILLER_0_204_1506
*4407 FILLER_0_204_703
*4408 FILLER_0_204_715
*4409 FILLER_0_204_727
*4410 FILLER_0_204_729
*4411 FILLER_0_204_741
*4412 FILLER_0_205_1464
*4413 FILLER_0_205_1476
*4414 FILLER_0_205_1488
*4415 FILLER_0_205_1500
*4416 FILLER_0_205_1506
*4417 FILLER_0_205_703
*4418 FILLER_0_205_715
*4419 FILLER_0_205_727
*4420 FILLER_0_205_739
*4421 FILLER_0_206_1464
*4422 FILLER_0_206_1468
*4423 FILLER_0_206_1480
*4424 FILLER_0_206_1488
*4425 FILLER_0_206_1490
*4426 FILLER_0_206_1502
*4427 FILLER_0_206_1506
*4428 FILLER_0_206_703
*4429 FILLER_0_206_715
*4430 FILLER_0_206_727
*4431 FILLER_0_206_729
*4432 FILLER_0_206_741
*4433 FILLER_0_207_1464
*4434 FILLER_0_207_1468
*4435 FILLER_0_207_1472
*4436 FILLER_0_207_1484
*4437 FILLER_0_207_1496
*4438 FILLER_0_207_1504
*4439 FILLER_0_207_703
*4440 FILLER_0_207_707
*4441 FILLER_0_207_719
*4442 FILLER_0_207_731
*4443 FILLER_0_207_743
*4444 FILLER_0_208_1464
*4445 FILLER_0_208_1468
*4446 FILLER_0_208_1480
*4447 FILLER_0_208_1488
*4448 FILLER_0_208_1490
*4449 FILLER_0_208_1502
*4450 FILLER_0_208_1506
*4451 FILLER_0_208_703
*4452 FILLER_0_208_715
*4453 FILLER_0_208_727
*4454 FILLER_0_208_729
*4455 FILLER_0_208_741
*4456 FILLER_0_209_1464
*4457 FILLER_0_209_1476
*4458 FILLER_0_209_1488
*4459 FILLER_0_209_1500
*4460 FILLER_0_209_1506
*4461 FILLER_0_209_703
*4462 FILLER_0_209_715
*4463 FILLER_0_209_727
*4464 FILLER_0_209_739
*4465 FILLER_0_20_1464
*4466 FILLER_0_20_1468
*4467 FILLER_0_20_1472
*4468 FILLER_0_20_1484
*4469 FILLER_0_20_1488
*4470 FILLER_0_20_1490
*4471 FILLER_0_20_1502
*4472 FILLER_0_20_1506
*4473 FILLER_0_20_703
*4474 FILLER_0_20_715
*4475 FILLER_0_20_727
*4476 FILLER_0_20_729
*4477 FILLER_0_20_741
*4478 FILLER_0_210_1464
*4479 FILLER_0_210_1476
*4480 FILLER_0_210_1488
*4481 FILLER_0_210_1490
*4482 FILLER_0_210_1502
*4483 FILLER_0_210_1506
*4484 FILLER_0_210_703
*4485 FILLER_0_210_715
*4486 FILLER_0_210_727
*4487 FILLER_0_210_729
*4488 FILLER_0_210_741
*4489 FILLER_0_211_1464
*4490 FILLER_0_211_1468
*4491 FILLER_0_211_1480
*4492 FILLER_0_211_1492
*4493 FILLER_0_211_1504
*4494 FILLER_0_211_703
*4495 FILLER_0_211_707
*4496 FILLER_0_211_719
*4497 FILLER_0_211_731
*4498 FILLER_0_211_743
*4499 FILLER_0_212_1464
*4500 FILLER_0_212_1476
*4501 FILLER_0_212_1488
*4502 FILLER_0_212_1490
*4503 FILLER_0_212_1502
*4504 FILLER_0_212_1506
*4505 FILLER_0_212_703
*4506 FILLER_0_212_715
*4507 FILLER_0_212_727
*4508 FILLER_0_212_729
*4509 FILLER_0_212_741
*4510 FILLER_0_213_1464
*4511 FILLER_0_213_1476
*4512 FILLER_0_213_1488
*4513 FILLER_0_213_1500
*4514 FILLER_0_213_1506
*4515 FILLER_0_213_703
*4516 FILLER_0_213_715
*4517 FILLER_0_213_727
*4518 FILLER_0_213_739
*4519 FILLER_0_214_1464
*4520 FILLER_0_214_1476
*4521 FILLER_0_214_1488
*4522 FILLER_0_214_1490
*4523 FILLER_0_214_1502
*4524 FILLER_0_214_1506
*4525 FILLER_0_214_703
*4526 FILLER_0_214_715
*4527 FILLER_0_214_727
*4528 FILLER_0_214_729
*4529 FILLER_0_214_741
*4530 FILLER_0_215_1464
*4531 FILLER_0_215_1468
*4532 FILLER_0_215_1480
*4533 FILLER_0_215_1492
*4534 FILLER_0_215_1504
*4535 FILLER_0_215_703
*4536 FILLER_0_215_707
*4537 FILLER_0_215_719
*4538 FILLER_0_215_731
*4539 FILLER_0_215_743
*4540 FILLER_0_216_1464
*4541 FILLER_0_216_1476
*4542 FILLER_0_216_1488
*4543 FILLER_0_216_1490
*4544 FILLER_0_216_1502
*4545 FILLER_0_216_1506
*4546 FILLER_0_216_703
*4547 FILLER_0_216_715
*4548 FILLER_0_216_727
*4549 FILLER_0_216_729
*4550 FILLER_0_216_741
*4551 FILLER_0_217_1464
*4552 FILLER_0_217_1476
*4553 FILLER_0_217_1488
*4554 FILLER_0_217_1500
*4555 FILLER_0_217_1506
*4556 FILLER_0_217_703
*4557 FILLER_0_217_715
*4558 FILLER_0_217_727
*4559 FILLER_0_217_739
*4560 FILLER_0_218_1464
*4561 FILLER_0_218_1476
*4562 FILLER_0_218_1488
*4563 FILLER_0_218_1490
*4564 FILLER_0_218_1502
*4565 FILLER_0_218_1506
*4566 FILLER_0_218_703
*4567 FILLER_0_218_715
*4568 FILLER_0_218_727
*4569 FILLER_0_218_729
*4570 FILLER_0_218_741
*4571 FILLER_0_219_1464
*4572 FILLER_0_219_1468
*4573 FILLER_0_219_1480
*4574 FILLER_0_219_1492
*4575 FILLER_0_219_1504
*4576 FILLER_0_219_703
*4577 FILLER_0_219_707
*4578 FILLER_0_219_719
*4579 FILLER_0_219_731
*4580 FILLER_0_219_743
*4581 FILLER_0_21_1464
*4582 FILLER_0_21_1468
*4583 FILLER_0_21_1472
*4584 FILLER_0_21_1476
*4585 FILLER_0_21_1488
*4586 FILLER_0_21_1500
*4587 FILLER_0_21_1506
*4588 FILLER_0_21_703
*4589 FILLER_0_21_715
*4590 FILLER_0_21_727
*4591 FILLER_0_21_739
*4592 FILLER_0_220_1464
*4593 FILLER_0_220_1476
*4594 FILLER_0_220_1488
*4595 FILLER_0_220_1490
*4596 FILLER_0_220_1502
*4597 FILLER_0_220_1506
*4598 FILLER_0_220_703
*4599 FILLER_0_220_715
*4600 FILLER_0_220_727
*4601 FILLER_0_220_729
*4602 FILLER_0_220_741
*4603 FILLER_0_221_1464
*4604 FILLER_0_221_1476
*4605 FILLER_0_221_1488
*4606 FILLER_0_221_1500
*4607 FILLER_0_221_1506
*4608 FILLER_0_221_703
*4609 FILLER_0_221_715
*4610 FILLER_0_221_727
*4611 FILLER_0_221_739
*4612 FILLER_0_222_1464
*4613 FILLER_0_222_1476
*4614 FILLER_0_222_1488
*4615 FILLER_0_222_1490
*4616 FILLER_0_222_1502
*4617 FILLER_0_222_1506
*4618 FILLER_0_222_703
*4619 FILLER_0_222_715
*4620 FILLER_0_222_727
*4621 FILLER_0_222_729
*4622 FILLER_0_222_741
*4623 FILLER_0_223_1464
*4624 FILLER_0_223_1468
*4625 FILLER_0_223_1480
*4626 FILLER_0_223_1492
*4627 FILLER_0_223_1504
*4628 FILLER_0_223_703
*4629 FILLER_0_223_707
*4630 FILLER_0_223_719
*4631 FILLER_0_223_731
*4632 FILLER_0_223_743
*4633 FILLER_0_224_1464
*4634 FILLER_0_224_1476
*4635 FILLER_0_224_1488
*4636 FILLER_0_224_1490
*4637 FILLER_0_224_1502
*4638 FILLER_0_224_1506
*4639 FILLER_0_224_703
*4640 FILLER_0_224_715
*4641 FILLER_0_224_727
*4642 FILLER_0_224_729
*4643 FILLER_0_224_741
*4644 FILLER_0_225_1464
*4645 FILLER_0_225_1476
*4646 FILLER_0_225_1488
*4647 FILLER_0_225_1500
*4648 FILLER_0_225_1506
*4649 FILLER_0_225_703
*4650 FILLER_0_225_715
*4651 FILLER_0_225_727
*4652 FILLER_0_225_739
*4653 FILLER_0_226_1464
*4654 FILLER_0_226_1476
*4655 FILLER_0_226_1488
*4656 FILLER_0_226_1490
*4657 FILLER_0_226_1502
*4658 FILLER_0_226_1506
*4659 FILLER_0_226_703
*4660 FILLER_0_226_715
*4661 FILLER_0_226_727
*4662 FILLER_0_226_729
*4663 FILLER_0_226_741
*4664 FILLER_0_227_1464
*4665 FILLER_0_227_1468
*4666 FILLER_0_227_1472
*4667 FILLER_0_227_1484
*4668 FILLER_0_227_1496
*4669 FILLER_0_227_1504
*4670 FILLER_0_227_703
*4671 FILLER_0_227_707
*4672 FILLER_0_227_719
*4673 FILLER_0_227_731
*4674 FILLER_0_227_743
*4675 FILLER_0_228_1464
*4676 FILLER_0_228_1476
*4677 FILLER_0_228_1488
*4678 FILLER_0_228_1490
*4679 FILLER_0_228_1502
*4680 FILLER_0_228_1506
*4681 FILLER_0_228_703
*4682 FILLER_0_228_715
*4683 FILLER_0_228_727
*4684 FILLER_0_228_729
*4685 FILLER_0_228_741
*4686 FILLER_0_229_1464
*4687 FILLER_0_229_1476
*4688 FILLER_0_229_1488
*4689 FILLER_0_229_1500
*4690 FILLER_0_229_1506
*4691 FILLER_0_229_703
*4692 FILLER_0_229_715
*4693 FILLER_0_229_727
*4694 FILLER_0_229_739
*4695 FILLER_0_22_1464
*4696 FILLER_0_22_1468
*4697 FILLER_0_22_1472
*4698 FILLER_0_22_1484
*4699 FILLER_0_22_1488
*4700 FILLER_0_22_1490
*4701 FILLER_0_22_1502
*4702 FILLER_0_22_1506
*4703 FILLER_0_22_703
*4704 FILLER_0_22_711
*4705 FILLER_0_22_721
*4706 FILLER_0_22_727
*4707 FILLER_0_22_729
*4708 FILLER_0_22_741
*4709 FILLER_0_22_745
*4710 FILLER_0_230_1464
*4711 FILLER_0_230_1476
*4712 FILLER_0_230_1488
*4713 FILLER_0_230_1490
*4714 FILLER_0_230_1502
*4715 FILLER_0_230_1506
*4716 FILLER_0_230_703
*4717 FILLER_0_230_715
*4718 FILLER_0_230_727
*4719 FILLER_0_230_729
*4720 FILLER_0_230_741
*4721 FILLER_0_231_1464
*4722 FILLER_0_231_1468
*4723 FILLER_0_231_1480
*4724 FILLER_0_231_1492
*4725 FILLER_0_231_1504
*4726 FILLER_0_231_703
*4727 FILLER_0_231_707
*4728 FILLER_0_231_719
*4729 FILLER_0_231_731
*4730 FILLER_0_231_743
*4731 FILLER_0_232_1464
*4732 FILLER_0_232_1476
*4733 FILLER_0_232_1488
*4734 FILLER_0_232_1490
*4735 FILLER_0_232_1502
*4736 FILLER_0_232_1506
*4737 FILLER_0_232_703
*4738 FILLER_0_232_715
*4739 FILLER_0_232_727
*4740 FILLER_0_232_729
*4741 FILLER_0_232_741
*4742 FILLER_0_233_1464
*4743 FILLER_0_233_1476
*4744 FILLER_0_233_1488
*4745 FILLER_0_233_1500
*4746 FILLER_0_233_1506
*4747 FILLER_0_233_703
*4748 FILLER_0_233_715
*4749 FILLER_0_233_727
*4750 FILLER_0_233_739
*4751 FILLER_0_234_1464
*4752 FILLER_0_234_1476
*4753 FILLER_0_234_1488
*4754 FILLER_0_234_1490
*4755 FILLER_0_234_1502
*4756 FILLER_0_234_1506
*4757 FILLER_0_234_703
*4758 FILLER_0_234_715
*4759 FILLER_0_234_727
*4760 FILLER_0_234_729
*4761 FILLER_0_234_741
*4762 FILLER_0_235_1464
*4763 FILLER_0_235_1468
*4764 FILLER_0_235_1480
*4765 FILLER_0_235_1492
*4766 FILLER_0_235_1504
*4767 FILLER_0_235_703
*4768 FILLER_0_235_707
*4769 FILLER_0_235_719
*4770 FILLER_0_235_731
*4771 FILLER_0_235_743
*4772 FILLER_0_236_1464
*4773 FILLER_0_236_1476
*4774 FILLER_0_236_1488
*4775 FILLER_0_236_1490
*4776 FILLER_0_236_1502
*4777 FILLER_0_236_1506
*4778 FILLER_0_236_703
*4779 FILLER_0_236_715
*4780 FILLER_0_236_727
*4781 FILLER_0_236_729
*4782 FILLER_0_236_741
*4783 FILLER_0_237_1464
*4784 FILLER_0_237_1476
*4785 FILLER_0_237_1488
*4786 FILLER_0_237_1500
*4787 FILLER_0_237_1506
*4788 FILLER_0_237_703
*4789 FILLER_0_237_715
*4790 FILLER_0_237_727
*4791 FILLER_0_237_739
*4792 FILLER_0_238_1467
*4793 FILLER_0_238_1479
*4794 FILLER_0_238_1487
*4795 FILLER_0_238_1490
*4796 FILLER_0_238_1502
*4797 FILLER_0_238_1506
*4798 FILLER_0_238_706
*4799 FILLER_0_238_718
*4800 FILLER_0_238_726
*4801 FILLER_0_238_729
*4802 FILLER_0_238_741
*4803 FILLER_0_239_1464
*4804 FILLER_0_239_1468
*4805 FILLER_0_239_1480
*4806 FILLER_0_239_1492
*4807 FILLER_0_239_1504
*4808 FILLER_0_239_703
*4809 FILLER_0_239_707
*4810 FILLER_0_239_719
*4811 FILLER_0_239_731
*4812 FILLER_0_239_743
*4813 FILLER_0_23_1464
*4814 FILLER_0_23_1476
*4815 FILLER_0_23_1488
*4816 FILLER_0_23_1500
*4817 FILLER_0_23_1506
*4818 FILLER_0_23_703
*4819 FILLER_0_23_715
*4820 FILLER_0_23_727
*4821 FILLER_0_23_739
*4822 FILLER_0_240_1467
*4823 FILLER_0_240_1479
*4824 FILLER_0_240_1487
*4825 FILLER_0_240_1490
*4826 FILLER_0_240_1502
*4827 FILLER_0_240_1506
*4828 FILLER_0_240_706
*4829 FILLER_0_240_718
*4830 FILLER_0_240_726
*4831 FILLER_0_240_729
*4832 FILLER_0_240_741
*4833 FILLER_0_241_1464
*4834 FILLER_0_241_1476
*4835 FILLER_0_241_1488
*4836 FILLER_0_241_1500
*4837 FILLER_0_241_1506
*4838 FILLER_0_241_703
*4839 FILLER_0_241_715
*4840 FILLER_0_241_727
*4841 FILLER_0_241_739
*4842 FILLER_0_242_1464
*4843 FILLER_0_242_1476
*4844 FILLER_0_242_1488
*4845 FILLER_0_242_1490
*4846 FILLER_0_242_1502
*4847 FILLER_0_242_1506
*4848 FILLER_0_242_703
*4849 FILLER_0_242_715
*4850 FILLER_0_242_727
*4851 FILLER_0_242_729
*4852 FILLER_0_242_741
*4853 FILLER_0_243_1464
*4854 FILLER_0_243_1476
*4855 FILLER_0_243_1488
*4856 FILLER_0_243_1500
*4857 FILLER_0_243_1506
*4858 FILLER_0_243_703
*4859 FILLER_0_243_715
*4860 FILLER_0_243_727
*4861 FILLER_0_243_739
*4862 FILLER_0_244_1464
*4863 FILLER_0_244_1476
*4864 FILLER_0_244_1488
*4865 FILLER_0_244_1490
*4866 FILLER_0_244_1502
*4867 FILLER_0_244_1506
*4868 FILLER_0_244_703
*4869 FILLER_0_244_715
*4870 FILLER_0_244_727
*4871 FILLER_0_244_729
*4872 FILLER_0_244_741
*4873 FILLER_0_245_1464
*4874 FILLER_0_245_1476
*4875 FILLER_0_245_1488
*4876 FILLER_0_245_1500
*4877 FILLER_0_245_1506
*4878 FILLER_0_245_703
*4879 FILLER_0_245_715
*4880 FILLER_0_245_727
*4881 FILLER_0_245_739
*4882 FILLER_0_246_1470
*4883 FILLER_0_246_1482
*4884 FILLER_0_246_1488
*4885 FILLER_0_246_1490
*4886 FILLER_0_246_1502
*4887 FILLER_0_246_1506
*4888 FILLER_0_246_709
*4889 FILLER_0_246_721
*4890 FILLER_0_246_727
*4891 FILLER_0_246_729
*4892 FILLER_0_246_741
*4893 FILLER_0_247_1464
*4894 FILLER_0_247_1476
*4895 FILLER_0_247_1488
*4896 FILLER_0_247_1500
*4897 FILLER_0_247_1506
*4898 FILLER_0_247_703
*4899 FILLER_0_247_715
*4900 FILLER_0_247_727
*4901 FILLER_0_247_739
*4902 FILLER_0_248_1464
*4903 FILLER_0_248_1476
*4904 FILLER_0_248_1488
*4905 FILLER_0_248_1490
*4906 FILLER_0_248_1502
*4907 FILLER_0_248_1506
*4908 FILLER_0_248_703
*4909 FILLER_0_248_715
*4910 FILLER_0_248_727
*4911 FILLER_0_248_729
*4912 FILLER_0_248_741
*4913 FILLER_0_249_1464
*4914 FILLER_0_249_1476
*4915 FILLER_0_249_1488
*4916 FILLER_0_249_1500
*4917 FILLER_0_249_1506
*4918 FILLER_0_249_703
*4919 FILLER_0_249_715
*4920 FILLER_0_249_727
*4921 FILLER_0_249_739
*4922 FILLER_0_24_1464
*4923 FILLER_0_24_1468
*4924 FILLER_0_24_1480
*4925 FILLER_0_24_1488
*4926 FILLER_0_24_1490
*4927 FILLER_0_24_1502
*4928 FILLER_0_24_1506
*4929 FILLER_0_24_719
*4930 FILLER_0_24_727
*4931 FILLER_0_24_729
*4932 FILLER_0_24_741
*4933 FILLER_0_250_1464
*4934 FILLER_0_250_1476
*4935 FILLER_0_250_1488
*4936 FILLER_0_250_1490
*4937 FILLER_0_250_1502
*4938 FILLER_0_250_1506
*4939 FILLER_0_250_703
*4940 FILLER_0_250_715
*4941 FILLER_0_250_727
*4942 FILLER_0_250_729
*4943 FILLER_0_250_741
*4944 FILLER_0_251_1467
*4945 FILLER_0_251_1479
*4946 FILLER_0_251_1491
*4947 FILLER_0_251_1503
*4948 FILLER_0_251_706
*4949 FILLER_0_251_718
*4950 FILLER_0_251_730
*4951 FILLER_0_251_742
*4952 FILLER_0_251_746
*4953 FILLER_0_252_1467
*4954 FILLER_0_252_1471
*4955 FILLER_0_252_1483
*4956 FILLER_0_252_1490
*4957 FILLER_0_252_1502
*4958 FILLER_0_252_1506
*4959 FILLER_0_252_706
*4960 FILLER_0_252_710
*4961 FILLER_0_252_722
*4962 FILLER_0_252_729
*4963 FILLER_0_252_741
*4964 FILLER_0_253_1464
*4965 FILLER_0_253_1476
*4966 FILLER_0_253_1488
*4967 FILLER_0_253_1500
*4968 FILLER_0_253_1506
*4969 FILLER_0_253_703
*4970 FILLER_0_253_715
*4971 FILLER_0_253_727
*4972 FILLER_0_253_739
*4973 FILLER_0_254_1464
*4974 FILLER_0_254_1476
*4975 FILLER_0_254_1488
*4976 FILLER_0_254_1490
*4977 FILLER_0_254_1502
*4978 FILLER_0_254_1506
*4979 FILLER_0_254_703
*4980 FILLER_0_254_715
*4981 FILLER_0_254_727
*4982 FILLER_0_254_729
*4983 FILLER_0_254_741
*4984 FILLER_0_255_1464
*4985 FILLER_0_255_1468
*4986 FILLER_0_255_1480
*4987 FILLER_0_255_1492
*4988 FILLER_0_255_1504
*4989 FILLER_0_255_703
*4990 FILLER_0_255_707
*4991 FILLER_0_255_719
*4992 FILLER_0_255_731
*4993 FILLER_0_255_743
*4994 FILLER_0_256_1470
*4995 FILLER_0_256_1474
*4996 FILLER_0_256_1486
*4997 FILLER_0_256_1490
*4998 FILLER_0_256_1502
*4999 FILLER_0_256_1506
*5000 FILLER_0_256_709
*5001 FILLER_0_256_721
*5002 FILLER_0_256_727
*5003 FILLER_0_256_729
*5004 FILLER_0_256_741
*5005 FILLER_0_257_1464
*5006 FILLER_0_257_1476
*5007 FILLER_0_257_1488
*5008 FILLER_0_257_1500
*5009 FILLER_0_257_1506
*5010 FILLER_0_257_703
*5011 FILLER_0_257_715
*5012 FILLER_0_257_727
*5013 FILLER_0_257_739
*5014 FILLER_0_258_1464
*5015 FILLER_0_258_1476
*5016 FILLER_0_258_1488
*5017 FILLER_0_258_1490
*5018 FILLER_0_258_1502
*5019 FILLER_0_258_1506
*5020 FILLER_0_258_703
*5021 FILLER_0_258_715
*5022 FILLER_0_258_727
*5023 FILLER_0_258_729
*5024 FILLER_0_258_741
*5025 FILLER_0_259_1464
*5026 FILLER_0_259_1476
*5027 FILLER_0_259_1488
*5028 FILLER_0_259_1500
*5029 FILLER_0_259_1506
*5030 FILLER_0_259_703
*5031 FILLER_0_259_715
*5032 FILLER_0_259_727
*5033 FILLER_0_259_739
*5034 FILLER_0_25_1464
*5035 FILLER_0_25_1468
*5036 FILLER_0_25_1472
*5037 FILLER_0_25_1484
*5038 FILLER_0_25_1496
*5039 FILLER_0_25_1504
*5040 FILLER_0_25_703
*5041 FILLER_0_25_715
*5042 FILLER_0_25_727
*5043 FILLER_0_25_739
*5044 FILLER_0_260_1464
*5045 FILLER_0_260_1468
*5046 FILLER_0_260_1472
*5047 FILLER_0_260_1484
*5048 FILLER_0_260_1488
*5049 FILLER_0_260_1490
*5050 FILLER_0_260_1502
*5051 FILLER_0_260_1506
*5052 FILLER_0_260_703
*5053 FILLER_0_260_707
*5054 FILLER_0_260_719
*5055 FILLER_0_260_727
*5056 FILLER_0_260_729
*5057 FILLER_0_260_741
*5058 FILLER_0_261_1464
*5059 FILLER_0_261_1476
*5060 FILLER_0_261_1488
*5061 FILLER_0_261_1500
*5062 FILLER_0_261_1506
*5063 FILLER_0_261_703
*5064 FILLER_0_261_715
*5065 FILLER_0_261_727
*5066 FILLER_0_261_739
*5067 FILLER_0_262_1464
*5068 FILLER_0_262_1476
*5069 FILLER_0_262_1488
*5070 FILLER_0_262_1490
*5071 FILLER_0_262_1502
*5072 FILLER_0_262_1506
*5073 FILLER_0_262_703
*5074 FILLER_0_262_715
*5075 FILLER_0_262_727
*5076 FILLER_0_262_729
*5077 FILLER_0_262_741
*5078 FILLER_0_263_1464
*5079 FILLER_0_263_1476
*5080 FILLER_0_263_1488
*5081 FILLER_0_263_1500
*5082 FILLER_0_263_1506
*5083 FILLER_0_263_703
*5084 FILLER_0_263_715
*5085 FILLER_0_263_727
*5086 FILLER_0_263_739
*5087 FILLER_0_264_1464
*5088 FILLER_0_264_1468
*5089 FILLER_0_264_1480
*5090 FILLER_0_264_1488
*5091 FILLER_0_264_1490
*5092 FILLER_0_264_1502
*5093 FILLER_0_264_1506
*5094 FILLER_0_264_703
*5095 FILLER_0_264_707
*5096 FILLER_0_264_719
*5097 FILLER_0_264_727
*5098 FILLER_0_264_729
*5099 FILLER_0_264_741
*5100 FILLER_0_265_1464
*5101 FILLER_0_265_1476
*5102 FILLER_0_265_1488
*5103 FILLER_0_265_1500
*5104 FILLER_0_265_1506
*5105 FILLER_0_265_703
*5106 FILLER_0_265_715
*5107 FILLER_0_265_727
*5108 FILLER_0_265_739
*5109 FILLER_0_266_1464
*5110 FILLER_0_266_1476
*5111 FILLER_0_266_1488
*5112 FILLER_0_266_1490
*5113 FILLER_0_266_1502
*5114 FILLER_0_266_1506
*5115 FILLER_0_266_703
*5116 FILLER_0_266_715
*5117 FILLER_0_266_727
*5118 FILLER_0_266_729
*5119 FILLER_0_266_741
*5120 FILLER_0_267_1464
*5121 FILLER_0_267_1476
*5122 FILLER_0_267_1488
*5123 FILLER_0_267_1500
*5124 FILLER_0_267_1506
*5125 FILLER_0_267_703
*5126 FILLER_0_267_715
*5127 FILLER_0_267_727
*5128 FILLER_0_267_739
*5129 FILLER_0_268_1464
*5130 FILLER_0_268_1468
*5131 FILLER_0_268_1480
*5132 FILLER_0_268_1488
*5133 FILLER_0_268_1490
*5134 FILLER_0_268_1502
*5135 FILLER_0_268_1506
*5136 FILLER_0_268_703
*5137 FILLER_0_268_707
*5138 FILLER_0_268_719
*5139 FILLER_0_268_727
*5140 FILLER_0_268_729
*5141 FILLER_0_268_741
*5142 FILLER_0_269_1464
*5143 FILLER_0_269_1476
*5144 FILLER_0_269_1488
*5145 FILLER_0_269_1500
*5146 FILLER_0_269_1506
*5147 FILLER_0_269_703
*5148 FILLER_0_269_715
*5149 FILLER_0_269_727
*5150 FILLER_0_269_739
*5151 FILLER_0_26_1464
*5152 FILLER_0_26_1468
*5153 FILLER_0_26_1480
*5154 FILLER_0_26_1488
*5155 FILLER_0_26_1490
*5156 FILLER_0_26_1502
*5157 FILLER_0_26_1506
*5158 FILLER_0_26_712
*5159 FILLER_0_26_724
*5160 FILLER_0_26_729
*5161 FILLER_0_26_741
*5162 FILLER_0_270_1464
*5163 FILLER_0_270_1476
*5164 FILLER_0_270_1488
*5165 FILLER_0_270_1490
*5166 FILLER_0_270_1502
*5167 FILLER_0_270_1506
*5168 FILLER_0_270_703
*5169 FILLER_0_270_715
*5170 FILLER_0_270_727
*5171 FILLER_0_270_729
*5172 FILLER_0_270_741
*5173 FILLER_0_271_1464
*5174 FILLER_0_271_1476
*5175 FILLER_0_271_1488
*5176 FILLER_0_271_1500
*5177 FILLER_0_271_1506
*5178 FILLER_0_271_703
*5179 FILLER_0_271_715
*5180 FILLER_0_271_727
*5181 FILLER_0_271_739
*5182 FILLER_0_272_1464
*5183 FILLER_0_272_1468
*5184 FILLER_0_272_1480
*5185 FILLER_0_272_1488
*5186 FILLER_0_272_1490
*5187 FILLER_0_272_1502
*5188 FILLER_0_272_1506
*5189 FILLER_0_272_703
*5190 FILLER_0_272_707
*5191 FILLER_0_272_719
*5192 FILLER_0_272_727
*5193 FILLER_0_272_729
*5194 FILLER_0_272_741
*5195 FILLER_0_273_1464
*5196 FILLER_0_273_1476
*5197 FILLER_0_273_1488
*5198 FILLER_0_273_1500
*5199 FILLER_0_273_1506
*5200 FILLER_0_273_703
*5201 FILLER_0_273_715
*5202 FILLER_0_273_727
*5203 FILLER_0_273_739
*5204 FILLER_0_274_1464
*5205 FILLER_0_274_1476
*5206 FILLER_0_274_1488
*5207 FILLER_0_274_1490
*5208 FILLER_0_274_1502
*5209 FILLER_0_274_1506
*5210 FILLER_0_274_703
*5211 FILLER_0_274_715
*5212 FILLER_0_274_727
*5213 FILLER_0_274_729
*5214 FILLER_0_274_741
*5215 FILLER_0_275_1464
*5216 FILLER_0_275_1476
*5217 FILLER_0_275_1488
*5218 FILLER_0_275_1500
*5219 FILLER_0_275_1506
*5220 FILLER_0_275_703
*5221 FILLER_0_275_715
*5222 FILLER_0_275_727
*5223 FILLER_0_275_739
*5224 FILLER_0_276_1464
*5225 FILLER_0_276_1468
*5226 FILLER_0_276_1480
*5227 FILLER_0_276_1488
*5228 FILLER_0_276_1490
*5229 FILLER_0_276_1502
*5230 FILLER_0_276_1506
*5231 FILLER_0_276_703
*5232 FILLER_0_276_707
*5233 FILLER_0_276_719
*5234 FILLER_0_276_727
*5235 FILLER_0_276_729
*5236 FILLER_0_276_741
*5237 FILLER_0_277_1464
*5238 FILLER_0_277_1476
*5239 FILLER_0_277_1488
*5240 FILLER_0_277_1500
*5241 FILLER_0_277_1506
*5242 FILLER_0_277_703
*5243 FILLER_0_277_715
*5244 FILLER_0_277_727
*5245 FILLER_0_277_739
*5246 FILLER_0_278_1464
*5247 FILLER_0_278_1476
*5248 FILLER_0_278_1488
*5249 FILLER_0_278_1490
*5250 FILLER_0_278_1502
*5251 FILLER_0_278_1506
*5252 FILLER_0_278_703
*5253 FILLER_0_278_715
*5254 FILLER_0_278_727
*5255 FILLER_0_278_729
*5256 FILLER_0_278_741
*5257 FILLER_0_279_1464
*5258 FILLER_0_279_1476
*5259 FILLER_0_279_1488
*5260 FILLER_0_279_1500
*5261 FILLER_0_279_1506
*5262 FILLER_0_279_703
*5263 FILLER_0_279_715
*5264 FILLER_0_279_727
*5265 FILLER_0_279_739
*5266 FILLER_0_27_1464
*5267 FILLER_0_27_1476
*5268 FILLER_0_27_1488
*5269 FILLER_0_27_1500
*5270 FILLER_0_27_1506
*5271 FILLER_0_27_703
*5272 FILLER_0_27_715
*5273 FILLER_0_27_727
*5274 FILLER_0_27_739
*5275 FILLER_0_280_1464
*5276 FILLER_0_280_1468
*5277 FILLER_0_280_1480
*5278 FILLER_0_280_1488
*5279 FILLER_0_280_1490
*5280 FILLER_0_280_1502
*5281 FILLER_0_280_1506
*5282 FILLER_0_280_703
*5283 FILLER_0_280_707
*5284 FILLER_0_280_719
*5285 FILLER_0_280_727
*5286 FILLER_0_280_729
*5287 FILLER_0_280_741
*5288 FILLER_0_281_1464
*5289 FILLER_0_281_1476
*5290 FILLER_0_281_1488
*5291 FILLER_0_281_1500
*5292 FILLER_0_281_1506
*5293 FILLER_0_281_703
*5294 FILLER_0_281_715
*5295 FILLER_0_281_727
*5296 FILLER_0_281_739
*5297 FILLER_0_282_1464
*5298 FILLER_0_282_1476
*5299 FILLER_0_282_1488
*5300 FILLER_0_282_1490
*5301 FILLER_0_282_1502
*5302 FILLER_0_282_1506
*5303 FILLER_0_282_703
*5304 FILLER_0_282_715
*5305 FILLER_0_282_727
*5306 FILLER_0_282_729
*5307 FILLER_0_282_741
*5308 FILLER_0_283_1464
*5309 FILLER_0_283_1476
*5310 FILLER_0_283_1488
*5311 FILLER_0_283_1500
*5312 FILLER_0_283_1506
*5313 FILLER_0_283_703
*5314 FILLER_0_283_715
*5315 FILLER_0_283_727
*5316 FILLER_0_283_739
*5317 FILLER_0_284_1464
*5318 FILLER_0_284_1468
*5319 FILLER_0_284_1480
*5320 FILLER_0_284_1488
*5321 FILLER_0_284_1490
*5322 FILLER_0_284_1502
*5323 FILLER_0_284_1506
*5324 FILLER_0_284_703
*5325 FILLER_0_284_707
*5326 FILLER_0_284_719
*5327 FILLER_0_284_727
*5328 FILLER_0_284_729
*5329 FILLER_0_284_741
*5330 FILLER_0_285_1464
*5331 FILLER_0_285_1476
*5332 FILLER_0_285_1488
*5333 FILLER_0_285_1500
*5334 FILLER_0_285_1506
*5335 FILLER_0_285_703
*5336 FILLER_0_285_715
*5337 FILLER_0_285_727
*5338 FILLER_0_285_739
*5339 FILLER_0_286_1464
*5340 FILLER_0_286_1476
*5341 FILLER_0_286_1488
*5342 FILLER_0_286_1490
*5343 FILLER_0_286_1502
*5344 FILLER_0_286_1506
*5345 FILLER_0_286_703
*5346 FILLER_0_286_715
*5347 FILLER_0_286_727
*5348 FILLER_0_286_729
*5349 FILLER_0_286_741
*5350 FILLER_0_287_1464
*5351 FILLER_0_287_1476
*5352 FILLER_0_287_1488
*5353 FILLER_0_287_1500
*5354 FILLER_0_287_1506
*5355 FILLER_0_287_703
*5356 FILLER_0_287_715
*5357 FILLER_0_287_727
*5358 FILLER_0_287_739
*5359 FILLER_0_288_1464
*5360 FILLER_0_288_1468
*5361 FILLER_0_288_1480
*5362 FILLER_0_288_1488
*5363 FILLER_0_288_1490
*5364 FILLER_0_288_1502
*5365 FILLER_0_288_1506
*5366 FILLER_0_288_703
*5367 FILLER_0_288_707
*5368 FILLER_0_288_719
*5369 FILLER_0_288_727
*5370 FILLER_0_288_729
*5371 FILLER_0_288_741
*5372 FILLER_0_289_1464
*5373 FILLER_0_289_1476
*5374 FILLER_0_289_1488
*5375 FILLER_0_289_1500
*5376 FILLER_0_289_1506
*5377 FILLER_0_289_703
*5378 FILLER_0_289_715
*5379 FILLER_0_289_727
*5380 FILLER_0_289_739
*5381 FILLER_0_28_1464
*5382 FILLER_0_28_1468
*5383 FILLER_0_28_1472
*5384 FILLER_0_28_1484
*5385 FILLER_0_28_1488
*5386 FILLER_0_28_1490
*5387 FILLER_0_28_1502
*5388 FILLER_0_28_1506
*5389 FILLER_0_28_703
*5390 FILLER_0_28_715
*5391 FILLER_0_28_727
*5392 FILLER_0_28_729
*5393 FILLER_0_28_741
*5394 FILLER_0_290_1464
*5395 FILLER_0_290_1476
*5396 FILLER_0_290_1488
*5397 FILLER_0_290_1490
*5398 FILLER_0_290_1502
*5399 FILLER_0_290_1506
*5400 FILLER_0_290_703
*5401 FILLER_0_290_715
*5402 FILLER_0_290_727
*5403 FILLER_0_290_729
*5404 FILLER_0_290_741
*5405 FILLER_0_291_1464
*5406 FILLER_0_291_1476
*5407 FILLER_0_291_1488
*5408 FILLER_0_291_1500
*5409 FILLER_0_291_1506
*5410 FILLER_0_291_703
*5411 FILLER_0_291_715
*5412 FILLER_0_291_727
*5413 FILLER_0_291_739
*5414 FILLER_0_292_1464
*5415 FILLER_0_292_1468
*5416 FILLER_0_292_1480
*5417 FILLER_0_292_1488
*5418 FILLER_0_292_1490
*5419 FILLER_0_292_1502
*5420 FILLER_0_292_1506
*5421 FILLER_0_292_703
*5422 FILLER_0_292_707
*5423 FILLER_0_292_719
*5424 FILLER_0_292_727
*5425 FILLER_0_292_729
*5426 FILLER_0_292_741
*5427 FILLER_0_293_1464
*5428 FILLER_0_293_1476
*5429 FILLER_0_293_1488
*5430 FILLER_0_293_1500
*5431 FILLER_0_293_1506
*5432 FILLER_0_293_703
*5433 FILLER_0_293_715
*5434 FILLER_0_293_727
*5435 FILLER_0_293_739
*5436 FILLER_0_294_1464
*5437 FILLER_0_294_1476
*5438 FILLER_0_294_1488
*5439 FILLER_0_294_1490
*5440 FILLER_0_294_1502
*5441 FILLER_0_294_1506
*5442 FILLER_0_294_703
*5443 FILLER_0_294_715
*5444 FILLER_0_294_727
*5445 FILLER_0_294_729
*5446 FILLER_0_294_741
*5447 FILLER_0_295_1464
*5448 FILLER_0_295_1476
*5449 FILLER_0_295_1488
*5450 FILLER_0_295_1500
*5451 FILLER_0_295_1506
*5452 FILLER_0_295_703
*5453 FILLER_0_295_715
*5454 FILLER_0_295_727
*5455 FILLER_0_295_739
*5456 FILLER_0_296_1464
*5457 FILLER_0_296_1468
*5458 FILLER_0_296_1480
*5459 FILLER_0_296_1488
*5460 FILLER_0_296_1490
*5461 FILLER_0_296_1502
*5462 FILLER_0_296_1506
*5463 FILLER_0_296_703
*5464 FILLER_0_296_707
*5465 FILLER_0_296_719
*5466 FILLER_0_296_727
*5467 FILLER_0_296_729
*5468 FILLER_0_296_741
*5469 FILLER_0_297_1464
*5470 FILLER_0_297_1476
*5471 FILLER_0_297_1488
*5472 FILLER_0_297_1500
*5473 FILLER_0_297_1506
*5474 FILLER_0_297_703
*5475 FILLER_0_297_715
*5476 FILLER_0_297_727
*5477 FILLER_0_297_739
*5478 FILLER_0_298_1464
*5479 FILLER_0_298_1476
*5480 FILLER_0_298_1488
*5481 FILLER_0_298_1490
*5482 FILLER_0_298_1502
*5483 FILLER_0_298_1506
*5484 FILLER_0_298_703
*5485 FILLER_0_298_715
*5486 FILLER_0_298_727
*5487 FILLER_0_298_729
*5488 FILLER_0_298_741
*5489 FILLER_0_299_1464
*5490 FILLER_0_299_1476
*5491 FILLER_0_299_1488
*5492 FILLER_0_299_1500
*5493 FILLER_0_299_1506
*5494 FILLER_0_299_703
*5495 FILLER_0_299_715
*5496 FILLER_0_299_727
*5497 FILLER_0_299_739
*5498 FILLER_0_29_1464
*5499 FILLER_0_29_1468
*5500 FILLER_0_29_1472
*5501 FILLER_0_29_1476
*5502 FILLER_0_29_1488
*5503 FILLER_0_29_1500
*5504 FILLER_0_29_1506
*5505 FILLER_0_29_703
*5506 FILLER_0_29_715
*5507 FILLER_0_29_727
*5508 FILLER_0_29_739
*5509 FILLER_0_2_1005
*5510 FILLER_0_2_1013
*5511 FILLER_0_2_1022
*5512 FILLER_0_2_1034
*5513 FILLER_0_2_1037
*5514 FILLER_0_2_1041
*5515 FILLER_0_2_1050
*5516 FILLER_0_2_1062
*5517 FILLER_0_2_1070
*5518 FILLER_0_2_1080
*5519 FILLER_0_2_109
*5520 FILLER_0_2_1093
*5521 FILLER_0_2_1101
*5522 FILLER_0_2_1106
*5523 FILLER_0_2_1125
*5524 FILLER_0_2_1131
*5525 FILLER_0_2_1140
*5526 FILLER_0_2_1149
*5527 FILLER_0_2_1161
*5528 FILLER_0_2_1170
*5529 FILLER_0_2_1182
*5530 FILLER_0_2_1190
*5531 FILLER_0_2_1200
*5532 FILLER_0_2_1205
*5533 FILLER_0_2_121
*5534 FILLER_0_2_1217
*5535 FILLER_0_2_1229
*5536 FILLER_0_2_1241
*5537 FILLER_0_2_1257
*5538 FILLER_0_2_1261
*5539 FILLER_0_2_1273
*5540 FILLER_0_2_1281
*5541 FILLER_0_2_1292
*5542 FILLER_0_2_1304
*5543 FILLER_0_2_1325
*5544 FILLER_0_2_133
*5545 FILLER_0_2_1337
*5546 FILLER_0_2_1345
*5547 FILLER_0_2_1356
*5548 FILLER_0_2_1368
*5549 FILLER_0_2_1373
*5550 FILLER_0_2_1385
*5551 FILLER_0_2_139
*5552 FILLER_0_2_1397
*5553 FILLER_0_2_141
*5554 FILLER_0_2_1416
*5555 FILLER_0_2_1429
*5556 FILLER_0_2_1433
*5557 FILLER_0_2_1442
*5558 FILLER_0_2_1454
*5559 FILLER_0_2_1470
*5560 FILLER_0_2_1482
*5561 FILLER_0_2_1485
*5562 FILLER_0_2_15
*5563 FILLER_0_2_1504
*5564 FILLER_0_2_153
*5565 FILLER_0_2_165
*5566 FILLER_0_2_177
*5567 FILLER_0_2_189
*5568 FILLER_0_2_195
*5569 FILLER_0_2_197
*5570 FILLER_0_2_209
*5571 FILLER_0_2_221
*5572 FILLER_0_2_233
*5573 FILLER_0_2_245
*5574 FILLER_0_2_251
*5575 FILLER_0_2_253
*5576 FILLER_0_2_265
*5577 FILLER_0_2_27
*5578 FILLER_0_2_277
*5579 FILLER_0_2_289
*5580 FILLER_0_2_29
*5581 FILLER_0_2_3
*5582 FILLER_0_2_301
*5583 FILLER_0_2_307
*5584 FILLER_0_2_309
*5585 FILLER_0_2_321
*5586 FILLER_0_2_333
*5587 FILLER_0_2_345
*5588 FILLER_0_2_357
*5589 FILLER_0_2_363
*5590 FILLER_0_2_365
*5591 FILLER_0_2_377
*5592 FILLER_0_2_389
*5593 FILLER_0_2_401
*5594 FILLER_0_2_41
*5595 FILLER_0_2_413
*5596 FILLER_0_2_419
*5597 FILLER_0_2_421
*5598 FILLER_0_2_433
*5599 FILLER_0_2_445
*5600 FILLER_0_2_457
*5601 FILLER_0_2_469
*5602 FILLER_0_2_475
*5603 FILLER_0_2_477
*5604 FILLER_0_2_489
*5605 FILLER_0_2_501
*5606 FILLER_0_2_513
*5607 FILLER_0_2_525
*5608 FILLER_0_2_53
*5609 FILLER_0_2_531
*5610 FILLER_0_2_533
*5611 FILLER_0_2_537
*5612 FILLER_0_2_546
*5613 FILLER_0_2_552
*5614 FILLER_0_2_585
*5615 FILLER_0_2_605
*5616 FILLER_0_2_611
*5617 FILLER_0_2_645
*5618 FILLER_0_2_65
*5619 FILLER_0_2_663
*5620 FILLER_0_2_689
*5621 FILLER_0_2_701
*5622 FILLER_0_2_743
*5623 FILLER_0_2_747
*5624 FILLER_0_2_757
*5625 FILLER_0_2_761
*5626 FILLER_0_2_77
*5627 FILLER_0_2_770
*5628 FILLER_0_2_780
*5629 FILLER_0_2_808
*5630 FILLER_0_2_821
*5631 FILLER_0_2_83
*5632 FILLER_0_2_840
*5633 FILLER_0_2_846
*5634 FILLER_0_2_85
*5635 FILLER_0_2_863
*5636 FILLER_0_2_867
*5637 FILLER_0_2_909
*5638 FILLER_0_2_921
*5639 FILLER_0_2_945
*5640 FILLER_0_2_965
*5641 FILLER_0_2_97
*5642 FILLER_0_2_977
*5643 FILLER_0_2_981
*5644 FILLER_0_2_993
*5645 FILLER_0_300_1464
*5646 FILLER_0_300_1468
*5647 FILLER_0_300_1480
*5648 FILLER_0_300_1488
*5649 FILLER_0_300_1490
*5650 FILLER_0_300_1502
*5651 FILLER_0_300_1506
*5652 FILLER_0_300_703
*5653 FILLER_0_300_707
*5654 FILLER_0_300_719
*5655 FILLER_0_300_727
*5656 FILLER_0_300_729
*5657 FILLER_0_300_741
*5658 FILLER_0_301_1464
*5659 FILLER_0_301_1476
*5660 FILLER_0_301_1488
*5661 FILLER_0_301_1500
*5662 FILLER_0_301_1506
*5663 FILLER_0_301_703
*5664 FILLER_0_301_715
*5665 FILLER_0_301_727
*5666 FILLER_0_301_739
*5667 FILLER_0_302_1464
*5668 FILLER_0_302_1476
*5669 FILLER_0_302_1488
*5670 FILLER_0_302_1490
*5671 FILLER_0_302_1502
*5672 FILLER_0_302_1506
*5673 FILLER_0_302_703
*5674 FILLER_0_302_715
*5675 FILLER_0_302_727
*5676 FILLER_0_302_729
*5677 FILLER_0_302_741
*5678 FILLER_0_303_1464
*5679 FILLER_0_303_1476
*5680 FILLER_0_303_1488
*5681 FILLER_0_303_1500
*5682 FILLER_0_303_1506
*5683 FILLER_0_303_703
*5684 FILLER_0_303_715
*5685 FILLER_0_303_727
*5686 FILLER_0_303_739
*5687 FILLER_0_304_1464
*5688 FILLER_0_304_1468
*5689 FILLER_0_304_1480
*5690 FILLER_0_304_1488
*5691 FILLER_0_304_1490
*5692 FILLER_0_304_1502
*5693 FILLER_0_304_1506
*5694 FILLER_0_304_703
*5695 FILLER_0_304_707
*5696 FILLER_0_304_719
*5697 FILLER_0_304_727
*5698 FILLER_0_304_729
*5699 FILLER_0_304_741
*5700 FILLER_0_305_1464
*5701 FILLER_0_305_1476
*5702 FILLER_0_305_1488
*5703 FILLER_0_305_1500
*5704 FILLER_0_305_1506
*5705 FILLER_0_305_703
*5706 FILLER_0_305_715
*5707 FILLER_0_305_727
*5708 FILLER_0_305_739
*5709 FILLER_0_306_1464
*5710 FILLER_0_306_1476
*5711 FILLER_0_306_1488
*5712 FILLER_0_306_1490
*5713 FILLER_0_306_1502
*5714 FILLER_0_306_1506
*5715 FILLER_0_306_703
*5716 FILLER_0_306_715
*5717 FILLER_0_306_727
*5718 FILLER_0_306_729
*5719 FILLER_0_306_741
*5720 FILLER_0_307_1464
*5721 FILLER_0_307_1476
*5722 FILLER_0_307_1488
*5723 FILLER_0_307_1500
*5724 FILLER_0_307_1506
*5725 FILLER_0_307_703
*5726 FILLER_0_307_715
*5727 FILLER_0_307_727
*5728 FILLER_0_307_739
*5729 FILLER_0_308_1464
*5730 FILLER_0_308_1468
*5731 FILLER_0_308_1480
*5732 FILLER_0_308_1488
*5733 FILLER_0_308_1490
*5734 FILLER_0_308_1502
*5735 FILLER_0_308_1506
*5736 FILLER_0_308_703
*5737 FILLER_0_308_707
*5738 FILLER_0_308_719
*5739 FILLER_0_308_727
*5740 FILLER_0_308_729
*5741 FILLER_0_308_741
*5742 FILLER_0_309_1464
*5743 FILLER_0_309_1476
*5744 FILLER_0_309_1488
*5745 FILLER_0_309_1500
*5746 FILLER_0_309_1506
*5747 FILLER_0_309_703
*5748 FILLER_0_309_715
*5749 FILLER_0_309_727
*5750 FILLER_0_309_739
*5751 FILLER_0_30_1464
*5752 FILLER_0_30_1468
*5753 FILLER_0_30_1480
*5754 FILLER_0_30_1488
*5755 FILLER_0_30_1490
*5756 FILLER_0_30_1502
*5757 FILLER_0_30_1506
*5758 FILLER_0_30_703
*5759 FILLER_0_30_715
*5760 FILLER_0_30_727
*5761 FILLER_0_30_729
*5762 FILLER_0_30_743
*5763 FILLER_0_310_1464
*5764 FILLER_0_310_1476
*5765 FILLER_0_310_1488
*5766 FILLER_0_310_1490
*5767 FILLER_0_310_1502
*5768 FILLER_0_310_1506
*5769 FILLER_0_310_703
*5770 FILLER_0_310_715
*5771 FILLER_0_310_727
*5772 FILLER_0_310_729
*5773 FILLER_0_310_741
*5774 FILLER_0_311_1464
*5775 FILLER_0_311_1476
*5776 FILLER_0_311_1488
*5777 FILLER_0_311_1500
*5778 FILLER_0_311_1506
*5779 FILLER_0_311_703
*5780 FILLER_0_311_715
*5781 FILLER_0_311_727
*5782 FILLER_0_311_739
*5783 FILLER_0_312_1464
*5784 FILLER_0_312_1468
*5785 FILLER_0_312_1480
*5786 FILLER_0_312_1488
*5787 FILLER_0_312_1490
*5788 FILLER_0_312_1502
*5789 FILLER_0_312_1506
*5790 FILLER_0_312_703
*5791 FILLER_0_312_707
*5792 FILLER_0_312_719
*5793 FILLER_0_312_727
*5794 FILLER_0_312_729
*5795 FILLER_0_312_741
*5796 FILLER_0_313_1464
*5797 FILLER_0_313_1476
*5798 FILLER_0_313_1488
*5799 FILLER_0_313_1500
*5800 FILLER_0_313_1506
*5801 FILLER_0_313_703
*5802 FILLER_0_313_715
*5803 FILLER_0_313_727
*5804 FILLER_0_313_739
*5805 FILLER_0_314_1464
*5806 FILLER_0_314_1476
*5807 FILLER_0_314_1488
*5808 FILLER_0_314_1490
*5809 FILLER_0_314_1502
*5810 FILLER_0_314_1506
*5811 FILLER_0_314_703
*5812 FILLER_0_314_715
*5813 FILLER_0_314_727
*5814 FILLER_0_314_729
*5815 FILLER_0_314_741
*5816 FILLER_0_315_1464
*5817 FILLER_0_315_1476
*5818 FILLER_0_315_1488
*5819 FILLER_0_315_1500
*5820 FILLER_0_315_1506
*5821 FILLER_0_315_703
*5822 FILLER_0_315_715
*5823 FILLER_0_315_727
*5824 FILLER_0_315_739
*5825 FILLER_0_316_1464
*5826 FILLER_0_316_1476
*5827 FILLER_0_316_1488
*5828 FILLER_0_316_1490
*5829 FILLER_0_316_1502
*5830 FILLER_0_316_1506
*5831 FILLER_0_316_703
*5832 FILLER_0_316_715
*5833 FILLER_0_316_727
*5834 FILLER_0_316_729
*5835 FILLER_0_316_741
*5836 FILLER_0_317_1464
*5837 FILLER_0_317_1476
*5838 FILLER_0_317_1488
*5839 FILLER_0_317_1500
*5840 FILLER_0_317_1506
*5841 FILLER_0_317_703
*5842 FILLER_0_317_715
*5843 FILLER_0_317_727
*5844 FILLER_0_317_739
*5845 FILLER_0_318_1464
*5846 FILLER_0_318_1476
*5847 FILLER_0_318_1488
*5848 FILLER_0_318_1490
*5849 FILLER_0_318_1502
*5850 FILLER_0_318_1506
*5851 FILLER_0_318_703
*5852 FILLER_0_318_715
*5853 FILLER_0_318_727
*5854 FILLER_0_318_729
*5855 FILLER_0_318_741
*5856 FILLER_0_319_1464
*5857 FILLER_0_319_1476
*5858 FILLER_0_319_1488
*5859 FILLER_0_319_1500
*5860 FILLER_0_319_1506
*5861 FILLER_0_319_703
*5862 FILLER_0_319_715
*5863 FILLER_0_319_727
*5864 FILLER_0_319_739
*5865 FILLER_0_31_1464
*5866 FILLER_0_31_1476
*5867 FILLER_0_31_1488
*5868 FILLER_0_31_1500
*5869 FILLER_0_31_1506
*5870 FILLER_0_31_703
*5871 FILLER_0_31_715
*5872 FILLER_0_31_721
*5873 FILLER_0_31_724
*5874 FILLER_0_31_728
*5875 FILLER_0_31_732
*5876 FILLER_0_31_736
*5877 FILLER_0_320_1464
*5878 FILLER_0_320_1476
*5879 FILLER_0_320_1488
*5880 FILLER_0_320_1490
*5881 FILLER_0_320_1502
*5882 FILLER_0_320_1506
*5883 FILLER_0_320_703
*5884 FILLER_0_320_715
*5885 FILLER_0_320_727
*5886 FILLER_0_320_729
*5887 FILLER_0_320_741
*5888 FILLER_0_321_1005
*5889 FILLER_0_321_1009
*5890 FILLER_0_321_1021
*5891 FILLER_0_321_1033
*5892 FILLER_0_321_1037
*5893 FILLER_0_321_1049
*5894 FILLER_0_321_1061
*5895 FILLER_0_321_1065
*5896 FILLER_0_321_1077
*5897 FILLER_0_321_1089
*5898 FILLER_0_321_109
*5899 FILLER_0_321_1093
*5900 FILLER_0_321_1105
*5901 FILLER_0_321_1117
*5902 FILLER_0_321_1121
*5903 FILLER_0_321_113
*5904 FILLER_0_321_1133
*5905 FILLER_0_321_1145
*5906 FILLER_0_321_1149
*5907 FILLER_0_321_1161
*5908 FILLER_0_321_1173
*5909 FILLER_0_321_1177
*5910 FILLER_0_321_1189
*5911 FILLER_0_321_1201
*5912 FILLER_0_321_1205
*5913 FILLER_0_321_1217
*5914 FILLER_0_321_1229
*5915 FILLER_0_321_1233
*5916 FILLER_0_321_1245
*5917 FILLER_0_321_125
*5918 FILLER_0_321_1257
*5919 FILLER_0_321_1261
*5920 FILLER_0_321_1273
*5921 FILLER_0_321_1285
*5922 FILLER_0_321_1289
*5923 FILLER_0_321_1301
*5924 FILLER_0_321_1313
*5925 FILLER_0_321_1317
*5926 FILLER_0_321_1329
*5927 FILLER_0_321_1341
*5928 FILLER_0_321_1345
*5929 FILLER_0_321_1357
*5930 FILLER_0_321_1369
*5931 FILLER_0_321_137
*5932 FILLER_0_321_1373
*5933 FILLER_0_321_1385
*5934 FILLER_0_321_1397
*5935 FILLER_0_321_1401
*5936 FILLER_0_321_141
*5937 FILLER_0_321_1413
*5938 FILLER_0_321_1425
*5939 FILLER_0_321_1429
*5940 FILLER_0_321_1441
*5941 FILLER_0_321_1453
*5942 FILLER_0_321_1457
*5943 FILLER_0_321_1469
*5944 FILLER_0_321_1481
*5945 FILLER_0_321_1485
*5946 FILLER_0_321_1497
*5947 FILLER_0_321_15
*5948 FILLER_0_321_1505
*5949 FILLER_0_321_153
*5950 FILLER_0_321_165
*5951 FILLER_0_321_169
*5952 FILLER_0_321_181
*5953 FILLER_0_321_193
*5954 FILLER_0_321_197
*5955 FILLER_0_321_209
*5956 FILLER_0_321_221
*5957 FILLER_0_321_225
*5958 FILLER_0_321_237
*5959 FILLER_0_321_249
*5960 FILLER_0_321_253
*5961 FILLER_0_321_265
*5962 FILLER_0_321_27
*5963 FILLER_0_321_277
*5964 FILLER_0_321_281
*5965 FILLER_0_321_29
*5966 FILLER_0_321_293
*5967 FILLER_0_321_3
*5968 FILLER_0_321_305
*5969 FILLER_0_321_309
*5970 FILLER_0_321_321
*5971 FILLER_0_321_333
*5972 FILLER_0_321_337
*5973 FILLER_0_321_349
*5974 FILLER_0_321_361
*5975 FILLER_0_321_365
*5976 FILLER_0_321_377
*5977 FILLER_0_321_389
*5978 FILLER_0_321_393
*5979 FILLER_0_321_405
*5980 FILLER_0_321_41
*5981 FILLER_0_321_417
*5982 FILLER_0_321_421
*5983 FILLER_0_321_433
*5984 FILLER_0_321_445
*5985 FILLER_0_321_449
*5986 FILLER_0_321_461
*5987 FILLER_0_321_473
*5988 FILLER_0_321_477
*5989 FILLER_0_321_489
*5990 FILLER_0_321_501
*5991 FILLER_0_321_505
*5992 FILLER_0_321_517
*5993 FILLER_0_321_529
*5994 FILLER_0_321_53
*5995 FILLER_0_321_533
*5996 FILLER_0_321_545
*5997 FILLER_0_321_557
*5998 FILLER_0_321_561
*5999 FILLER_0_321_57
*6000 FILLER_0_321_573
*6001 FILLER_0_321_585
*6002 FILLER_0_321_589
*6003 FILLER_0_321_601
*6004 FILLER_0_321_613
*6005 FILLER_0_321_617
*6006 FILLER_0_321_629
*6007 FILLER_0_321_641
*6008 FILLER_0_321_645
*6009 FILLER_0_321_657
*6010 FILLER_0_321_669
*6011 FILLER_0_321_673
*6012 FILLER_0_321_685
*6013 FILLER_0_321_69
*6014 FILLER_0_321_697
*6015 FILLER_0_321_701
*6016 FILLER_0_321_713
*6017 FILLER_0_321_725
*6018 FILLER_0_321_729
*6019 FILLER_0_321_741
*6020 FILLER_0_321_753
*6021 FILLER_0_321_757
*6022 FILLER_0_321_769
*6023 FILLER_0_321_781
*6024 FILLER_0_321_785
*6025 FILLER_0_321_797
*6026 FILLER_0_321_809
*6027 FILLER_0_321_81
*6028 FILLER_0_321_813
*6029 FILLER_0_321_825
*6030 FILLER_0_321_837
*6031 FILLER_0_321_841
*6032 FILLER_0_321_85
*6033 FILLER_0_321_853
*6034 FILLER_0_321_865
*6035 FILLER_0_321_869
*6036 FILLER_0_321_881
*6037 FILLER_0_321_893
*6038 FILLER_0_321_897
*6039 FILLER_0_321_909
*6040 FILLER_0_321_921
*6041 FILLER_0_321_925
*6042 FILLER_0_321_937
*6043 FILLER_0_321_949
*6044 FILLER_0_321_953
*6045 FILLER_0_321_965
*6046 FILLER_0_321_97
*6047 FILLER_0_321_977
*6048 FILLER_0_321_981
*6049 FILLER_0_321_993
*6050 FILLER_0_322_1005
*6051 FILLER_0_322_1017
*6052 FILLER_0_322_1029
*6053 FILLER_0_322_1035
*6054 FILLER_0_322_1037
*6055 FILLER_0_322_1049
*6056 FILLER_0_322_1061
*6057 FILLER_0_322_1073
*6058 FILLER_0_322_1085
*6059 FILLER_0_322_109
*6060 FILLER_0_322_1091
*6061 FILLER_0_322_1093
*6062 FILLER_0_322_1105
*6063 FILLER_0_322_1117
*6064 FILLER_0_322_1129
*6065 FILLER_0_322_1141
*6066 FILLER_0_322_1147
*6067 FILLER_0_322_1149
*6068 FILLER_0_322_1161
*6069 FILLER_0_322_1173
*6070 FILLER_0_322_1185
*6071 FILLER_0_322_1197
*6072 FILLER_0_322_1203
*6073 FILLER_0_322_1205
*6074 FILLER_0_322_121
*6075 FILLER_0_322_1217
*6076 FILLER_0_322_1229
*6077 FILLER_0_322_1241
*6078 FILLER_0_322_1253
*6079 FILLER_0_322_1259
*6080 FILLER_0_322_1261
*6081 FILLER_0_322_1273
*6082 FILLER_0_322_1285
*6083 FILLER_0_322_1297
*6084 FILLER_0_322_1309
*6085 FILLER_0_322_1315
*6086 FILLER_0_322_1317
*6087 FILLER_0_322_1329
*6088 FILLER_0_322_133
*6089 FILLER_0_322_1341
*6090 FILLER_0_322_1353
*6091 FILLER_0_322_1365
*6092 FILLER_0_322_1371
*6093 FILLER_0_322_1373
*6094 FILLER_0_322_1385
*6095 FILLER_0_322_139
*6096 FILLER_0_322_1397
*6097 FILLER_0_322_1409
*6098 FILLER_0_322_141
*6099 FILLER_0_322_1421
*6100 FILLER_0_322_1427
*6101 FILLER_0_322_1429
*6102 FILLER_0_322_1441
*6103 FILLER_0_322_1453
*6104 FILLER_0_322_1465
*6105 FILLER_0_322_1477
*6106 FILLER_0_322_1483
*6107 FILLER_0_322_1485
*6108 FILLER_0_322_1497
*6109 FILLER_0_322_15
*6110 FILLER_0_322_1505
*6111 FILLER_0_322_153
*6112 FILLER_0_322_165
*6113 FILLER_0_322_177
*6114 FILLER_0_322_189
*6115 FILLER_0_322_195
*6116 FILLER_0_322_197
*6117 FILLER_0_322_209
*6118 FILLER_0_322_221
*6119 FILLER_0_322_233
*6120 FILLER_0_322_245
*6121 FILLER_0_322_251
*6122 FILLER_0_322_253
*6123 FILLER_0_322_265
*6124 FILLER_0_322_27
*6125 FILLER_0_322_277
*6126 FILLER_0_322_289
*6127 FILLER_0_322_29
*6128 FILLER_0_322_3
*6129 FILLER_0_322_301
*6130 FILLER_0_322_307
*6131 FILLER_0_322_309
*6132 FILLER_0_322_321
*6133 FILLER_0_322_333
*6134 FILLER_0_322_345
*6135 FILLER_0_322_357
*6136 FILLER_0_322_363
*6137 FILLER_0_322_365
*6138 FILLER_0_322_377
*6139 FILLER_0_322_389
*6140 FILLER_0_322_401
*6141 FILLER_0_322_41
*6142 FILLER_0_322_413
*6143 FILLER_0_322_419
*6144 FILLER_0_322_421
*6145 FILLER_0_322_433
*6146 FILLER_0_322_445
*6147 FILLER_0_322_457
*6148 FILLER_0_322_469
*6149 FILLER_0_322_475
*6150 FILLER_0_322_477
*6151 FILLER_0_322_489
*6152 FILLER_0_322_501
*6153 FILLER_0_322_513
*6154 FILLER_0_322_525
*6155 FILLER_0_322_53
*6156 FILLER_0_322_531
*6157 FILLER_0_322_533
*6158 FILLER_0_322_545
*6159 FILLER_0_322_557
*6160 FILLER_0_322_569
*6161 FILLER_0_322_581
*6162 FILLER_0_322_587
*6163 FILLER_0_322_589
*6164 FILLER_0_322_601
*6165 FILLER_0_322_613
*6166 FILLER_0_322_625
*6167 FILLER_0_322_637
*6168 FILLER_0_322_643
*6169 FILLER_0_322_645
*6170 FILLER_0_322_65
*6171 FILLER_0_322_657
*6172 FILLER_0_322_669
*6173 FILLER_0_322_681
*6174 FILLER_0_322_693
*6175 FILLER_0_322_699
*6176 FILLER_0_322_701
*6177 FILLER_0_322_713
*6178 FILLER_0_322_725
*6179 FILLER_0_322_737
*6180 FILLER_0_322_749
*6181 FILLER_0_322_755
*6182 FILLER_0_322_757
*6183 FILLER_0_322_769
*6184 FILLER_0_322_77
*6185 FILLER_0_322_781
*6186 FILLER_0_322_793
*6187 FILLER_0_322_805
*6188 FILLER_0_322_811
*6189 FILLER_0_322_813
*6190 FILLER_0_322_825
*6191 FILLER_0_322_83
*6192 FILLER_0_322_837
*6193 FILLER_0_322_849
*6194 FILLER_0_322_85
*6195 FILLER_0_322_861
*6196 FILLER_0_322_867
*6197 FILLER_0_322_869
*6198 FILLER_0_322_881
*6199 FILLER_0_322_893
*6200 FILLER_0_322_905
*6201 FILLER_0_322_917
*6202 FILLER_0_322_923
*6203 FILLER_0_322_925
*6204 FILLER_0_322_937
*6205 FILLER_0_322_949
*6206 FILLER_0_322_961
*6207 FILLER_0_322_97
*6208 FILLER_0_322_973
*6209 FILLER_0_322_979
*6210 FILLER_0_322_981
*6211 FILLER_0_322_993
*6212 FILLER_0_323_1001
*6213 FILLER_0_323_1007
*6214 FILLER_0_323_1009
*6215 FILLER_0_323_1021
*6216 FILLER_0_323_1033
*6217 FILLER_0_323_1045
*6218 FILLER_0_323_105
*6219 FILLER_0_323_1057
*6220 FILLER_0_323_1063
*6221 FILLER_0_323_1065
*6222 FILLER_0_323_1077
*6223 FILLER_0_323_1089
*6224 FILLER_0_323_1101
*6225 FILLER_0_323_111
*6226 FILLER_0_323_1113
*6227 FILLER_0_323_1119
*6228 FILLER_0_323_1121
*6229 FILLER_0_323_113
*6230 FILLER_0_323_1133
*6231 FILLER_0_323_1145
*6232 FILLER_0_323_1157
*6233 FILLER_0_323_1169
*6234 FILLER_0_323_1175
*6235 FILLER_0_323_1177
*6236 FILLER_0_323_1189
*6237 FILLER_0_323_1201
*6238 FILLER_0_323_1213
*6239 FILLER_0_323_1225
*6240 FILLER_0_323_1231
*6241 FILLER_0_323_1233
*6242 FILLER_0_323_1245
*6243 FILLER_0_323_125
*6244 FILLER_0_323_1257
*6245 FILLER_0_323_1269
*6246 FILLER_0_323_1281
*6247 FILLER_0_323_1287
*6248 FILLER_0_323_1289
*6249 FILLER_0_323_1301
*6250 FILLER_0_323_1313
*6251 FILLER_0_323_1325
*6252 FILLER_0_323_1337
*6253 FILLER_0_323_1343
*6254 FILLER_0_323_1345
*6255 FILLER_0_323_1357
*6256 FILLER_0_323_1369
*6257 FILLER_0_323_137
*6258 FILLER_0_323_1381
*6259 FILLER_0_323_1393
*6260 FILLER_0_323_1399
*6261 FILLER_0_323_1401
*6262 FILLER_0_323_1413
*6263 FILLER_0_323_1425
*6264 FILLER_0_323_1437
*6265 FILLER_0_323_1449
*6266 FILLER_0_323_1455
*6267 FILLER_0_323_1457
*6268 FILLER_0_323_1469
*6269 FILLER_0_323_1481
*6270 FILLER_0_323_149
*6271 FILLER_0_323_1493
*6272 FILLER_0_323_15
*6273 FILLER_0_323_1505
*6274 FILLER_0_323_161
*6275 FILLER_0_323_167
*6276 FILLER_0_323_169
*6277 FILLER_0_323_181
*6278 FILLER_0_323_193
*6279 FILLER_0_323_205
*6280 FILLER_0_323_217
*6281 FILLER_0_323_223
*6282 FILLER_0_323_225
*6283 FILLER_0_323_237
*6284 FILLER_0_323_249
*6285 FILLER_0_323_261
*6286 FILLER_0_323_27
*6287 FILLER_0_323_273
*6288 FILLER_0_323_279
*6289 FILLER_0_323_281
*6290 FILLER_0_323_293
*6291 FILLER_0_323_3
*6292 FILLER_0_323_305
*6293 FILLER_0_323_317
*6294 FILLER_0_323_329
*6295 FILLER_0_323_335
*6296 FILLER_0_323_337
*6297 FILLER_0_323_349
*6298 FILLER_0_323_361
*6299 FILLER_0_323_373
*6300 FILLER_0_323_385
*6301 FILLER_0_323_39
*6302 FILLER_0_323_391
*6303 FILLER_0_323_393
*6304 FILLER_0_323_405
*6305 FILLER_0_323_417
*6306 FILLER_0_323_429
*6307 FILLER_0_323_441
*6308 FILLER_0_323_447
*6309 FILLER_0_323_449
*6310 FILLER_0_323_461
*6311 FILLER_0_323_473
*6312 FILLER_0_323_485
*6313 FILLER_0_323_497
*6314 FILLER_0_323_503
*6315 FILLER_0_323_505
*6316 FILLER_0_323_51
*6317 FILLER_0_323_517
*6318 FILLER_0_323_529
*6319 FILLER_0_323_541
*6320 FILLER_0_323_55
*6321 FILLER_0_323_553
*6322 FILLER_0_323_559
*6323 FILLER_0_323_561
*6324 FILLER_0_323_57
*6325 FILLER_0_323_573
*6326 FILLER_0_323_585
*6327 FILLER_0_323_597
*6328 FILLER_0_323_609
*6329 FILLER_0_323_615
*6330 FILLER_0_323_617
*6331 FILLER_0_323_629
*6332 FILLER_0_323_641
*6333 FILLER_0_323_653
*6334 FILLER_0_323_665
*6335 FILLER_0_323_671
*6336 FILLER_0_323_673
*6337 FILLER_0_323_685
*6338 FILLER_0_323_69
*6339 FILLER_0_323_697
*6340 FILLER_0_323_709
*6341 FILLER_0_323_721
*6342 FILLER_0_323_727
*6343 FILLER_0_323_729
*6344 FILLER_0_323_741
*6345 FILLER_0_323_753
*6346 FILLER_0_323_765
*6347 FILLER_0_323_777
*6348 FILLER_0_323_783
*6349 FILLER_0_323_785
*6350 FILLER_0_323_797
*6351 FILLER_0_323_809
*6352 FILLER_0_323_81
*6353 FILLER_0_323_821
*6354 FILLER_0_323_833
*6355 FILLER_0_323_839
*6356 FILLER_0_323_841
*6357 FILLER_0_323_853
*6358 FILLER_0_323_865
*6359 FILLER_0_323_877
*6360 FILLER_0_323_889
*6361 FILLER_0_323_895
*6362 FILLER_0_323_897
*6363 FILLER_0_323_909
*6364 FILLER_0_323_921
*6365 FILLER_0_323_93
*6366 FILLER_0_323_933
*6367 FILLER_0_323_945
*6368 FILLER_0_323_951
*6369 FILLER_0_323_953
*6370 FILLER_0_323_965
*6371 FILLER_0_323_977
*6372 FILLER_0_323_989
*6373 FILLER_0_324_1005
*6374 FILLER_0_324_1017
*6375 FILLER_0_324_1029
*6376 FILLER_0_324_1035
*6377 FILLER_0_324_1037
*6378 FILLER_0_324_1049
*6379 FILLER_0_324_1061
*6380 FILLER_0_324_1073
*6381 FILLER_0_324_1085
*6382 FILLER_0_324_109
*6383 FILLER_0_324_1091
*6384 FILLER_0_324_1093
*6385 FILLER_0_324_1105
*6386 FILLER_0_324_1117
*6387 FILLER_0_324_1129
*6388 FILLER_0_324_1141
*6389 FILLER_0_324_1147
*6390 FILLER_0_324_1149
*6391 FILLER_0_324_1161
*6392 FILLER_0_324_1173
*6393 FILLER_0_324_1185
*6394 FILLER_0_324_1197
*6395 FILLER_0_324_1203
*6396 FILLER_0_324_1205
*6397 FILLER_0_324_121
*6398 FILLER_0_324_1217
*6399 FILLER_0_324_1229
*6400 FILLER_0_324_1241
*6401 FILLER_0_324_1253
*6402 FILLER_0_324_1259
*6403 FILLER_0_324_1261
*6404 FILLER_0_324_1273
*6405 FILLER_0_324_1285
*6406 FILLER_0_324_1297
*6407 FILLER_0_324_1309
*6408 FILLER_0_324_1315
*6409 FILLER_0_324_1317
*6410 FILLER_0_324_1329
*6411 FILLER_0_324_133
*6412 FILLER_0_324_1341
*6413 FILLER_0_324_1353
*6414 FILLER_0_324_1365
*6415 FILLER_0_324_1371
*6416 FILLER_0_324_1373
*6417 FILLER_0_324_1385
*6418 FILLER_0_324_139
*6419 FILLER_0_324_1397
*6420 FILLER_0_324_1409
*6421 FILLER_0_324_141
*6422 FILLER_0_324_1421
*6423 FILLER_0_324_1427
*6424 FILLER_0_324_1429
*6425 FILLER_0_324_1441
*6426 FILLER_0_324_1453
*6427 FILLER_0_324_1465
*6428 FILLER_0_324_1477
*6429 FILLER_0_324_1483
*6430 FILLER_0_324_1485
*6431 FILLER_0_324_1497
*6432 FILLER_0_324_15
*6433 FILLER_0_324_1505
*6434 FILLER_0_324_153
*6435 FILLER_0_324_165
*6436 FILLER_0_324_177
*6437 FILLER_0_324_189
*6438 FILLER_0_324_195
*6439 FILLER_0_324_197
*6440 FILLER_0_324_209
*6441 FILLER_0_324_221
*6442 FILLER_0_324_233
*6443 FILLER_0_324_245
*6444 FILLER_0_324_251
*6445 FILLER_0_324_253
*6446 FILLER_0_324_265
*6447 FILLER_0_324_27
*6448 FILLER_0_324_277
*6449 FILLER_0_324_289
*6450 FILLER_0_324_29
*6451 FILLER_0_324_3
*6452 FILLER_0_324_301
*6453 FILLER_0_324_307
*6454 FILLER_0_324_309
*6455 FILLER_0_324_321
*6456 FILLER_0_324_333
*6457 FILLER_0_324_345
*6458 FILLER_0_324_357
*6459 FILLER_0_324_363
*6460 FILLER_0_324_365
*6461 FILLER_0_324_377
*6462 FILLER_0_324_389
*6463 FILLER_0_324_401
*6464 FILLER_0_324_41
*6465 FILLER_0_324_413
*6466 FILLER_0_324_419
*6467 FILLER_0_324_421
*6468 FILLER_0_324_433
*6469 FILLER_0_324_445
*6470 FILLER_0_324_457
*6471 FILLER_0_324_469
*6472 FILLER_0_324_475
*6473 FILLER_0_324_477
*6474 FILLER_0_324_489
*6475 FILLER_0_324_501
*6476 FILLER_0_324_513
*6477 FILLER_0_324_525
*6478 FILLER_0_324_53
*6479 FILLER_0_324_531
*6480 FILLER_0_324_533
*6481 FILLER_0_324_545
*6482 FILLER_0_324_557
*6483 FILLER_0_324_569
*6484 FILLER_0_324_581
*6485 FILLER_0_324_587
*6486 FILLER_0_324_589
*6487 FILLER_0_324_601
*6488 FILLER_0_324_613
*6489 FILLER_0_324_625
*6490 FILLER_0_324_637
*6491 FILLER_0_324_643
*6492 FILLER_0_324_645
*6493 FILLER_0_324_65
*6494 FILLER_0_324_657
*6495 FILLER_0_324_669
*6496 FILLER_0_324_681
*6497 FILLER_0_324_693
*6498 FILLER_0_324_699
*6499 FILLER_0_324_701
*6500 FILLER_0_324_713
*6501 FILLER_0_324_725
*6502 FILLER_0_324_737
*6503 FILLER_0_324_749
*6504 FILLER_0_324_755
*6505 FILLER_0_324_757
*6506 FILLER_0_324_769
*6507 FILLER_0_324_77
*6508 FILLER_0_324_781
*6509 FILLER_0_324_793
*6510 FILLER_0_324_805
*6511 FILLER_0_324_811
*6512 FILLER_0_324_813
*6513 FILLER_0_324_825
*6514 FILLER_0_324_83
*6515 FILLER_0_324_837
*6516 FILLER_0_324_849
*6517 FILLER_0_324_85
*6518 FILLER_0_324_861
*6519 FILLER_0_324_867
*6520 FILLER_0_324_869
*6521 FILLER_0_324_881
*6522 FILLER_0_324_893
*6523 FILLER_0_324_905
*6524 FILLER_0_324_917
*6525 FILLER_0_324_923
*6526 FILLER_0_324_925
*6527 FILLER_0_324_937
*6528 FILLER_0_324_949
*6529 FILLER_0_324_961
*6530 FILLER_0_324_97
*6531 FILLER_0_324_973
*6532 FILLER_0_324_979
*6533 FILLER_0_324_981
*6534 FILLER_0_324_993
*6535 FILLER_0_325_1001
*6536 FILLER_0_325_1007
*6537 FILLER_0_325_1009
*6538 FILLER_0_325_1021
*6539 FILLER_0_325_1033
*6540 FILLER_0_325_1045
*6541 FILLER_0_325_105
*6542 FILLER_0_325_1057
*6543 FILLER_0_325_1063
*6544 FILLER_0_325_1065
*6545 FILLER_0_325_1077
*6546 FILLER_0_325_1089
*6547 FILLER_0_325_1101
*6548 FILLER_0_325_111
*6549 FILLER_0_325_1113
*6550 FILLER_0_325_1119
*6551 FILLER_0_325_1121
*6552 FILLER_0_325_113
*6553 FILLER_0_325_1133
*6554 FILLER_0_325_1145
*6555 FILLER_0_325_1157
*6556 FILLER_0_325_1169
*6557 FILLER_0_325_1175
*6558 FILLER_0_325_1177
*6559 FILLER_0_325_1189
*6560 FILLER_0_325_1201
*6561 FILLER_0_325_1213
*6562 FILLER_0_325_1225
*6563 FILLER_0_325_1231
*6564 FILLER_0_325_1233
*6565 FILLER_0_325_1245
*6566 FILLER_0_325_125
*6567 FILLER_0_325_1257
*6568 FILLER_0_325_1269
*6569 FILLER_0_325_1281
*6570 FILLER_0_325_1287
*6571 FILLER_0_325_1289
*6572 FILLER_0_325_1301
*6573 FILLER_0_325_1313
*6574 FILLER_0_325_1325
*6575 FILLER_0_325_1337
*6576 FILLER_0_325_1343
*6577 FILLER_0_325_1345
*6578 FILLER_0_325_1357
*6579 FILLER_0_325_1369
*6580 FILLER_0_325_137
*6581 FILLER_0_325_1381
*6582 FILLER_0_325_1393
*6583 FILLER_0_325_1399
*6584 FILLER_0_325_1401
*6585 FILLER_0_325_1413
*6586 FILLER_0_325_1425
*6587 FILLER_0_325_1437
*6588 FILLER_0_325_1449
*6589 FILLER_0_325_1455
*6590 FILLER_0_325_1457
*6591 FILLER_0_325_1469
*6592 FILLER_0_325_1481
*6593 FILLER_0_325_149
*6594 FILLER_0_325_1493
*6595 FILLER_0_325_15
*6596 FILLER_0_325_1505
*6597 FILLER_0_325_161
*6598 FILLER_0_325_167
*6599 FILLER_0_325_169
*6600 FILLER_0_325_181
*6601 FILLER_0_325_193
*6602 FILLER_0_325_205
*6603 FILLER_0_325_217
*6604 FILLER_0_325_223
*6605 FILLER_0_325_225
*6606 FILLER_0_325_237
*6607 FILLER_0_325_249
*6608 FILLER_0_325_261
*6609 FILLER_0_325_27
*6610 FILLER_0_325_273
*6611 FILLER_0_325_279
*6612 FILLER_0_325_281
*6613 FILLER_0_325_293
*6614 FILLER_0_325_3
*6615 FILLER_0_325_305
*6616 FILLER_0_325_317
*6617 FILLER_0_325_329
*6618 FILLER_0_325_335
*6619 FILLER_0_325_337
*6620 FILLER_0_325_349
*6621 FILLER_0_325_361
*6622 FILLER_0_325_373
*6623 FILLER_0_325_385
*6624 FILLER_0_325_39
*6625 FILLER_0_325_391
*6626 FILLER_0_325_393
*6627 FILLER_0_325_405
*6628 FILLER_0_325_417
*6629 FILLER_0_325_429
*6630 FILLER_0_325_441
*6631 FILLER_0_325_447
*6632 FILLER_0_325_449
*6633 FILLER_0_325_461
*6634 FILLER_0_325_473
*6635 FILLER_0_325_485
*6636 FILLER_0_325_497
*6637 FILLER_0_325_503
*6638 FILLER_0_325_505
*6639 FILLER_0_325_51
*6640 FILLER_0_325_517
*6641 FILLER_0_325_529
*6642 FILLER_0_325_541
*6643 FILLER_0_325_55
*6644 FILLER_0_325_553
*6645 FILLER_0_325_559
*6646 FILLER_0_325_561
*6647 FILLER_0_325_57
*6648 FILLER_0_325_573
*6649 FILLER_0_325_585
*6650 FILLER_0_325_597
*6651 FILLER_0_325_609
*6652 FILLER_0_325_615
*6653 FILLER_0_325_617
*6654 FILLER_0_325_629
*6655 FILLER_0_325_641
*6656 FILLER_0_325_653
*6657 FILLER_0_325_665
*6658 FILLER_0_325_671
*6659 FILLER_0_325_673
*6660 FILLER_0_325_685
*6661 FILLER_0_325_69
*6662 FILLER_0_325_697
*6663 FILLER_0_325_709
*6664 FILLER_0_325_721
*6665 FILLER_0_325_727
*6666 FILLER_0_325_729
*6667 FILLER_0_325_741
*6668 FILLER_0_325_753
*6669 FILLER_0_325_765
*6670 FILLER_0_325_777
*6671 FILLER_0_325_783
*6672 FILLER_0_325_785
*6673 FILLER_0_325_797
*6674 FILLER_0_325_809
*6675 FILLER_0_325_81
*6676 FILLER_0_325_821
*6677 FILLER_0_325_833
*6678 FILLER_0_325_839
*6679 FILLER_0_325_841
*6680 FILLER_0_325_853
*6681 FILLER_0_325_865
*6682 FILLER_0_325_877
*6683 FILLER_0_325_889
*6684 FILLER_0_325_895
*6685 FILLER_0_325_897
*6686 FILLER_0_325_909
*6687 FILLER_0_325_921
*6688 FILLER_0_325_93
*6689 FILLER_0_325_933
*6690 FILLER_0_325_945
*6691 FILLER_0_325_951
*6692 FILLER_0_325_953
*6693 FILLER_0_325_965
*6694 FILLER_0_325_977
*6695 FILLER_0_325_989
*6696 FILLER_0_326_1005
*6697 FILLER_0_326_1017
*6698 FILLER_0_326_1029
*6699 FILLER_0_326_1035
*6700 FILLER_0_326_1037
*6701 FILLER_0_326_1049
*6702 FILLER_0_326_1061
*6703 FILLER_0_326_1073
*6704 FILLER_0_326_1085
*6705 FILLER_0_326_109
*6706 FILLER_0_326_1091
*6707 FILLER_0_326_1093
*6708 FILLER_0_326_1105
*6709 FILLER_0_326_1117
*6710 FILLER_0_326_1129
*6711 FILLER_0_326_1141
*6712 FILLER_0_326_1147
*6713 FILLER_0_326_1149
*6714 FILLER_0_326_1161
*6715 FILLER_0_326_1173
*6716 FILLER_0_326_1185
*6717 FILLER_0_326_1197
*6718 FILLER_0_326_1203
*6719 FILLER_0_326_1205
*6720 FILLER_0_326_121
*6721 FILLER_0_326_1217
*6722 FILLER_0_326_1229
*6723 FILLER_0_326_1241
*6724 FILLER_0_326_1253
*6725 FILLER_0_326_1259
*6726 FILLER_0_326_1261
*6727 FILLER_0_326_1273
*6728 FILLER_0_326_1285
*6729 FILLER_0_326_1297
*6730 FILLER_0_326_1309
*6731 FILLER_0_326_1315
*6732 FILLER_0_326_1317
*6733 FILLER_0_326_1329
*6734 FILLER_0_326_133
*6735 FILLER_0_326_1341
*6736 FILLER_0_326_1353
*6737 FILLER_0_326_1365
*6738 FILLER_0_326_1371
*6739 FILLER_0_326_1373
*6740 FILLER_0_326_1385
*6741 FILLER_0_326_139
*6742 FILLER_0_326_1397
*6743 FILLER_0_326_1409
*6744 FILLER_0_326_141
*6745 FILLER_0_326_1421
*6746 FILLER_0_326_1427
*6747 FILLER_0_326_1429
*6748 FILLER_0_326_1441
*6749 FILLER_0_326_1453
*6750 FILLER_0_326_1465
*6751 FILLER_0_326_1477
*6752 FILLER_0_326_1483
*6753 FILLER_0_326_1485
*6754 FILLER_0_326_1497
*6755 FILLER_0_326_15
*6756 FILLER_0_326_1505
*6757 FILLER_0_326_153
*6758 FILLER_0_326_165
*6759 FILLER_0_326_177
*6760 FILLER_0_326_189
*6761 FILLER_0_326_195
*6762 FILLER_0_326_197
*6763 FILLER_0_326_209
*6764 FILLER_0_326_221
*6765 FILLER_0_326_233
*6766 FILLER_0_326_245
*6767 FILLER_0_326_251
*6768 FILLER_0_326_253
*6769 FILLER_0_326_265
*6770 FILLER_0_326_27
*6771 FILLER_0_326_277
*6772 FILLER_0_326_289
*6773 FILLER_0_326_29
*6774 FILLER_0_326_3
*6775 FILLER_0_326_301
*6776 FILLER_0_326_307
*6777 FILLER_0_326_309
*6778 FILLER_0_326_321
*6779 FILLER_0_326_333
*6780 FILLER_0_326_345
*6781 FILLER_0_326_357
*6782 FILLER_0_326_363
*6783 FILLER_0_326_365
*6784 FILLER_0_326_377
*6785 FILLER_0_326_389
*6786 FILLER_0_326_401
*6787 FILLER_0_326_41
*6788 FILLER_0_326_413
*6789 FILLER_0_326_419
*6790 FILLER_0_326_421
*6791 FILLER_0_326_433
*6792 FILLER_0_326_445
*6793 FILLER_0_326_457
*6794 FILLER_0_326_469
*6795 FILLER_0_326_475
*6796 FILLER_0_326_477
*6797 FILLER_0_326_489
*6798 FILLER_0_326_501
*6799 FILLER_0_326_513
*6800 FILLER_0_326_525
*6801 FILLER_0_326_53
*6802 FILLER_0_326_531
*6803 FILLER_0_326_533
*6804 FILLER_0_326_545
*6805 FILLER_0_326_557
*6806 FILLER_0_326_569
*6807 FILLER_0_326_581
*6808 FILLER_0_326_587
*6809 FILLER_0_326_589
*6810 FILLER_0_326_601
*6811 FILLER_0_326_613
*6812 FILLER_0_326_625
*6813 FILLER_0_326_637
*6814 FILLER_0_326_643
*6815 FILLER_0_326_645
*6816 FILLER_0_326_65
*6817 FILLER_0_326_657
*6818 FILLER_0_326_669
*6819 FILLER_0_326_681
*6820 FILLER_0_326_693
*6821 FILLER_0_326_699
*6822 FILLER_0_326_701
*6823 FILLER_0_326_713
*6824 FILLER_0_326_725
*6825 FILLER_0_326_737
*6826 FILLER_0_326_749
*6827 FILLER_0_326_755
*6828 FILLER_0_326_757
*6829 FILLER_0_326_769
*6830 FILLER_0_326_77
*6831 FILLER_0_326_781
*6832 FILLER_0_326_793
*6833 FILLER_0_326_805
*6834 FILLER_0_326_811
*6835 FILLER_0_326_813
*6836 FILLER_0_326_825
*6837 FILLER_0_326_83
*6838 FILLER_0_326_837
*6839 FILLER_0_326_849
*6840 FILLER_0_326_85
*6841 FILLER_0_326_861
*6842 FILLER_0_326_867
*6843 FILLER_0_326_869
*6844 FILLER_0_326_881
*6845 FILLER_0_326_893
*6846 FILLER_0_326_905
*6847 FILLER_0_326_917
*6848 FILLER_0_326_923
*6849 FILLER_0_326_925
*6850 FILLER_0_326_937
*6851 FILLER_0_326_949
*6852 FILLER_0_326_961
*6853 FILLER_0_326_97
*6854 FILLER_0_326_973
*6855 FILLER_0_326_979
*6856 FILLER_0_326_981
*6857 FILLER_0_326_993
*6858 FILLER_0_327_1005
*6859 FILLER_0_327_1009
*6860 FILLER_0_327_1021
*6861 FILLER_0_327_1033
*6862 FILLER_0_327_1037
*6863 FILLER_0_327_1049
*6864 FILLER_0_327_1061
*6865 FILLER_0_327_1065
*6866 FILLER_0_327_1077
*6867 FILLER_0_327_1089
*6868 FILLER_0_327_109
*6869 FILLER_0_327_1093
*6870 FILLER_0_327_1105
*6871 FILLER_0_327_1117
*6872 FILLER_0_327_1121
*6873 FILLER_0_327_113
*6874 FILLER_0_327_1133
*6875 FILLER_0_327_1145
*6876 FILLER_0_327_1149
*6877 FILLER_0_327_1161
*6878 FILLER_0_327_1173
*6879 FILLER_0_327_1177
*6880 FILLER_0_327_1189
*6881 FILLER_0_327_1201
*6882 FILLER_0_327_1205
*6883 FILLER_0_327_1217
*6884 FILLER_0_327_1229
*6885 FILLER_0_327_1233
*6886 FILLER_0_327_1245
*6887 FILLER_0_327_125
*6888 FILLER_0_327_1257
*6889 FILLER_0_327_1261
*6890 FILLER_0_327_1273
*6891 FILLER_0_327_1285
*6892 FILLER_0_327_1289
*6893 FILLER_0_327_1301
*6894 FILLER_0_327_1313
*6895 FILLER_0_327_1317
*6896 FILLER_0_327_1329
*6897 FILLER_0_327_1341
*6898 FILLER_0_327_1345
*6899 FILLER_0_327_1357
*6900 FILLER_0_327_1369
*6901 FILLER_0_327_137
*6902 FILLER_0_327_1373
*6903 FILLER_0_327_1385
*6904 FILLER_0_327_1397
*6905 FILLER_0_327_1401
*6906 FILLER_0_327_141
*6907 FILLER_0_327_1413
*6908 FILLER_0_327_1425
*6909 FILLER_0_327_1429
*6910 FILLER_0_327_1441
*6911 FILLER_0_327_1453
*6912 FILLER_0_327_1457
*6913 FILLER_0_327_1469
*6914 FILLER_0_327_1481
*6915 FILLER_0_327_1485
*6916 FILLER_0_327_1497
*6917 FILLER_0_327_15
*6918 FILLER_0_327_1505
*6919 FILLER_0_327_153
*6920 FILLER_0_327_165
*6921 FILLER_0_327_169
*6922 FILLER_0_327_181
*6923 FILLER_0_327_193
*6924 FILLER_0_327_197
*6925 FILLER_0_327_209
*6926 FILLER_0_327_221
*6927 FILLER_0_327_225
*6928 FILLER_0_327_237
*6929 FILLER_0_327_249
*6930 FILLER_0_327_253
*6931 FILLER_0_327_265
*6932 FILLER_0_327_27
*6933 FILLER_0_327_277
*6934 FILLER_0_327_281
*6935 FILLER_0_327_29
*6936 FILLER_0_327_293
*6937 FILLER_0_327_3
*6938 FILLER_0_327_305
*6939 FILLER_0_327_309
*6940 FILLER_0_327_321
*6941 FILLER_0_327_333
*6942 FILLER_0_327_337
*6943 FILLER_0_327_349
*6944 FILLER_0_327_361
*6945 FILLER_0_327_365
*6946 FILLER_0_327_377
*6947 FILLER_0_327_389
*6948 FILLER_0_327_393
*6949 FILLER_0_327_405
*6950 FILLER_0_327_41
*6951 FILLER_0_327_417
*6952 FILLER_0_327_421
*6953 FILLER_0_327_433
*6954 FILLER_0_327_445
*6955 FILLER_0_327_449
*6956 FILLER_0_327_461
*6957 FILLER_0_327_473
*6958 FILLER_0_327_477
*6959 FILLER_0_327_489
*6960 FILLER_0_327_501
*6961 FILLER_0_327_505
*6962 FILLER_0_327_517
*6963 FILLER_0_327_529
*6964 FILLER_0_327_53
*6965 FILLER_0_327_533
*6966 FILLER_0_327_545
*6967 FILLER_0_327_557
*6968 FILLER_0_327_561
*6969 FILLER_0_327_57
*6970 FILLER_0_327_573
*6971 FILLER_0_327_585
*6972 FILLER_0_327_589
*6973 FILLER_0_327_601
*6974 FILLER_0_327_613
*6975 FILLER_0_327_617
*6976 FILLER_0_327_629
*6977 FILLER_0_327_641
*6978 FILLER_0_327_645
*6979 FILLER_0_327_657
*6980 FILLER_0_327_669
*6981 FILLER_0_327_673
*6982 FILLER_0_327_685
*6983 FILLER_0_327_69
*6984 FILLER_0_327_697
*6985 FILLER_0_327_701
*6986 FILLER_0_327_713
*6987 FILLER_0_327_725
*6988 FILLER_0_327_729
*6989 FILLER_0_327_741
*6990 FILLER_0_327_753
*6991 FILLER_0_327_757
*6992 FILLER_0_327_769
*6993 FILLER_0_327_781
*6994 FILLER_0_327_785
*6995 FILLER_0_327_797
*6996 FILLER_0_327_809
*6997 FILLER_0_327_81
*6998 FILLER_0_327_813
*6999 FILLER_0_327_825
*7000 FILLER_0_327_837
*7001 FILLER_0_327_841
*7002 FILLER_0_327_85
*7003 FILLER_0_327_853
*7004 FILLER_0_327_865
*7005 FILLER_0_327_869
*7006 FILLER_0_327_881
*7007 FILLER_0_327_893
*7008 FILLER_0_327_897
*7009 FILLER_0_327_909
*7010 FILLER_0_327_921
*7011 FILLER_0_327_925
*7012 FILLER_0_327_937
*7013 FILLER_0_327_949
*7014 FILLER_0_327_953
*7015 FILLER_0_327_965
*7016 FILLER_0_327_97
*7017 FILLER_0_327_977
*7018 FILLER_0_327_981
*7019 FILLER_0_327_993
*7020 FILLER_0_32_1464
*7021 FILLER_0_32_1468
*7022 FILLER_0_32_1472
*7023 FILLER_0_32_1484
*7024 FILLER_0_32_1488
*7025 FILLER_0_32_1490
*7026 FILLER_0_32_1502
*7027 FILLER_0_32_1506
*7028 FILLER_0_32_703
*7029 FILLER_0_32_715
*7030 FILLER_0_32_727
*7031 FILLER_0_32_729
*7032 FILLER_0_32_741
*7033 FILLER_0_33_1464
*7034 FILLER_0_33_1468
*7035 FILLER_0_33_1472
*7036 FILLER_0_33_1476
*7037 FILLER_0_33_1488
*7038 FILLER_0_33_1500
*7039 FILLER_0_33_1506
*7040 FILLER_0_33_703
*7041 FILLER_0_33_715
*7042 FILLER_0_33_727
*7043 FILLER_0_33_739
*7044 FILLER_0_34_1464
*7045 FILLER_0_34_1468
*7046 FILLER_0_34_1480
*7047 FILLER_0_34_1488
*7048 FILLER_0_34_1490
*7049 FILLER_0_34_1502
*7050 FILLER_0_34_1506
*7051 FILLER_0_34_703
*7052 FILLER_0_34_715
*7053 FILLER_0_34_727
*7054 FILLER_0_34_729
*7055 FILLER_0_34_741
*7056 FILLER_0_35_1464
*7057 FILLER_0_35_1476
*7058 FILLER_0_35_1488
*7059 FILLER_0_35_1500
*7060 FILLER_0_35_1506
*7061 FILLER_0_35_703
*7062 FILLER_0_35_715
*7063 FILLER_0_35_727
*7064 FILLER_0_35_739
*7065 FILLER_0_36_1464
*7066 FILLER_0_36_1468
*7067 FILLER_0_36_1472
*7068 FILLER_0_36_1484
*7069 FILLER_0_36_1488
*7070 FILLER_0_36_1490
*7071 FILLER_0_36_1502
*7072 FILLER_0_36_1506
*7073 FILLER_0_36_703
*7074 FILLER_0_36_715
*7075 FILLER_0_36_727
*7076 FILLER_0_36_729
*7077 FILLER_0_36_741
*7078 FILLER_0_37_1464
*7079 FILLER_0_37_1468
*7080 FILLER_0_37_1472
*7081 FILLER_0_37_1476
*7082 FILLER_0_37_1480
*7083 FILLER_0_37_1484
*7084 FILLER_0_37_1496
*7085 FILLER_0_37_1504
*7086 FILLER_0_37_703
*7087 FILLER_0_37_715
*7088 FILLER_0_37_727
*7089 FILLER_0_37_739
*7090 FILLER_0_38_1473
*7091 FILLER_0_38_1477
*7092 FILLER_0_38_1481
*7093 FILLER_0_38_1485
*7094 FILLER_0_38_1490
*7095 FILLER_0_38_1502
*7096 FILLER_0_38_1506
*7097 FILLER_0_38_703
*7098 FILLER_0_38_709
*7099 FILLER_0_38_726
*7100 FILLER_0_38_729
*7101 FILLER_0_38_741
*7102 FILLER_0_39_1473
*7103 FILLER_0_39_1477
*7104 FILLER_0_39_1489
*7105 FILLER_0_39_1501
*7106 FILLER_0_39_703
*7107 FILLER_0_39_715
*7108 FILLER_0_39_727
*7109 FILLER_0_39_739
*7110 FILLER_0_3_1004
*7111 FILLER_0_3_1009
*7112 FILLER_0_3_1013
*7113 FILLER_0_3_1023
*7114 FILLER_0_3_1033
*7115 FILLER_0_3_1039
*7116 FILLER_0_3_1042
*7117 FILLER_0_3_105
*7118 FILLER_0_3_1053
*7119 FILLER_0_3_1061
*7120 FILLER_0_3_1074
*7121 FILLER_0_3_1078
*7122 FILLER_0_3_1082
*7123 FILLER_0_3_1085
*7124 FILLER_0_3_1096
*7125 FILLER_0_3_1104
*7126 FILLER_0_3_111
*7127 FILLER_0_3_1115
*7128 FILLER_0_3_1119
*7129 FILLER_0_3_1121
*7130 FILLER_0_3_1126
*7131 FILLER_0_3_113
*7132 FILLER_0_3_1146
*7133 FILLER_0_3_1156
*7134 FILLER_0_3_1160
*7135 FILLER_0_3_1164
*7136 FILLER_0_3_1175
*7137 FILLER_0_3_1177
*7138 FILLER_0_3_1181
*7139 FILLER_0_3_1185
*7140 FILLER_0_3_1197
*7141 FILLER_0_3_1209
*7142 FILLER_0_3_1221
*7143 FILLER_0_3_1229
*7144 FILLER_0_3_1233
*7145 FILLER_0_3_1245
*7146 FILLER_0_3_125
*7147 FILLER_0_3_1257
*7148 FILLER_0_3_1269
*7149 FILLER_0_3_1281
*7150 FILLER_0_3_1287
*7151 FILLER_0_3_1289
*7152 FILLER_0_3_1301
*7153 FILLER_0_3_1313
*7154 FILLER_0_3_1325
*7155 FILLER_0_3_1337
*7156 FILLER_0_3_1343
*7157 FILLER_0_3_1345
*7158 FILLER_0_3_1357
*7159 FILLER_0_3_1369
*7160 FILLER_0_3_137
*7161 FILLER_0_3_1381
*7162 FILLER_0_3_1393
*7163 FILLER_0_3_1399
*7164 FILLER_0_3_1401
*7165 FILLER_0_3_1413
*7166 FILLER_0_3_1425
*7167 FILLER_0_3_1437
*7168 FILLER_0_3_1449
*7169 FILLER_0_3_1455
*7170 FILLER_0_3_1457
*7171 FILLER_0_3_1469
*7172 FILLER_0_3_1481
*7173 FILLER_0_3_149
*7174 FILLER_0_3_1493
*7175 FILLER_0_3_15
*7176 FILLER_0_3_1505
*7177 FILLER_0_3_161
*7178 FILLER_0_3_167
*7179 FILLER_0_3_169
*7180 FILLER_0_3_181
*7181 FILLER_0_3_193
*7182 FILLER_0_3_205
*7183 FILLER_0_3_217
*7184 FILLER_0_3_223
*7185 FILLER_0_3_225
*7186 FILLER_0_3_237
*7187 FILLER_0_3_249
*7188 FILLER_0_3_261
*7189 FILLER_0_3_27
*7190 FILLER_0_3_273
*7191 FILLER_0_3_279
*7192 FILLER_0_3_281
*7193 FILLER_0_3_293
*7194 FILLER_0_3_3
*7195 FILLER_0_3_305
*7196 FILLER_0_3_317
*7197 FILLER_0_3_329
*7198 FILLER_0_3_335
*7199 FILLER_0_3_337
*7200 FILLER_0_3_349
*7201 FILLER_0_3_361
*7202 FILLER_0_3_373
*7203 FILLER_0_3_385
*7204 FILLER_0_3_39
*7205 FILLER_0_3_391
*7206 FILLER_0_3_393
*7207 FILLER_0_3_405
*7208 FILLER_0_3_417
*7209 FILLER_0_3_429
*7210 FILLER_0_3_441
*7211 FILLER_0_3_447
*7212 FILLER_0_3_449
*7213 FILLER_0_3_461
*7214 FILLER_0_3_473
*7215 FILLER_0_3_485
*7216 FILLER_0_3_497
*7217 FILLER_0_3_503
*7218 FILLER_0_3_505
*7219 FILLER_0_3_51
*7220 FILLER_0_3_517
*7221 FILLER_0_3_529
*7222 FILLER_0_3_534
*7223 FILLER_0_3_546
*7224 FILLER_0_3_55
*7225 FILLER_0_3_558
*7226 FILLER_0_3_561
*7227 FILLER_0_3_57
*7228 FILLER_0_3_579
*7229 FILLER_0_3_583
*7230 FILLER_0_3_610
*7231 FILLER_0_3_637
*7232 FILLER_0_3_641
*7233 FILLER_0_3_650
*7234 FILLER_0_3_673
*7235 FILLER_0_3_685
*7236 FILLER_0_3_69
*7237 FILLER_0_3_697
*7238 FILLER_0_3_706
*7239 FILLER_0_3_716
*7240 FILLER_0_3_729
*7241 FILLER_0_3_740
*7242 FILLER_0_3_750
*7243 FILLER_0_3_766
*7244 FILLER_0_3_778
*7245 FILLER_0_3_785
*7246 FILLER_0_3_797
*7247 FILLER_0_3_81
*7248 FILLER_0_3_811
*7249 FILLER_0_3_827
*7250 FILLER_0_3_831
*7251 FILLER_0_3_868
*7252 FILLER_0_3_876
*7253 FILLER_0_3_894
*7254 FILLER_0_3_897
*7255 FILLER_0_3_909
*7256 FILLER_0_3_921
*7257 FILLER_0_3_93
*7258 FILLER_0_3_933
*7259 FILLER_0_3_945
*7260 FILLER_0_3_951
*7261 FILLER_0_3_953
*7262 FILLER_0_3_965
*7263 FILLER_0_3_977
*7264 FILLER_0_3_985
*7265 FILLER_0_3_991
*7266 FILLER_0_3_999
*7267 FILLER_0_40_1464
*7268 FILLER_0_40_1468
*7269 FILLER_0_40_1480
*7270 FILLER_0_40_1488
*7271 FILLER_0_40_1490
*7272 FILLER_0_40_1502
*7273 FILLER_0_40_1506
*7274 FILLER_0_40_703
*7275 FILLER_0_40_715
*7276 FILLER_0_40_719
*7277 FILLER_0_40_722
*7278 FILLER_0_40_726
*7279 FILLER_0_40_729
*7280 FILLER_0_40_742
*7281 FILLER_0_41_1464
*7282 FILLER_0_41_1468
*7283 FILLER_0_41_1472
*7284 FILLER_0_41_1484
*7285 FILLER_0_41_1496
*7286 FILLER_0_41_1504
*7287 FILLER_0_41_703
*7288 FILLER_0_41_715
*7289 FILLER_0_41_723
*7290 FILLER_0_41_727
*7291 FILLER_0_41_731
*7292 FILLER_0_41_742
*7293 FILLER_0_42_1464
*7294 FILLER_0_42_1468
*7295 FILLER_0_42_1480
*7296 FILLER_0_42_1488
*7297 FILLER_0_42_1490
*7298 FILLER_0_42_1502
*7299 FILLER_0_42_1506
*7300 FILLER_0_42_703
*7301 FILLER_0_42_715
*7302 FILLER_0_42_727
*7303 FILLER_0_42_729
*7304 FILLER_0_42_741
*7305 FILLER_0_43_1464
*7306 FILLER_0_43_1476
*7307 FILLER_0_43_1488
*7308 FILLER_0_43_1500
*7309 FILLER_0_43_1506
*7310 FILLER_0_43_703
*7311 FILLER_0_43_715
*7312 FILLER_0_43_727
*7313 FILLER_0_43_739
*7314 FILLER_0_44_1464
*7315 FILLER_0_44_1468
*7316 FILLER_0_44_1480
*7317 FILLER_0_44_1488
*7318 FILLER_0_44_1490
*7319 FILLER_0_44_1502
*7320 FILLER_0_44_1506
*7321 FILLER_0_44_703
*7322 FILLER_0_44_707
*7323 FILLER_0_44_719
*7324 FILLER_0_44_727
*7325 FILLER_0_44_729
*7326 FILLER_0_44_741
*7327 FILLER_0_45_1464
*7328 FILLER_0_45_1468
*7329 FILLER_0_45_1472
*7330 FILLER_0_45_1476
*7331 FILLER_0_45_1488
*7332 FILLER_0_45_1500
*7333 FILLER_0_45_1506
*7334 FILLER_0_45_703
*7335 FILLER_0_45_707
*7336 FILLER_0_45_710
*7337 FILLER_0_45_714
*7338 FILLER_0_45_725
*7339 FILLER_0_45_729
*7340 FILLER_0_45_739
*7341 FILLER_0_45_743
*7342 FILLER_0_46_1480
*7343 FILLER_0_46_1488
*7344 FILLER_0_46_1490
*7345 FILLER_0_46_1502
*7346 FILLER_0_46_1506
*7347 FILLER_0_46_703
*7348 FILLER_0_46_707
*7349 FILLER_0_46_712
*7350 FILLER_0_46_716
*7351 FILLER_0_46_727
*7352 FILLER_0_46_729
*7353 FILLER_0_46_733
*7354 FILLER_0_46_737
*7355 FILLER_0_46_745
*7356 FILLER_0_47_1464
*7357 FILLER_0_47_1468
*7358 FILLER_0_47_1472
*7359 FILLER_0_47_1484
*7360 FILLER_0_47_1496
*7361 FILLER_0_47_1504
*7362 FILLER_0_47_719
*7363 FILLER_0_47_731
*7364 FILLER_0_47_739
*7365 FILLER_0_47_743
*7366 FILLER_0_48_1480
*7367 FILLER_0_48_1488
*7368 FILLER_0_48_1490
*7369 FILLER_0_48_1502
*7370 FILLER_0_48_1506
*7371 FILLER_0_48_703
*7372 FILLER_0_48_715
*7373 FILLER_0_48_719
*7374 FILLER_0_48_722
*7375 FILLER_0_48_726
*7376 FILLER_0_48_729
*7377 FILLER_0_48_733
*7378 FILLER_0_48_736
*7379 FILLER_0_49_1473
*7380 FILLER_0_49_1477
*7381 FILLER_0_49_1481
*7382 FILLER_0_49_1485
*7383 FILLER_0_49_1497
*7384 FILLER_0_49_1505
*7385 FILLER_0_49_703
*7386 FILLER_0_49_715
*7387 FILLER_0_49_727
*7388 FILLER_0_49_739
*7389 FILLER_0_49_743
*7390 FILLER_0_4_1006
*7391 FILLER_0_4_1018
*7392 FILLER_0_4_1030
*7393 FILLER_0_4_1037
*7394 FILLER_0_4_1049
*7395 FILLER_0_4_1061
*7396 FILLER_0_4_1077
*7397 FILLER_0_4_1089
*7398 FILLER_0_4_109
*7399 FILLER_0_4_1093
*7400 FILLER_0_4_1105
*7401 FILLER_0_4_1117
*7402 FILLER_0_4_1129
*7403 FILLER_0_4_1141
*7404 FILLER_0_4_1147
*7405 FILLER_0_4_1149
*7406 FILLER_0_4_1163
*7407 FILLER_0_4_1167
*7408 FILLER_0_4_1179
*7409 FILLER_0_4_1191
*7410 FILLER_0_4_1203
*7411 FILLER_0_4_1205
*7412 FILLER_0_4_121
*7413 FILLER_0_4_1217
*7414 FILLER_0_4_1225
*7415 FILLER_0_4_1228
*7416 FILLER_0_4_1232
*7417 FILLER_0_4_1244
*7418 FILLER_0_4_1256
*7419 FILLER_0_4_1261
*7420 FILLER_0_4_1273
*7421 FILLER_0_4_1285
*7422 FILLER_0_4_1297
*7423 FILLER_0_4_1309
*7424 FILLER_0_4_1315
*7425 FILLER_0_4_1317
*7426 FILLER_0_4_1329
*7427 FILLER_0_4_133
*7428 FILLER_0_4_1341
*7429 FILLER_0_4_1353
*7430 FILLER_0_4_1365
*7431 FILLER_0_4_1371
*7432 FILLER_0_4_1373
*7433 FILLER_0_4_1385
*7434 FILLER_0_4_139
*7435 FILLER_0_4_1397
*7436 FILLER_0_4_1409
*7437 FILLER_0_4_141
*7438 FILLER_0_4_1421
*7439 FILLER_0_4_1427
*7440 FILLER_0_4_1429
*7441 FILLER_0_4_1441
*7442 FILLER_0_4_1453
*7443 FILLER_0_4_1465
*7444 FILLER_0_4_1477
*7445 FILLER_0_4_1483
*7446 FILLER_0_4_1485
*7447 FILLER_0_4_1497
*7448 FILLER_0_4_15
*7449 FILLER_0_4_1505
*7450 FILLER_0_4_153
*7451 FILLER_0_4_165
*7452 FILLER_0_4_177
*7453 FILLER_0_4_189
*7454 FILLER_0_4_195
*7455 FILLER_0_4_197
*7456 FILLER_0_4_209
*7457 FILLER_0_4_221
*7458 FILLER_0_4_233
*7459 FILLER_0_4_245
*7460 FILLER_0_4_251
*7461 FILLER_0_4_253
*7462 FILLER_0_4_265
*7463 FILLER_0_4_27
*7464 FILLER_0_4_277
*7465 FILLER_0_4_289
*7466 FILLER_0_4_29
*7467 FILLER_0_4_3
*7468 FILLER_0_4_301
*7469 FILLER_0_4_307
*7470 FILLER_0_4_309
*7471 FILLER_0_4_321
*7472 FILLER_0_4_333
*7473 FILLER_0_4_345
*7474 FILLER_0_4_357
*7475 FILLER_0_4_363
*7476 FILLER_0_4_365
*7477 FILLER_0_4_377
*7478 FILLER_0_4_389
*7479 FILLER_0_4_401
*7480 FILLER_0_4_41
*7481 FILLER_0_4_413
*7482 FILLER_0_4_419
*7483 FILLER_0_4_421
*7484 FILLER_0_4_433
*7485 FILLER_0_4_445
*7486 FILLER_0_4_457
*7487 FILLER_0_4_469
*7488 FILLER_0_4_475
*7489 FILLER_0_4_477
*7490 FILLER_0_4_489
*7491 FILLER_0_4_501
*7492 FILLER_0_4_513
*7493 FILLER_0_4_525
*7494 FILLER_0_4_53
*7495 FILLER_0_4_531
*7496 FILLER_0_4_533
*7497 FILLER_0_4_545
*7498 FILLER_0_4_557
*7499 FILLER_0_4_567
*7500 FILLER_0_4_587
*7501 FILLER_0_4_597
*7502 FILLER_0_4_606
*7503 FILLER_0_4_618
*7504 FILLER_0_4_626
*7505 FILLER_0_4_636
*7506 FILLER_0_4_645
*7507 FILLER_0_4_65
*7508 FILLER_0_4_665
*7509 FILLER_0_4_677
*7510 FILLER_0_4_689
*7511 FILLER_0_4_697
*7512 FILLER_0_4_701
*7513 FILLER_0_4_713
*7514 FILLER_0_4_725
*7515 FILLER_0_4_737
*7516 FILLER_0_4_749
*7517 FILLER_0_4_755
*7518 FILLER_0_4_757
*7519 FILLER_0_4_769
*7520 FILLER_0_4_77
*7521 FILLER_0_4_781
*7522 FILLER_0_4_793
*7523 FILLER_0_4_805
*7524 FILLER_0_4_811
*7525 FILLER_0_4_813
*7526 FILLER_0_4_825
*7527 FILLER_0_4_83
*7528 FILLER_0_4_837
*7529 FILLER_0_4_841
*7530 FILLER_0_4_85
*7531 FILLER_0_4_856
*7532 FILLER_0_4_866
*7533 FILLER_0_4_873
*7534 FILLER_0_4_881
*7535 FILLER_0_4_891
*7536 FILLER_0_4_903
*7537 FILLER_0_4_915
*7538 FILLER_0_4_923
*7539 FILLER_0_4_925
*7540 FILLER_0_4_937
*7541 FILLER_0_4_949
*7542 FILLER_0_4_961
*7543 FILLER_0_4_966
*7544 FILLER_0_4_97
*7545 FILLER_0_4_977
*7546 FILLER_0_4_981
*7547 FILLER_0_4_995
*7548 FILLER_0_50_1480
*7549 FILLER_0_50_1488
*7550 FILLER_0_50_1490
*7551 FILLER_0_50_1502
*7552 FILLER_0_50_1506
*7553 FILLER_0_50_703
*7554 FILLER_0_50_707
*7555 FILLER_0_50_719
*7556 FILLER_0_50_722
*7557 FILLER_0_50_726
*7558 FILLER_0_50_738
*7559 FILLER_0_50_742
*7560 FILLER_0_51_1464
*7561 FILLER_0_51_1468
*7562 FILLER_0_51_1472
*7563 FILLER_0_51_1484
*7564 FILLER_0_51_1496
*7565 FILLER_0_51_1504
*7566 FILLER_0_51_703
*7567 FILLER_0_51_708
*7568 FILLER_0_51_712
*7569 FILLER_0_51_716
*7570 FILLER_0_51_720
*7571 FILLER_0_51_731
*7572 FILLER_0_51_743
*7573 FILLER_0_52_1480
*7574 FILLER_0_52_1488
*7575 FILLER_0_52_1490
*7576 FILLER_0_52_1502
*7577 FILLER_0_52_1506
*7578 FILLER_0_52_703
*7579 FILLER_0_52_707
*7580 FILLER_0_52_711
*7581 FILLER_0_52_715
*7582 FILLER_0_52_726
*7583 FILLER_0_52_729
*7584 FILLER_0_52_733
*7585 FILLER_0_52_737
*7586 FILLER_0_53_1473
*7587 FILLER_0_53_1477
*7588 FILLER_0_53_1481
*7589 FILLER_0_53_1485
*7590 FILLER_0_53_1497
*7591 FILLER_0_53_1505
*7592 FILLER_0_53_712
*7593 FILLER_0_53_716
*7594 FILLER_0_53_720
*7595 FILLER_0_53_724
*7596 FILLER_0_53_728
*7597 FILLER_0_53_732
*7598 FILLER_0_53_742
*7599 FILLER_0_54_1480
*7600 FILLER_0_54_1488
*7601 FILLER_0_54_1490
*7602 FILLER_0_54_1502
*7603 FILLER_0_54_1506
*7604 FILLER_0_54_703
*7605 FILLER_0_54_707
*7606 FILLER_0_54_711
*7607 FILLER_0_54_715
*7608 FILLER_0_54_727
*7609 FILLER_0_54_729
*7610 FILLER_0_54_741
*7611 FILLER_0_55_1473
*7612 FILLER_0_55_1477
*7613 FILLER_0_55_1489
*7614 FILLER_0_55_1501
*7615 FILLER_0_55_703
*7616 FILLER_0_55_715
*7617 FILLER_0_55_727
*7618 FILLER_0_55_739
*7619 FILLER_0_56_1480
*7620 FILLER_0_56_1488
*7621 FILLER_0_56_1490
*7622 FILLER_0_56_1502
*7623 FILLER_0_56_1506
*7624 FILLER_0_56_703
*7625 FILLER_0_56_707
*7626 FILLER_0_56_719
*7627 FILLER_0_56_727
*7628 FILLER_0_56_729
*7629 FILLER_0_56_741
*7630 FILLER_0_57_1464
*7631 FILLER_0_57_1468
*7632 FILLER_0_57_1472
*7633 FILLER_0_57_1476
*7634 FILLER_0_57_1488
*7635 FILLER_0_57_1500
*7636 FILLER_0_57_1506
*7637 FILLER_0_57_703
*7638 FILLER_0_57_707
*7639 FILLER_0_57_711
*7640 FILLER_0_57_715
*7641 FILLER_0_57_727
*7642 FILLER_0_57_731
*7643 FILLER_0_57_734
*7644 FILLER_0_57_738
*7645 FILLER_0_57_742
*7646 FILLER_0_58_1480
*7647 FILLER_0_58_1488
*7648 FILLER_0_58_1490
*7649 FILLER_0_58_1502
*7650 FILLER_0_58_1506
*7651 FILLER_0_58_703
*7652 FILLER_0_58_707
*7653 FILLER_0_58_711
*7654 FILLER_0_58_722
*7655 FILLER_0_58_726
*7656 FILLER_0_58_738
*7657 FILLER_0_58_742
*7658 FILLER_0_59_1464
*7659 FILLER_0_59_1476
*7660 FILLER_0_59_1488
*7661 FILLER_0_59_1500
*7662 FILLER_0_59_1506
*7663 FILLER_0_59_723
*7664 FILLER_0_59_735
*7665 FILLER_0_59_738
*7666 FILLER_0_59_742
*7667 FILLER_0_5_1001
*7668 FILLER_0_5_1007
*7669 FILLER_0_5_1009
*7670 FILLER_0_5_1021
*7671 FILLER_0_5_1033
*7672 FILLER_0_5_1043
*7673 FILLER_0_5_105
*7674 FILLER_0_5_1055
*7675 FILLER_0_5_1063
*7676 FILLER_0_5_1081
*7677 FILLER_0_5_1093
*7678 FILLER_0_5_1105
*7679 FILLER_0_5_111
*7680 FILLER_0_5_1117
*7681 FILLER_0_5_1121
*7682 FILLER_0_5_113
*7683 FILLER_0_5_1141
*7684 FILLER_0_5_1149
*7685 FILLER_0_5_1167
*7686 FILLER_0_5_1172
*7687 FILLER_0_5_1177
*7688 FILLER_0_5_1189
*7689 FILLER_0_5_1193
*7690 FILLER_0_5_1196
*7691 FILLER_0_5_1200
*7692 FILLER_0_5_1204
*7693 FILLER_0_5_1221
*7694 FILLER_0_5_1225
*7695 FILLER_0_5_1228
*7696 FILLER_0_5_1233
*7697 FILLER_0_5_1243
*7698 FILLER_0_5_125
*7699 FILLER_0_5_1255
*7700 FILLER_0_5_1267
*7701 FILLER_0_5_1279
*7702 FILLER_0_5_1287
*7703 FILLER_0_5_1289
*7704 FILLER_0_5_1301
*7705 FILLER_0_5_1313
*7706 FILLER_0_5_1325
*7707 FILLER_0_5_1337
*7708 FILLER_0_5_1343
*7709 FILLER_0_5_1345
*7710 FILLER_0_5_1357
*7711 FILLER_0_5_1369
*7712 FILLER_0_5_137
*7713 FILLER_0_5_1381
*7714 FILLER_0_5_1393
*7715 FILLER_0_5_1399
*7716 FILLER_0_5_1401
*7717 FILLER_0_5_1413
*7718 FILLER_0_5_1425
*7719 FILLER_0_5_1437
*7720 FILLER_0_5_1449
*7721 FILLER_0_5_1455
*7722 FILLER_0_5_1457
*7723 FILLER_0_5_1469
*7724 FILLER_0_5_1481
*7725 FILLER_0_5_149
*7726 FILLER_0_5_1493
*7727 FILLER_0_5_15
*7728 FILLER_0_5_1505
*7729 FILLER_0_5_161
*7730 FILLER_0_5_167
*7731 FILLER_0_5_169
*7732 FILLER_0_5_181
*7733 FILLER_0_5_193
*7734 FILLER_0_5_205
*7735 FILLER_0_5_217
*7736 FILLER_0_5_223
*7737 FILLER_0_5_225
*7738 FILLER_0_5_237
*7739 FILLER_0_5_249
*7740 FILLER_0_5_261
*7741 FILLER_0_5_27
*7742 FILLER_0_5_273
*7743 FILLER_0_5_279
*7744 FILLER_0_5_281
*7745 FILLER_0_5_293
*7746 FILLER_0_5_3
*7747 FILLER_0_5_305
*7748 FILLER_0_5_317
*7749 FILLER_0_5_329
*7750 FILLER_0_5_335
*7751 FILLER_0_5_337
*7752 FILLER_0_5_349
*7753 FILLER_0_5_361
*7754 FILLER_0_5_373
*7755 FILLER_0_5_385
*7756 FILLER_0_5_39
*7757 FILLER_0_5_391
*7758 FILLER_0_5_393
*7759 FILLER_0_5_405
*7760 FILLER_0_5_417
*7761 FILLER_0_5_429
*7762 FILLER_0_5_441
*7763 FILLER_0_5_447
*7764 FILLER_0_5_449
*7765 FILLER_0_5_461
*7766 FILLER_0_5_473
*7767 FILLER_0_5_485
*7768 FILLER_0_5_497
*7769 FILLER_0_5_503
*7770 FILLER_0_5_505
*7771 FILLER_0_5_51
*7772 FILLER_0_5_517
*7773 FILLER_0_5_529
*7774 FILLER_0_5_543
*7775 FILLER_0_5_55
*7776 FILLER_0_5_554
*7777 FILLER_0_5_57
*7778 FILLER_0_5_570
*7779 FILLER_0_5_574
*7780 FILLER_0_5_586
*7781 FILLER_0_5_597
*7782 FILLER_0_5_609
*7783 FILLER_0_5_615
*7784 FILLER_0_5_626
*7785 FILLER_0_5_634
*7786 FILLER_0_5_644
*7787 FILLER_0_5_656
*7788 FILLER_0_5_668
*7789 FILLER_0_5_673
*7790 FILLER_0_5_685
*7791 FILLER_0_5_69
*7792 FILLER_0_5_697
*7793 FILLER_0_5_709
*7794 FILLER_0_5_721
*7795 FILLER_0_5_727
*7796 FILLER_0_5_729
*7797 FILLER_0_5_741
*7798 FILLER_0_5_753
*7799 FILLER_0_5_765
*7800 FILLER_0_5_777
*7801 FILLER_0_5_783
*7802 FILLER_0_5_785
*7803 FILLER_0_5_797
*7804 FILLER_0_5_809
*7805 FILLER_0_5_81
*7806 FILLER_0_5_821
*7807 FILLER_0_5_833
*7808 FILLER_0_5_839
*7809 FILLER_0_5_841
*7810 FILLER_0_5_849
*7811 FILLER_0_5_863
*7812 FILLER_0_5_867
*7813 FILLER_0_5_878
*7814 FILLER_0_5_890
*7815 FILLER_0_5_897
*7816 FILLER_0_5_909
*7817 FILLER_0_5_921
*7818 FILLER_0_5_93
*7819 FILLER_0_5_933
*7820 FILLER_0_5_945
*7821 FILLER_0_5_951
*7822 FILLER_0_5_953
*7823 FILLER_0_5_965
*7824 FILLER_0_5_977
*7825 FILLER_0_5_989
*7826 FILLER_0_60_1480
*7827 FILLER_0_60_1488
*7828 FILLER_0_60_1490
*7829 FILLER_0_60_1502
*7830 FILLER_0_60_1506
*7831 FILLER_0_60_703
*7832 FILLER_0_60_707
*7833 FILLER_0_60_711
*7834 FILLER_0_60_714
*7835 FILLER_0_60_718
*7836 FILLER_0_60_722
*7837 FILLER_0_60_726
*7838 FILLER_0_60_738
*7839 FILLER_0_60_742
*7840 FILLER_0_61_1464
*7841 FILLER_0_61_1468
*7842 FILLER_0_61_1480
*7843 FILLER_0_61_1492
*7844 FILLER_0_61_1504
*7845 FILLER_0_61_712
*7846 FILLER_0_61_716
*7847 FILLER_0_61_728
*7848 FILLER_0_61_740
*7849 FILLER_0_61_743
*7850 FILLER_0_62_1480
*7851 FILLER_0_62_1488
*7852 FILLER_0_62_1490
*7853 FILLER_0_62_1502
*7854 FILLER_0_62_1506
*7855 FILLER_0_62_703
*7856 FILLER_0_62_715
*7857 FILLER_0_62_719
*7858 FILLER_0_62_722
*7859 FILLER_0_62_726
*7860 FILLER_0_62_729
*7861 FILLER_0_62_733
*7862 FILLER_0_62_736
*7863 FILLER_0_63_1464
*7864 FILLER_0_63_1476
*7865 FILLER_0_63_1488
*7866 FILLER_0_63_1500
*7867 FILLER_0_63_1506
*7868 FILLER_0_63_703
*7869 FILLER_0_63_707
*7870 FILLER_0_63_711
*7871 FILLER_0_63_715
*7872 FILLER_0_63_719
*7873 FILLER_0_63_730
*7874 FILLER_0_63_734
*7875 FILLER_0_63_738
*7876 FILLER_0_63_742
*7877 FILLER_0_64_1480
*7878 FILLER_0_64_1488
*7879 FILLER_0_64_1490
*7880 FILLER_0_64_1502
*7881 FILLER_0_64_1506
*7882 FILLER_0_64_719
*7883 FILLER_0_64_727
*7884 FILLER_0_64_729
*7885 FILLER_0_64_741
*7886 FILLER_0_65_1464
*7887 FILLER_0_65_1468
*7888 FILLER_0_65_1480
*7889 FILLER_0_65_1492
*7890 FILLER_0_65_1504
*7891 FILLER_0_65_703
*7892 FILLER_0_65_707
*7893 FILLER_0_65_719
*7894 FILLER_0_65_731
*7895 FILLER_0_65_743
*7896 FILLER_0_66_1480
*7897 FILLER_0_66_1488
*7898 FILLER_0_66_1490
*7899 FILLER_0_66_1502
*7900 FILLER_0_66_1506
*7901 FILLER_0_66_703
*7902 FILLER_0_66_715
*7903 FILLER_0_66_727
*7904 FILLER_0_66_729
*7905 FILLER_0_66_741
*7906 FILLER_0_67_1464
*7907 FILLER_0_67_1476
*7908 FILLER_0_67_1488
*7909 FILLER_0_67_1500
*7910 FILLER_0_67_1506
*7911 FILLER_0_67_703
*7912 FILLER_0_67_715
*7913 FILLER_0_67_727
*7914 FILLER_0_67_739
*7915 FILLER_0_68_1480
*7916 FILLER_0_68_1488
*7917 FILLER_0_68_1490
*7918 FILLER_0_68_1502
*7919 FILLER_0_68_1506
*7920 FILLER_0_68_703
*7921 FILLER_0_68_715
*7922 FILLER_0_68_727
*7923 FILLER_0_68_729
*7924 FILLER_0_68_741
*7925 FILLER_0_69_1464
*7926 FILLER_0_69_1468
*7927 FILLER_0_69_1472
*7928 FILLER_0_69_1476
*7929 FILLER_0_69_1480
*7930 FILLER_0_69_1492
*7931 FILLER_0_69_1504
*7932 FILLER_0_69_703
*7933 FILLER_0_69_707
*7934 FILLER_0_69_719
*7935 FILLER_0_69_731
*7936 FILLER_0_69_743
*7937 FILLER_0_6_1005
*7938 FILLER_0_6_1013
*7939 FILLER_0_6_1018
*7940 FILLER_0_6_1022
*7941 FILLER_0_6_1026
*7942 FILLER_0_6_1030
*7943 FILLER_0_6_1034
*7944 FILLER_0_6_1037
*7945 FILLER_0_6_1050
*7946 FILLER_0_6_1054
*7947 FILLER_0_6_1058
*7948 FILLER_0_6_1062
*7949 FILLER_0_6_1066
*7950 FILLER_0_6_1070
*7951 FILLER_0_6_1074
*7952 FILLER_0_6_1078
*7953 FILLER_0_6_1082
*7954 FILLER_0_6_1086
*7955 FILLER_0_6_109
*7956 FILLER_0_6_1141
*7957 FILLER_0_6_1145
*7958 FILLER_0_6_1165
*7959 FILLER_0_6_1169
*7960 FILLER_0_6_1172
*7961 FILLER_0_6_1176
*7962 FILLER_0_6_1180
*7963 FILLER_0_6_1190
*7964 FILLER_0_6_1194
*7965 FILLER_0_6_1198
*7966 FILLER_0_6_1202
*7967 FILLER_0_6_1205
*7968 FILLER_0_6_121
*7969 FILLER_0_6_1211
*7970 FILLER_0_6_1215
*7971 FILLER_0_6_1226
*7972 FILLER_0_6_1230
*7973 FILLER_0_6_1234
*7974 FILLER_0_6_1238
*7975 FILLER_0_6_1242
*7976 FILLER_0_6_1246
*7977 FILLER_0_6_1250
*7978 FILLER_0_6_1258
*7979 FILLER_0_6_1261
*7980 FILLER_0_6_1273
*7981 FILLER_0_6_1285
*7982 FILLER_0_6_1297
*7983 FILLER_0_6_1309
*7984 FILLER_0_6_1315
*7985 FILLER_0_6_1317
*7986 FILLER_0_6_1329
*7987 FILLER_0_6_133
*7988 FILLER_0_6_1341
*7989 FILLER_0_6_1353
*7990 FILLER_0_6_1365
*7991 FILLER_0_6_1371
*7992 FILLER_0_6_1373
*7993 FILLER_0_6_1385
*7994 FILLER_0_6_139
*7995 FILLER_0_6_1397
*7996 FILLER_0_6_1409
*7997 FILLER_0_6_141
*7998 FILLER_0_6_1421
*7999 FILLER_0_6_1427
*8000 FILLER_0_6_1429
*8001 FILLER_0_6_1441
*8002 FILLER_0_6_1453
*8003 FILLER_0_6_1465
*8004 FILLER_0_6_1477
*8005 FILLER_0_6_1483
*8006 FILLER_0_6_1485
*8007 FILLER_0_6_1497
*8008 FILLER_0_6_15
*8009 FILLER_0_6_1505
*8010 FILLER_0_6_153
*8011 FILLER_0_6_165
*8012 FILLER_0_6_177
*8013 FILLER_0_6_189
*8014 FILLER_0_6_195
*8015 FILLER_0_6_197
*8016 FILLER_0_6_209
*8017 FILLER_0_6_221
*8018 FILLER_0_6_233
*8019 FILLER_0_6_245
*8020 FILLER_0_6_251
*8021 FILLER_0_6_253
*8022 FILLER_0_6_265
*8023 FILLER_0_6_27
*8024 FILLER_0_6_277
*8025 FILLER_0_6_289
*8026 FILLER_0_6_29
*8027 FILLER_0_6_3
*8028 FILLER_0_6_301
*8029 FILLER_0_6_307
*8030 FILLER_0_6_309
*8031 FILLER_0_6_321
*8032 FILLER_0_6_333
*8033 FILLER_0_6_345
*8034 FILLER_0_6_357
*8035 FILLER_0_6_363
*8036 FILLER_0_6_365
*8037 FILLER_0_6_377
*8038 FILLER_0_6_389
*8039 FILLER_0_6_401
*8040 FILLER_0_6_41
*8041 FILLER_0_6_413
*8042 FILLER_0_6_419
*8043 FILLER_0_6_421
*8044 FILLER_0_6_433
*8045 FILLER_0_6_445
*8046 FILLER_0_6_457
*8047 FILLER_0_6_469
*8048 FILLER_0_6_475
*8049 FILLER_0_6_477
*8050 FILLER_0_6_489
*8051 FILLER_0_6_501
*8052 FILLER_0_6_513
*8053 FILLER_0_6_525
*8054 FILLER_0_6_53
*8055 FILLER_0_6_531
*8056 FILLER_0_6_533
*8057 FILLER_0_6_545
*8058 FILLER_0_6_557
*8059 FILLER_0_6_569
*8060 FILLER_0_6_584
*8061 FILLER_0_6_589
*8062 FILLER_0_6_599
*8063 FILLER_0_6_603
*8064 FILLER_0_6_615
*8065 FILLER_0_6_627
*8066 FILLER_0_6_640
*8067 FILLER_0_6_65
*8068 FILLER_0_6_654
*8069 FILLER_0_6_666
*8070 FILLER_0_6_678
*8071 FILLER_0_6_690
*8072 FILLER_0_6_698
*8073 FILLER_0_6_701
*8074 FILLER_0_6_713
*8075 FILLER_0_6_725
*8076 FILLER_0_6_737
*8077 FILLER_0_6_749
*8078 FILLER_0_6_755
*8079 FILLER_0_6_757
*8080 FILLER_0_6_769
*8081 FILLER_0_6_77
*8082 FILLER_0_6_781
*8083 FILLER_0_6_793
*8084 FILLER_0_6_805
*8085 FILLER_0_6_811
*8086 FILLER_0_6_813
*8087 FILLER_0_6_825
*8088 FILLER_0_6_83
*8089 FILLER_0_6_831
*8090 FILLER_0_6_837
*8091 FILLER_0_6_849
*8092 FILLER_0_6_85
*8093 FILLER_0_6_857
*8094 FILLER_0_6_863
*8095 FILLER_0_6_867
*8096 FILLER_0_6_869
*8097 FILLER_0_6_881
*8098 FILLER_0_6_893
*8099 FILLER_0_6_905
*8100 FILLER_0_6_917
*8101 FILLER_0_6_923
*8102 FILLER_0_6_925
*8103 FILLER_0_6_937
*8104 FILLER_0_6_949
*8105 FILLER_0_6_961
*8106 FILLER_0_6_97
*8107 FILLER_0_6_971
*8108 FILLER_0_6_979
*8109 FILLER_0_6_981
*8110 FILLER_0_6_993
*8111 FILLER_0_70_1480
*8112 FILLER_0_70_1488
*8113 FILLER_0_70_1490
*8114 FILLER_0_70_1502
*8115 FILLER_0_70_1506
*8116 FILLER_0_70_703
*8117 FILLER_0_70_715
*8118 FILLER_0_70_727
*8119 FILLER_0_70_729
*8120 FILLER_0_70_741
*8121 FILLER_0_71_1464
*8122 FILLER_0_71_1476
*8123 FILLER_0_71_1488
*8124 FILLER_0_71_1500
*8125 FILLER_0_71_1506
*8126 FILLER_0_71_703
*8127 FILLER_0_71_715
*8128 FILLER_0_71_727
*8129 FILLER_0_71_735
*8130 FILLER_0_72_1480
*8131 FILLER_0_72_1488
*8132 FILLER_0_72_1490
*8133 FILLER_0_72_1502
*8134 FILLER_0_72_1506
*8135 FILLER_0_72_703
*8136 FILLER_0_72_715
*8137 FILLER_0_72_727
*8138 FILLER_0_72_729
*8139 FILLER_0_72_741
*8140 FILLER_0_73_1464
*8141 FILLER_0_73_1468
*8142 FILLER_0_73_1472
*8143 FILLER_0_73_1476
*8144 FILLER_0_73_1488
*8145 FILLER_0_73_1500
*8146 FILLER_0_73_1506
*8147 FILLER_0_73_703
*8148 FILLER_0_73_707
*8149 FILLER_0_73_719
*8150 FILLER_0_73_731
*8151 FILLER_0_73_743
*8152 FILLER_0_74_1480
*8153 FILLER_0_74_1488
*8154 FILLER_0_74_1490
*8155 FILLER_0_74_1502
*8156 FILLER_0_74_1506
*8157 FILLER_0_74_703
*8158 FILLER_0_74_715
*8159 FILLER_0_74_727
*8160 FILLER_0_74_729
*8161 FILLER_0_74_741
*8162 FILLER_0_75_1467
*8163 FILLER_0_75_1479
*8164 FILLER_0_75_1491
*8165 FILLER_0_75_1503
*8166 FILLER_0_75_703
*8167 FILLER_0_75_715
*8168 FILLER_0_75_727
*8169 FILLER_0_75_739
*8170 FILLER_0_76_1464
*8171 FILLER_0_76_1482
*8172 FILLER_0_76_1488
*8173 FILLER_0_76_1490
*8174 FILLER_0_76_1502
*8175 FILLER_0_76_1506
*8176 FILLER_0_76_706
*8177 FILLER_0_76_718
*8178 FILLER_0_76_726
*8179 FILLER_0_76_729
*8180 FILLER_0_76_741
*8181 FILLER_0_77_1464
*8182 FILLER_0_77_1468
*8183 FILLER_0_77_1472
*8184 FILLER_0_77_1476
*8185 FILLER_0_77_1488
*8186 FILLER_0_77_1500
*8187 FILLER_0_77_1506
*8188 FILLER_0_77_703
*8189 FILLER_0_77_707
*8190 FILLER_0_77_719
*8191 FILLER_0_77_731
*8192 FILLER_0_77_743
*8193 FILLER_0_78_1467
*8194 FILLER_0_78_1479
*8195 FILLER_0_78_1487
*8196 FILLER_0_78_1490
*8197 FILLER_0_78_1502
*8198 FILLER_0_78_1506
*8199 FILLER_0_78_706
*8200 FILLER_0_78_718
*8201 FILLER_0_78_726
*8202 FILLER_0_78_729
*8203 FILLER_0_78_737
*8204 FILLER_0_79_1464
*8205 FILLER_0_79_1476
*8206 FILLER_0_79_1488
*8207 FILLER_0_79_1500
*8208 FILLER_0_79_1506
*8209 FILLER_0_79_703
*8210 FILLER_0_79_715
*8211 FILLER_0_79_727
*8212 FILLER_0_79_739
*8213 FILLER_0_7_1001
*8214 FILLER_0_7_1007
*8215 FILLER_0_7_105
*8216 FILLER_0_7_1057
*8217 FILLER_0_7_1063
*8218 FILLER_0_7_1065
*8219 FILLER_0_7_111
*8220 FILLER_0_7_1116
*8221 FILLER_0_7_113
*8222 FILLER_0_7_1169
*8223 FILLER_0_7_1173
*8224 FILLER_0_7_1225
*8225 FILLER_0_7_1229
*8226 FILLER_0_7_125
*8227 FILLER_0_7_1265
*8228 FILLER_0_7_1277
*8229 FILLER_0_7_1285
*8230 FILLER_0_7_1289
*8231 FILLER_0_7_1301
*8232 FILLER_0_7_1305
*8233 FILLER_0_7_1309
*8234 FILLER_0_7_1313
*8235 FILLER_0_7_1325
*8236 FILLER_0_7_1337
*8237 FILLER_0_7_1343
*8238 FILLER_0_7_1345
*8239 FILLER_0_7_1357
*8240 FILLER_0_7_1369
*8241 FILLER_0_7_137
*8242 FILLER_0_7_1381
*8243 FILLER_0_7_1393
*8244 FILLER_0_7_1399
*8245 FILLER_0_7_1401
*8246 FILLER_0_7_1413
*8247 FILLER_0_7_1425
*8248 FILLER_0_7_1437
*8249 FILLER_0_7_1449
*8250 FILLER_0_7_1455
*8251 FILLER_0_7_1457
*8252 FILLER_0_7_1469
*8253 FILLER_0_7_1481
*8254 FILLER_0_7_149
*8255 FILLER_0_7_1493
*8256 FILLER_0_7_15
*8257 FILLER_0_7_1505
*8258 FILLER_0_7_161
*8259 FILLER_0_7_167
*8260 FILLER_0_7_169
*8261 FILLER_0_7_181
*8262 FILLER_0_7_193
*8263 FILLER_0_7_205
*8264 FILLER_0_7_217
*8265 FILLER_0_7_223
*8266 FILLER_0_7_225
*8267 FILLER_0_7_237
*8268 FILLER_0_7_249
*8269 FILLER_0_7_261
*8270 FILLER_0_7_27
*8271 FILLER_0_7_273
*8272 FILLER_0_7_279
*8273 FILLER_0_7_281
*8274 FILLER_0_7_293
*8275 FILLER_0_7_3
*8276 FILLER_0_7_305
*8277 FILLER_0_7_317
*8278 FILLER_0_7_329
*8279 FILLER_0_7_335
*8280 FILLER_0_7_337
*8281 FILLER_0_7_349
*8282 FILLER_0_7_361
*8283 FILLER_0_7_373
*8284 FILLER_0_7_385
*8285 FILLER_0_7_39
*8286 FILLER_0_7_391
*8287 FILLER_0_7_393
*8288 FILLER_0_7_405
*8289 FILLER_0_7_417
*8290 FILLER_0_7_429
*8291 FILLER_0_7_441
*8292 FILLER_0_7_447
*8293 FILLER_0_7_449
*8294 FILLER_0_7_461
*8295 FILLER_0_7_473
*8296 FILLER_0_7_485
*8297 FILLER_0_7_497
*8298 FILLER_0_7_503
*8299 FILLER_0_7_505
*8300 FILLER_0_7_51
*8301 FILLER_0_7_517
*8302 FILLER_0_7_529
*8303 FILLER_0_7_534
*8304 FILLER_0_7_545
*8305 FILLER_0_7_55
*8306 FILLER_0_7_557
*8307 FILLER_0_7_561
*8308 FILLER_0_7_57
*8309 FILLER_0_7_573
*8310 FILLER_0_7_585
*8311 FILLER_0_7_597
*8312 FILLER_0_7_609
*8313 FILLER_0_7_615
*8314 FILLER_0_7_617
*8315 FILLER_0_7_629
*8316 FILLER_0_7_652
*8317 FILLER_0_7_664
*8318 FILLER_0_7_673
*8319 FILLER_0_7_685
*8320 FILLER_0_7_69
*8321 FILLER_0_7_697
*8322 FILLER_0_7_709
*8323 FILLER_0_7_721
*8324 FILLER_0_7_727
*8325 FILLER_0_7_729
*8326 FILLER_0_7_741
*8327 FILLER_0_7_753
*8328 FILLER_0_7_765
*8329 FILLER_0_7_777
*8330 FILLER_0_7_783
*8331 FILLER_0_7_785
*8332 FILLER_0_7_797
*8333 FILLER_0_7_809
*8334 FILLER_0_7_81
*8335 FILLER_0_7_821
*8336 FILLER_0_7_831
*8337 FILLER_0_7_839
*8338 FILLER_0_7_841
*8339 FILLER_0_7_853
*8340 FILLER_0_7_865
*8341 FILLER_0_7_877
*8342 FILLER_0_7_889
*8343 FILLER_0_7_895
*8344 FILLER_0_7_897
*8345 FILLER_0_7_909
*8346 FILLER_0_7_921
*8347 FILLER_0_7_93
*8348 FILLER_0_7_933
*8349 FILLER_0_7_945
*8350 FILLER_0_7_951
*8351 FILLER_0_7_953
*8352 FILLER_0_7_965
*8353 FILLER_0_7_977
*8354 FILLER_0_7_989
*8355 FILLER_0_80_1464
*8356 FILLER_0_80_1476
*8357 FILLER_0_80_1488
*8358 FILLER_0_80_1490
*8359 FILLER_0_80_1502
*8360 FILLER_0_80_1506
*8361 FILLER_0_80_703
*8362 FILLER_0_80_715
*8363 FILLER_0_80_727
*8364 FILLER_0_80_729
*8365 FILLER_0_80_741
*8366 FILLER_0_81_1464
*8367 FILLER_0_81_1476
*8368 FILLER_0_81_1488
*8369 FILLER_0_81_1500
*8370 FILLER_0_81_1506
*8371 FILLER_0_81_703
*8372 FILLER_0_81_715
*8373 FILLER_0_81_727
*8374 FILLER_0_81_739
*8375 FILLER_0_82_1464
*8376 FILLER_0_82_1476
*8377 FILLER_0_82_1488
*8378 FILLER_0_82_1490
*8379 FILLER_0_82_1502
*8380 FILLER_0_82_1506
*8381 FILLER_0_82_703
*8382 FILLER_0_82_715
*8383 FILLER_0_82_727
*8384 FILLER_0_82_729
*8385 FILLER_0_82_741
*8386 FILLER_0_83_1464
*8387 FILLER_0_83_1476
*8388 FILLER_0_83_1488
*8389 FILLER_0_83_1500
*8390 FILLER_0_83_1506
*8391 FILLER_0_83_703
*8392 FILLER_0_83_715
*8393 FILLER_0_83_727
*8394 FILLER_0_83_739
*8395 FILLER_0_84_1470
*8396 FILLER_0_84_1482
*8397 FILLER_0_84_1488
*8398 FILLER_0_84_1490
*8399 FILLER_0_84_1502
*8400 FILLER_0_84_1506
*8401 FILLER_0_84_709
*8402 FILLER_0_84_721
*8403 FILLER_0_84_727
*8404 FILLER_0_84_729
*8405 FILLER_0_84_741
*8406 FILLER_0_85_1464
*8407 FILLER_0_85_1476
*8408 FILLER_0_85_1488
*8409 FILLER_0_85_1500
*8410 FILLER_0_85_1506
*8411 FILLER_0_85_703
*8412 FILLER_0_85_715
*8413 FILLER_0_86_1464
*8414 FILLER_0_86_1476
*8415 FILLER_0_86_1488
*8416 FILLER_0_86_1490
*8417 FILLER_0_86_1502
*8418 FILLER_0_86_1506
*8419 FILLER_0_86_703
*8420 FILLER_0_86_715
*8421 FILLER_0_86_727
*8422 FILLER_0_86_729
*8423 FILLER_0_86_741
*8424 FILLER_0_87_1464
*8425 FILLER_0_87_1476
*8426 FILLER_0_87_1488
*8427 FILLER_0_87_1500
*8428 FILLER_0_87_1506
*8429 FILLER_0_87_703
*8430 FILLER_0_87_715
*8431 FILLER_0_87_727
*8432 FILLER_0_87_739
*8433 FILLER_0_88_1464
*8434 FILLER_0_88_1476
*8435 FILLER_0_88_1488
*8436 FILLER_0_88_1490
*8437 FILLER_0_88_1502
*8438 FILLER_0_88_1506
*8439 FILLER_0_88_703
*8440 FILLER_0_88_715
*8441 FILLER_0_88_727
*8442 FILLER_0_88_729
*8443 FILLER_0_88_741
*8444 FILLER_0_89_1467
*8445 FILLER_0_89_1471
*8446 FILLER_0_89_1483
*8447 FILLER_0_89_1495
*8448 FILLER_0_89_706
*8449 FILLER_0_89_718
*8450 FILLER_0_89_730
*8451 FILLER_0_89_742
*8452 FILLER_0_89_746
*8453 FILLER_0_8_1005
*8454 FILLER_0_8_1009
*8455 FILLER_0_8_1033
*8456 FILLER_0_8_1053
*8457 FILLER_0_8_1061
*8458 FILLER_0_8_1081
*8459 FILLER_0_8_1086
*8460 FILLER_0_8_109
*8461 FILLER_0_8_1090
*8462 FILLER_0_8_1093
*8463 FILLER_0_8_1099
*8464 FILLER_0_8_1103
*8465 FILLER_0_8_1107
*8466 FILLER_0_8_1118
*8467 FILLER_0_8_1121
*8468 FILLER_0_8_1125
*8469 FILLER_0_8_1129
*8470 FILLER_0_8_113
*8471 FILLER_0_8_1133
*8472 FILLER_0_8_1146
*8473 FILLER_0_8_1149
*8474 FILLER_0_8_1153
*8475 FILLER_0_8_1157
*8476 FILLER_0_8_1161
*8477 FILLER_0_8_1174
*8478 FILLER_0_8_1177
*8479 FILLER_0_8_1181
*8480 FILLER_0_8_1185
*8481 FILLER_0_8_1189
*8482 FILLER_0_8_1202
*8483 FILLER_0_8_1205
*8484 FILLER_0_8_1209
*8485 FILLER_0_8_1213
*8486 FILLER_0_8_1217
*8487 FILLER_0_8_1221
*8488 FILLER_0_8_1225
*8489 FILLER_0_8_1229
*8490 FILLER_0_8_1233
*8491 FILLER_0_8_1237
*8492 FILLER_0_8_1241
*8493 FILLER_0_8_1246
*8494 FILLER_0_8_125
*8495 FILLER_0_8_1250
*8496 FILLER_0_8_1254
*8497 FILLER_0_8_1258
*8498 FILLER_0_8_1261
*8499 FILLER_0_8_1265
*8500 FILLER_0_8_1268
*8501 FILLER_0_8_1279
*8502 FILLER_0_8_1283
*8503 FILLER_0_8_1287
*8504 FILLER_0_8_1289
*8505 FILLER_0_8_1293
*8506 FILLER_0_8_1297
*8507 FILLER_0_8_1301
*8508 FILLER_0_8_1305
*8509 FILLER_0_8_1309
*8510 FILLER_0_8_1313
*8511 FILLER_0_8_1317
*8512 FILLER_0_8_1321
*8513 FILLER_0_8_1326
*8514 FILLER_0_8_1330
*8515 FILLER_0_8_1334
*8516 FILLER_0_8_1338
*8517 FILLER_0_8_1342
*8518 FILLER_0_8_1354
*8519 FILLER_0_8_1358
*8520 FILLER_0_8_1362
*8521 FILLER_0_8_1366
*8522 FILLER_0_8_137
*8523 FILLER_0_8_1370
*8524 FILLER_0_8_1373
*8525 FILLER_0_8_1377
*8526 FILLER_0_8_1389
*8527 FILLER_0_8_1397
*8528 FILLER_0_8_1401
*8529 FILLER_0_8_141
*8530 FILLER_0_8_1413
*8531 FILLER_0_8_1425
*8532 FILLER_0_8_1429
*8533 FILLER_0_8_1441
*8534 FILLER_0_8_1453
*8535 FILLER_0_8_1457
*8536 FILLER_0_8_1469
*8537 FILLER_0_8_1481
*8538 FILLER_0_8_1485
*8539 FILLER_0_8_1497
*8540 FILLER_0_8_15
*8541 FILLER_0_8_1505
*8542 FILLER_0_8_153
*8543 FILLER_0_8_165
*8544 FILLER_0_8_169
*8545 FILLER_0_8_181
*8546 FILLER_0_8_193
*8547 FILLER_0_8_197
*8548 FILLER_0_8_209
*8549 FILLER_0_8_221
*8550 FILLER_0_8_225
*8551 FILLER_0_8_237
*8552 FILLER_0_8_249
*8553 FILLER_0_8_253
*8554 FILLER_0_8_265
*8555 FILLER_0_8_27
*8556 FILLER_0_8_277
*8557 FILLER_0_8_281
*8558 FILLER_0_8_29
*8559 FILLER_0_8_293
*8560 FILLER_0_8_3
*8561 FILLER_0_8_305
*8562 FILLER_0_8_309
*8563 FILLER_0_8_321
*8564 FILLER_0_8_333
*8565 FILLER_0_8_337
*8566 FILLER_0_8_349
*8567 FILLER_0_8_361
*8568 FILLER_0_8_365
*8569 FILLER_0_8_377
*8570 FILLER_0_8_389
*8571 FILLER_0_8_393
*8572 FILLER_0_8_405
*8573 FILLER_0_8_41
*8574 FILLER_0_8_417
*8575 FILLER_0_8_421
*8576 FILLER_0_8_433
*8577 FILLER_0_8_445
*8578 FILLER_0_8_449
*8579 FILLER_0_8_461
*8580 FILLER_0_8_473
*8581 FILLER_0_8_477
*8582 FILLER_0_8_489
*8583 FILLER_0_8_501
*8584 FILLER_0_8_505
*8585 FILLER_0_8_517
*8586 FILLER_0_8_529
*8587 FILLER_0_8_53
*8588 FILLER_0_8_533
*8589 FILLER_0_8_545
*8590 FILLER_0_8_557
*8591 FILLER_0_8_561
*8592 FILLER_0_8_57
*8593 FILLER_0_8_573
*8594 FILLER_0_8_585
*8595 FILLER_0_8_589
*8596 FILLER_0_8_601
*8597 FILLER_0_8_613
*8598 FILLER_0_8_617
*8599 FILLER_0_8_625
*8600 FILLER_0_8_635
*8601 FILLER_0_8_643
*8602 FILLER_0_8_645
*8603 FILLER_0_8_657
*8604 FILLER_0_8_669
*8605 FILLER_0_8_673
*8606 FILLER_0_8_685
*8607 FILLER_0_8_69
*8608 FILLER_0_8_697
*8609 FILLER_0_8_701
*8610 FILLER_0_8_713
*8611 FILLER_0_8_725
*8612 FILLER_0_8_729
*8613 FILLER_0_8_741
*8614 FILLER_0_8_749
*8615 FILLER_0_8_755
*8616 FILLER_0_8_757
*8617 FILLER_0_8_769
*8618 FILLER_0_8_781
*8619 FILLER_0_8_785
*8620 FILLER_0_8_789
*8621 FILLER_0_8_800
*8622 FILLER_0_8_81
*8623 FILLER_0_8_813
*8624 FILLER_0_8_825
*8625 FILLER_0_8_836
*8626 FILLER_0_8_841
*8627 FILLER_0_8_85
*8628 FILLER_0_8_853
*8629 FILLER_0_8_865
*8630 FILLER_0_8_869
*8631 FILLER_0_8_881
*8632 FILLER_0_8_893
*8633 FILLER_0_8_897
*8634 FILLER_0_8_909
*8635 FILLER_0_8_921
*8636 FILLER_0_8_925
*8637 FILLER_0_8_937
*8638 FILLER_0_8_949
*8639 FILLER_0_8_953
*8640 FILLER_0_8_965
*8641 FILLER_0_8_97
*8642 FILLER_0_8_977
*8643 FILLER_0_8_997
*8644 FILLER_0_90_1467
*8645 FILLER_0_90_1471
*8646 FILLER_0_90_1475
*8647 FILLER_0_90_1479
*8648 FILLER_0_90_1487
*8649 FILLER_0_90_1490
*8650 FILLER_0_90_1502
*8651 FILLER_0_90_1506
*8652 FILLER_0_90_706
*8653 FILLER_0_90_710
*8654 FILLER_0_90_722
*8655 FILLER_0_90_729
*8656 FILLER_0_90_741
*8657 FILLER_0_91_1464
*8658 FILLER_0_91_1468
*8659 FILLER_0_91_1472
*8660 FILLER_0_91_1484
*8661 FILLER_0_91_1496
*8662 FILLER_0_91_1504
*8663 FILLER_0_91_703
*8664 FILLER_0_91_715
*8665 FILLER_0_91_727
*8666 FILLER_0_91_739
*8667 FILLER_0_92_1464
*8668 FILLER_0_92_1476
*8669 FILLER_0_92_1488
*8670 FILLER_0_92_1490
*8671 FILLER_0_92_1502
*8672 FILLER_0_92_1506
*8673 FILLER_0_92_703
*8674 FILLER_0_92_715
*8675 FILLER_0_92_727
*8676 FILLER_0_92_729
*8677 FILLER_0_92_741
*8678 FILLER_0_93_1464
*8679 FILLER_0_93_1468
*8680 FILLER_0_93_1472
*8681 FILLER_0_93_1484
*8682 FILLER_0_93_1496
*8683 FILLER_0_93_1504
*8684 FILLER_0_93_703
*8685 FILLER_0_93_707
*8686 FILLER_0_93_719
*8687 FILLER_0_93_731
*8688 FILLER_0_93_743
*8689 FILLER_0_94_1470
*8690 FILLER_0_94_1474
*8691 FILLER_0_94_1478
*8692 FILLER_0_94_1486
*8693 FILLER_0_94_1490
*8694 FILLER_0_94_1502
*8695 FILLER_0_94_1506
*8696 FILLER_0_94_709
*8697 FILLER_0_94_721
*8698 FILLER_0_94_727
*8699 FILLER_0_94_729
*8700 FILLER_0_94_741
*8701 FILLER_0_95_1464
*8702 FILLER_0_95_1468
*8703 FILLER_0_95_1472
*8704 FILLER_0_95_1484
*8705 FILLER_0_95_1496
*8706 FILLER_0_95_1504
*8707 FILLER_0_95_703
*8708 FILLER_0_95_715
*8709 FILLER_0_95_727
*8710 FILLER_0_95_739
*8711 FILLER_0_96_1464
*8712 FILLER_0_96_1476
*8713 FILLER_0_96_1488
*8714 FILLER_0_96_1490
*8715 FILLER_0_96_1502
*8716 FILLER_0_96_1506
*8717 FILLER_0_96_703
*8718 FILLER_0_96_715
*8719 FILLER_0_96_727
*8720 FILLER_0_96_729
*8721 FILLER_0_96_741
*8722 FILLER_0_97_1464
*8723 FILLER_0_97_1468
*8724 FILLER_0_97_1472
*8725 FILLER_0_97_1484
*8726 FILLER_0_97_1496
*8727 FILLER_0_97_1504
*8728 FILLER_0_97_703
*8729 FILLER_0_97_715
*8730 FILLER_0_97_727
*8731 FILLER_0_97_739
*8732 FILLER_0_98_1464
*8733 FILLER_0_98_1468
*8734 FILLER_0_98_1472
*8735 FILLER_0_98_1476
*8736 FILLER_0_98_1488
*8737 FILLER_0_98_1490
*8738 FILLER_0_98_1502
*8739 FILLER_0_98_1506
*8740 FILLER_0_98_703
*8741 FILLER_0_98_707
*8742 FILLER_0_98_719
*8743 FILLER_0_98_727
*8744 FILLER_0_98_729
*8745 FILLER_0_98_741
*8746 FILLER_0_99_1464
*8747 FILLER_0_99_1468
*8748 FILLER_0_99_1480
*8749 FILLER_0_99_1492
*8750 FILLER_0_99_1504
*8751 FILLER_0_99_703
*8752 FILLER_0_99_715
*8753 FILLER_0_99_727
*8754 FILLER_0_99_739
*8755 FILLER_0_9_1464
*8756 FILLER_0_9_1476
*8757 FILLER_0_9_1488
*8758 FILLER_0_9_1500
*8759 FILLER_0_9_1506
*8760 FILLER_0_9_703
*8761 FILLER_0_9_715
*8762 FILLER_0_9_727
*8763 FILLER_0_9_739
*8764 PHY_EDGE_ROW_0_Left_312
*8765 PHY_EDGE_ROW_0_Right_321
*8766 PHY_EDGE_ROW_100_2_Left_252
*8767 PHY_EDGE_ROW_100_2_Right_896
*8768 PHY_EDGE_ROW_100_3_Left_747
*8769 PHY_EDGE_ROW_100_3_Right_439
*8770 PHY_EDGE_ROW_101_2_Left_253
*8771 PHY_EDGE_ROW_101_2_Right_897
*8772 PHY_EDGE_ROW_101_3_Left_748
*8773 PHY_EDGE_ROW_101_3_Right_440
*8774 PHY_EDGE_ROW_102_2_Left_254
*8775 PHY_EDGE_ROW_102_2_Right_898
*8776 PHY_EDGE_ROW_102_3_Left_749
*8777 PHY_EDGE_ROW_102_3_Right_441
*8778 PHY_EDGE_ROW_103_2_Left_255
*8779 PHY_EDGE_ROW_103_2_Right_899
*8780 PHY_EDGE_ROW_103_3_Left_750
*8781 PHY_EDGE_ROW_103_3_Right_442
*8782 PHY_EDGE_ROW_104_2_Left_256
*8783 PHY_EDGE_ROW_104_2_Right_900
*8784 PHY_EDGE_ROW_104_3_Left_751
*8785 PHY_EDGE_ROW_104_3_Right_443
*8786 PHY_EDGE_ROW_105_2_Left_257
*8787 PHY_EDGE_ROW_105_2_Right_901
*8788 PHY_EDGE_ROW_105_3_Left_752
*8789 PHY_EDGE_ROW_105_3_Right_444
*8790 PHY_EDGE_ROW_106_2_Left_258
*8791 PHY_EDGE_ROW_106_2_Right_902
*8792 PHY_EDGE_ROW_106_3_Left_753
*8793 PHY_EDGE_ROW_106_3_Right_445
*8794 PHY_EDGE_ROW_107_2_Left_259
*8795 PHY_EDGE_ROW_107_2_Right_903
*8796 PHY_EDGE_ROW_107_3_Left_754
*8797 PHY_EDGE_ROW_107_3_Right_446
*8798 PHY_EDGE_ROW_108_2_Left_260
*8799 PHY_EDGE_ROW_108_2_Right_904
*8800 PHY_EDGE_ROW_108_3_Left_755
*8801 PHY_EDGE_ROW_108_3_Right_447
*8802 PHY_EDGE_ROW_109_2_Left_261
*8803 PHY_EDGE_ROW_109_2_Right_905
*8804 PHY_EDGE_ROW_109_3_Left_756
*8805 PHY_EDGE_ROW_109_3_Right_448
*8806 PHY_EDGE_ROW_10_2_Left_162
*8807 PHY_EDGE_ROW_10_2_Right_806
*8808 PHY_EDGE_ROW_10_3_Left_657
*8809 PHY_EDGE_ROW_10_3_Right_349
*8810 PHY_EDGE_ROW_110_2_Left_262
*8811 PHY_EDGE_ROW_110_2_Right_906
*8812 PHY_EDGE_ROW_110_3_Left_757
*8813 PHY_EDGE_ROW_110_3_Right_449
*8814 PHY_EDGE_ROW_111_2_Left_263
*8815 PHY_EDGE_ROW_111_2_Right_907
*8816 PHY_EDGE_ROW_111_3_Left_758
*8817 PHY_EDGE_ROW_111_3_Right_450
*8818 PHY_EDGE_ROW_112_2_Left_264
*8819 PHY_EDGE_ROW_112_2_Right_908
*8820 PHY_EDGE_ROW_112_3_Left_759
*8821 PHY_EDGE_ROW_112_3_Right_451
*8822 PHY_EDGE_ROW_113_2_Left_265
*8823 PHY_EDGE_ROW_113_2_Right_909
*8824 PHY_EDGE_ROW_113_3_Left_760
*8825 PHY_EDGE_ROW_113_3_Right_452
*8826 PHY_EDGE_ROW_114_2_Left_266
*8827 PHY_EDGE_ROW_114_2_Right_910
*8828 PHY_EDGE_ROW_114_3_Left_761
*8829 PHY_EDGE_ROW_114_3_Right_453
*8830 PHY_EDGE_ROW_115_2_Left_267
*8831 PHY_EDGE_ROW_115_2_Right_911
*8832 PHY_EDGE_ROW_115_3_Left_762
*8833 PHY_EDGE_ROW_115_3_Right_454
*8834 PHY_EDGE_ROW_116_2_Left_268
*8835 PHY_EDGE_ROW_116_2_Right_912
*8836 PHY_EDGE_ROW_116_3_Left_763
*8837 PHY_EDGE_ROW_116_3_Right_455
*8838 PHY_EDGE_ROW_117_2_Left_269
*8839 PHY_EDGE_ROW_117_2_Right_913
*8840 PHY_EDGE_ROW_117_3_Left_764
*8841 PHY_EDGE_ROW_117_3_Right_456
*8842 PHY_EDGE_ROW_118_2_Left_270
*8843 PHY_EDGE_ROW_118_2_Right_914
*8844 PHY_EDGE_ROW_118_3_Left_765
*8845 PHY_EDGE_ROW_118_3_Right_457
*8846 PHY_EDGE_ROW_119_2_Left_271
*8847 PHY_EDGE_ROW_119_2_Right_915
*8848 PHY_EDGE_ROW_119_3_Left_766
*8849 PHY_EDGE_ROW_119_3_Right_458
*8850 PHY_EDGE_ROW_11_2_Left_163
*8851 PHY_EDGE_ROW_11_2_Right_807
*8852 PHY_EDGE_ROW_11_3_Left_658
*8853 PHY_EDGE_ROW_11_3_Right_350
*8854 PHY_EDGE_ROW_120_2_Left_272
*8855 PHY_EDGE_ROW_120_2_Right_916
*8856 PHY_EDGE_ROW_120_3_Left_767
*8857 PHY_EDGE_ROW_120_3_Right_459
*8858 PHY_EDGE_ROW_121_2_Left_273
*8859 PHY_EDGE_ROW_121_2_Right_917
*8860 PHY_EDGE_ROW_121_3_Left_768
*8861 PHY_EDGE_ROW_121_3_Right_460
*8862 PHY_EDGE_ROW_122_2_Left_274
*8863 PHY_EDGE_ROW_122_2_Right_918
*8864 PHY_EDGE_ROW_122_3_Left_769
*8865 PHY_EDGE_ROW_122_3_Right_461
*8866 PHY_EDGE_ROW_123_2_Left_275
*8867 PHY_EDGE_ROW_123_2_Right_919
*8868 PHY_EDGE_ROW_123_3_Left_770
*8869 PHY_EDGE_ROW_123_3_Right_462
*8870 PHY_EDGE_ROW_124_2_Left_276
*8871 PHY_EDGE_ROW_124_2_Right_920
*8872 PHY_EDGE_ROW_124_3_Left_771
*8873 PHY_EDGE_ROW_124_3_Right_463
*8874 PHY_EDGE_ROW_125_2_Left_277
*8875 PHY_EDGE_ROW_125_2_Right_921
*8876 PHY_EDGE_ROW_125_3_Left_772
*8877 PHY_EDGE_ROW_125_3_Right_464
*8878 PHY_EDGE_ROW_126_2_Left_278
*8879 PHY_EDGE_ROW_126_2_Right_922
*8880 PHY_EDGE_ROW_126_3_Left_773
*8881 PHY_EDGE_ROW_126_3_Right_465
*8882 PHY_EDGE_ROW_127_2_Left_279
*8883 PHY_EDGE_ROW_127_2_Right_923
*8884 PHY_EDGE_ROW_127_3_Left_774
*8885 PHY_EDGE_ROW_127_3_Right_466
*8886 PHY_EDGE_ROW_128_2_Left_280
*8887 PHY_EDGE_ROW_128_2_Right_924
*8888 PHY_EDGE_ROW_128_3_Left_775
*8889 PHY_EDGE_ROW_128_3_Right_467
*8890 PHY_EDGE_ROW_129_2_Left_281
*8891 PHY_EDGE_ROW_129_2_Right_925
*8892 PHY_EDGE_ROW_129_3_Left_776
*8893 PHY_EDGE_ROW_129_3_Right_468
*8894 PHY_EDGE_ROW_12_2_Left_164
*8895 PHY_EDGE_ROW_12_2_Right_808
*8896 PHY_EDGE_ROW_12_3_Left_659
*8897 PHY_EDGE_ROW_12_3_Right_351
*8898 PHY_EDGE_ROW_130_2_Left_282
*8899 PHY_EDGE_ROW_130_2_Right_926
*8900 PHY_EDGE_ROW_130_3_Left_777
*8901 PHY_EDGE_ROW_130_3_Right_469
*8902 PHY_EDGE_ROW_131_2_Left_283
*8903 PHY_EDGE_ROW_131_2_Right_927
*8904 PHY_EDGE_ROW_131_3_Left_778
*8905 PHY_EDGE_ROW_131_3_Right_470
*8906 PHY_EDGE_ROW_132_2_Left_284
*8907 PHY_EDGE_ROW_132_2_Right_928
*8908 PHY_EDGE_ROW_132_3_Left_779
*8909 PHY_EDGE_ROW_132_3_Right_471
*8910 PHY_EDGE_ROW_133_2_Left_285
*8911 PHY_EDGE_ROW_133_2_Right_929
*8912 PHY_EDGE_ROW_133_3_Left_780
*8913 PHY_EDGE_ROW_133_3_Right_472
*8914 PHY_EDGE_ROW_134_2_Left_286
*8915 PHY_EDGE_ROW_134_2_Right_930
*8916 PHY_EDGE_ROW_134_3_Left_781
*8917 PHY_EDGE_ROW_134_3_Right_473
*8918 PHY_EDGE_ROW_135_2_Left_287
*8919 PHY_EDGE_ROW_135_2_Right_931
*8920 PHY_EDGE_ROW_135_3_Left_782
*8921 PHY_EDGE_ROW_135_3_Right_474
*8922 PHY_EDGE_ROW_136_2_Left_288
*8923 PHY_EDGE_ROW_136_2_Right_932
*8924 PHY_EDGE_ROW_136_3_Left_783
*8925 PHY_EDGE_ROW_136_3_Right_475
*8926 PHY_EDGE_ROW_137_2_Left_289
*8927 PHY_EDGE_ROW_137_2_Right_933
*8928 PHY_EDGE_ROW_137_3_Left_784
*8929 PHY_EDGE_ROW_137_3_Right_476
*8930 PHY_EDGE_ROW_138_2_Left_290
*8931 PHY_EDGE_ROW_138_2_Right_934
*8932 PHY_EDGE_ROW_138_3_Left_785
*8933 PHY_EDGE_ROW_138_3_Right_477
*8934 PHY_EDGE_ROW_139_2_Left_291
*8935 PHY_EDGE_ROW_139_2_Right_935
*8936 PHY_EDGE_ROW_139_3_Left_786
*8937 PHY_EDGE_ROW_139_3_Right_478
*8938 PHY_EDGE_ROW_13_2_Left_165
*8939 PHY_EDGE_ROW_13_2_Right_809
*8940 PHY_EDGE_ROW_13_3_Left_660
*8941 PHY_EDGE_ROW_13_3_Right_352
*8942 PHY_EDGE_ROW_140_2_Left_292
*8943 PHY_EDGE_ROW_140_2_Right_936
*8944 PHY_EDGE_ROW_140_3_Left_787
*8945 PHY_EDGE_ROW_140_3_Right_479
*8946 PHY_EDGE_ROW_141_2_Left_293
*8947 PHY_EDGE_ROW_141_2_Right_937
*8948 PHY_EDGE_ROW_141_3_Left_788
*8949 PHY_EDGE_ROW_141_3_Right_480
*8950 PHY_EDGE_ROW_142_2_Left_294
*8951 PHY_EDGE_ROW_142_2_Right_938
*8952 PHY_EDGE_ROW_142_3_Left_789
*8953 PHY_EDGE_ROW_142_3_Right_481
*8954 PHY_EDGE_ROW_143_2_Left_295
*8955 PHY_EDGE_ROW_143_2_Right_939
*8956 PHY_EDGE_ROW_143_3_Left_790
*8957 PHY_EDGE_ROW_143_3_Right_482
*8958 PHY_EDGE_ROW_144_2_Left_296
*8959 PHY_EDGE_ROW_144_2_Right_940
*8960 PHY_EDGE_ROW_144_3_Left_791
*8961 PHY_EDGE_ROW_144_3_Right_483
*8962 PHY_EDGE_ROW_145_2_Left_297
*8963 PHY_EDGE_ROW_145_2_Right_941
*8964 PHY_EDGE_ROW_145_3_Left_792
*8965 PHY_EDGE_ROW_145_3_Right_484
*8966 PHY_EDGE_ROW_146_2_Left_298
*8967 PHY_EDGE_ROW_146_2_Right_942
*8968 PHY_EDGE_ROW_146_3_Left_793
*8969 PHY_EDGE_ROW_146_3_Right_485
*8970 PHY_EDGE_ROW_147_2_Left_299
*8971 PHY_EDGE_ROW_147_2_Right_943
*8972 PHY_EDGE_ROW_147_3_Left_794
*8973 PHY_EDGE_ROW_147_3_Right_486
*8974 PHY_EDGE_ROW_148_2_Left_300
*8975 PHY_EDGE_ROW_148_2_Right_944
*8976 PHY_EDGE_ROW_148_3_Left_795
*8977 PHY_EDGE_ROW_148_3_Right_487
*8978 PHY_EDGE_ROW_149_2_Left_301
*8979 PHY_EDGE_ROW_149_2_Right_945
*8980 PHY_EDGE_ROW_149_3_Left_796
*8981 PHY_EDGE_ROW_149_3_Right_488
*8982 PHY_EDGE_ROW_14_2_Left_166
*8983 PHY_EDGE_ROW_14_2_Right_810
*8984 PHY_EDGE_ROW_14_3_Left_661
*8985 PHY_EDGE_ROW_14_3_Right_353
*8986 PHY_EDGE_ROW_150_2_Left_302
*8987 PHY_EDGE_ROW_150_2_Right_946
*8988 PHY_EDGE_ROW_150_3_Left_797
*8989 PHY_EDGE_ROW_150_3_Right_489
*8990 PHY_EDGE_ROW_151_2_Left_303
*8991 PHY_EDGE_ROW_151_2_Right_947
*8992 PHY_EDGE_ROW_151_3_Left_798
*8993 PHY_EDGE_ROW_151_3_Right_490
*8994 PHY_EDGE_ROW_152_2_Left_304
*8995 PHY_EDGE_ROW_152_2_Right_948
*8996 PHY_EDGE_ROW_152_3_Left_799
*8997 PHY_EDGE_ROW_152_3_Right_491
*8998 PHY_EDGE_ROW_153_2_Left_305
*8999 PHY_EDGE_ROW_153_2_Right_949
*9000 PHY_EDGE_ROW_153_3_Left_800
*9001 PHY_EDGE_ROW_153_3_Right_492
*9002 PHY_EDGE_ROW_154_2_Left_306
*9003 PHY_EDGE_ROW_154_2_Right_950
*9004 PHY_EDGE_ROW_154_3_Left_801
*9005 PHY_EDGE_ROW_154_3_Right_493
*9006 PHY_EDGE_ROW_155_2_Left_307
*9007 PHY_EDGE_ROW_155_2_Right_951
*9008 PHY_EDGE_ROW_155_3_Left_802
*9009 PHY_EDGE_ROW_155_3_Right_494
*9010 PHY_EDGE_ROW_156_2_Left_308
*9011 PHY_EDGE_ROW_156_2_Right_952
*9012 PHY_EDGE_ROW_156_3_Left_803
*9013 PHY_EDGE_ROW_156_3_Right_495
*9014 PHY_EDGE_ROW_157_2_Left_309
*9015 PHY_EDGE_ROW_157_2_Right_953
*9016 PHY_EDGE_ROW_157_3_Left_804
*9017 PHY_EDGE_ROW_157_3_Right_496
*9018 PHY_EDGE_ROW_158_2_Left_310
*9019 PHY_EDGE_ROW_158_2_Right_954
*9020 PHY_EDGE_ROW_158_3_Left_805
*9021 PHY_EDGE_ROW_158_3_Right_497
*9022 PHY_EDGE_ROW_159_Left_151
*9023 PHY_EDGE_ROW_159_Right_330
*9024 PHY_EDGE_ROW_15_2_Left_167
*9025 PHY_EDGE_ROW_15_2_Right_811
*9026 PHY_EDGE_ROW_15_3_Left_662
*9027 PHY_EDGE_ROW_15_3_Right_354
*9028 PHY_EDGE_ROW_160_Left_152
*9029 PHY_EDGE_ROW_160_Right_331
*9030 PHY_EDGE_ROW_161_Left_153
*9031 PHY_EDGE_ROW_161_Right_332
*9032 PHY_EDGE_ROW_162_Left_154
*9033 PHY_EDGE_ROW_162_Right_333
*9034 PHY_EDGE_ROW_163_Left_155
*9035 PHY_EDGE_ROW_163_Right_334
*9036 PHY_EDGE_ROW_164_Left_156
*9037 PHY_EDGE_ROW_164_Right_335
*9038 PHY_EDGE_ROW_165_Left_157
*9039 PHY_EDGE_ROW_165_Right_336
*9040 PHY_EDGE_ROW_166_Left_158
*9041 PHY_EDGE_ROW_166_Right_337
*9042 PHY_EDGE_ROW_167_Left_159
*9043 PHY_EDGE_ROW_167_Right_338
*9044 PHY_EDGE_ROW_168_Left_160
*9045 PHY_EDGE_ROW_168_Right_339
*9046 PHY_EDGE_ROW_169_Left_161
*9047 PHY_EDGE_ROW_169_Right_340
*9048 PHY_EDGE_ROW_16_2_Left_168
*9049 PHY_EDGE_ROW_16_2_Right_812
*9050 PHY_EDGE_ROW_16_3_Left_663
*9051 PHY_EDGE_ROW_16_3_Right_355
*9052 PHY_EDGE_ROW_170_2_Left_0
*9053 PHY_EDGE_ROW_170_2_Right_1107
*9054 PHY_EDGE_ROW_170_3_Left_956
*9055 PHY_EDGE_ROW_170_3_Right_498
*9056 PHY_EDGE_ROW_171_2_Left_1
*9057 PHY_EDGE_ROW_171_2_Right_1108
*9058 PHY_EDGE_ROW_171_3_Left_957
*9059 PHY_EDGE_ROW_171_3_Right_499
*9060 PHY_EDGE_ROW_172_2_Left_2
*9061 PHY_EDGE_ROW_172_2_Right_1109
*9062 PHY_EDGE_ROW_172_3_Left_958
*9063 PHY_EDGE_ROW_172_3_Right_500
*9064 PHY_EDGE_ROW_173_2_Left_3
*9065 PHY_EDGE_ROW_173_2_Right_1110
*9066 PHY_EDGE_ROW_173_3_Left_959
*9067 PHY_EDGE_ROW_173_3_Right_501
*9068 PHY_EDGE_ROW_174_2_Left_4
*9069 PHY_EDGE_ROW_174_2_Right_1111
*9070 PHY_EDGE_ROW_174_3_Left_960
*9071 PHY_EDGE_ROW_174_3_Right_502
*9072 PHY_EDGE_ROW_175_2_Left_5
*9073 PHY_EDGE_ROW_175_2_Right_1112
*9074 PHY_EDGE_ROW_175_3_Left_961
*9075 PHY_EDGE_ROW_175_3_Right_503
*9076 PHY_EDGE_ROW_176_2_Left_6
*9077 PHY_EDGE_ROW_176_2_Right_1113
*9078 PHY_EDGE_ROW_176_3_Left_962
*9079 PHY_EDGE_ROW_176_3_Right_504
*9080 PHY_EDGE_ROW_177_2_Left_7
*9081 PHY_EDGE_ROW_177_2_Right_1114
*9082 PHY_EDGE_ROW_177_3_Left_963
*9083 PHY_EDGE_ROW_177_3_Right_505
*9084 PHY_EDGE_ROW_178_2_Left_8
*9085 PHY_EDGE_ROW_178_2_Right_1115
*9086 PHY_EDGE_ROW_178_3_Left_964
*9087 PHY_EDGE_ROW_178_3_Right_506
*9088 PHY_EDGE_ROW_179_2_Left_9
*9089 PHY_EDGE_ROW_179_2_Right_1116
*9090 PHY_EDGE_ROW_179_3_Left_965
*9091 PHY_EDGE_ROW_179_3_Right_507
*9092 PHY_EDGE_ROW_17_2_Left_169
*9093 PHY_EDGE_ROW_17_2_Right_813
*9094 PHY_EDGE_ROW_17_3_Left_664
*9095 PHY_EDGE_ROW_17_3_Right_356
*9096 PHY_EDGE_ROW_180_2_Left_10
*9097 PHY_EDGE_ROW_180_2_Right_1117
*9098 PHY_EDGE_ROW_180_3_Left_966
*9099 PHY_EDGE_ROW_180_3_Right_508
*9100 PHY_EDGE_ROW_181_2_Left_11
*9101 PHY_EDGE_ROW_181_2_Right_1118
*9102 PHY_EDGE_ROW_181_3_Left_967
*9103 PHY_EDGE_ROW_181_3_Right_509
*9104 PHY_EDGE_ROW_182_2_Left_12
*9105 PHY_EDGE_ROW_182_2_Right_1119
*9106 PHY_EDGE_ROW_182_3_Left_968
*9107 PHY_EDGE_ROW_182_3_Right_510
*9108 PHY_EDGE_ROW_183_2_Left_13
*9109 PHY_EDGE_ROW_183_2_Right_1120
*9110 PHY_EDGE_ROW_183_3_Left_969
*9111 PHY_EDGE_ROW_183_3_Right_511
*9112 PHY_EDGE_ROW_184_2_Left_14
*9113 PHY_EDGE_ROW_184_2_Right_1121
*9114 PHY_EDGE_ROW_184_3_Left_970
*9115 PHY_EDGE_ROW_184_3_Right_512
*9116 PHY_EDGE_ROW_185_2_Left_15
*9117 PHY_EDGE_ROW_185_2_Right_1122
*9118 PHY_EDGE_ROW_185_3_Left_971
*9119 PHY_EDGE_ROW_185_3_Right_513
*9120 PHY_EDGE_ROW_186_2_Left_16
*9121 PHY_EDGE_ROW_186_2_Right_1123
*9122 PHY_EDGE_ROW_186_3_Left_972
*9123 PHY_EDGE_ROW_186_3_Right_514
*9124 PHY_EDGE_ROW_187_2_Left_17
*9125 PHY_EDGE_ROW_187_2_Right_1124
*9126 PHY_EDGE_ROW_187_3_Left_973
*9127 PHY_EDGE_ROW_187_3_Right_515
*9128 PHY_EDGE_ROW_188_2_Left_18
*9129 PHY_EDGE_ROW_188_2_Right_1125
*9130 PHY_EDGE_ROW_188_3_Left_974
*9131 PHY_EDGE_ROW_188_3_Right_516
*9132 PHY_EDGE_ROW_189_2_Left_19
*9133 PHY_EDGE_ROW_189_2_Right_1126
*9134 PHY_EDGE_ROW_189_3_Left_975
*9135 PHY_EDGE_ROW_189_3_Right_517
*9136 PHY_EDGE_ROW_18_2_Left_170
*9137 PHY_EDGE_ROW_18_2_Right_814
*9138 PHY_EDGE_ROW_18_3_Left_665
*9139 PHY_EDGE_ROW_18_3_Right_357
*9140 PHY_EDGE_ROW_190_2_Left_20
*9141 PHY_EDGE_ROW_190_2_Right_1127
*9142 PHY_EDGE_ROW_190_3_Left_976
*9143 PHY_EDGE_ROW_190_3_Right_518
*9144 PHY_EDGE_ROW_191_2_Left_21
*9145 PHY_EDGE_ROW_191_2_Right_1128
*9146 PHY_EDGE_ROW_191_3_Left_977
*9147 PHY_EDGE_ROW_191_3_Right_519
*9148 PHY_EDGE_ROW_192_2_Left_22
*9149 PHY_EDGE_ROW_192_2_Right_1129
*9150 PHY_EDGE_ROW_192_3_Left_978
*9151 PHY_EDGE_ROW_192_3_Right_520
*9152 PHY_EDGE_ROW_193_2_Left_23
*9153 PHY_EDGE_ROW_193_2_Right_1130
*9154 PHY_EDGE_ROW_193_3_Left_979
*9155 PHY_EDGE_ROW_193_3_Right_521
*9156 PHY_EDGE_ROW_194_2_Left_24
*9157 PHY_EDGE_ROW_194_2_Right_1131
*9158 PHY_EDGE_ROW_194_3_Left_980
*9159 PHY_EDGE_ROW_194_3_Right_522
*9160 PHY_EDGE_ROW_195_2_Left_25
*9161 PHY_EDGE_ROW_195_2_Right_1132
*9162 PHY_EDGE_ROW_195_3_Left_981
*9163 PHY_EDGE_ROW_195_3_Right_523
*9164 PHY_EDGE_ROW_196_2_Left_26
*9165 PHY_EDGE_ROW_196_2_Right_1133
*9166 PHY_EDGE_ROW_196_3_Left_982
*9167 PHY_EDGE_ROW_196_3_Right_524
*9168 PHY_EDGE_ROW_197_2_Left_27
*9169 PHY_EDGE_ROW_197_2_Right_1134
*9170 PHY_EDGE_ROW_197_3_Left_983
*9171 PHY_EDGE_ROW_197_3_Right_525
*9172 PHY_EDGE_ROW_198_2_Left_28
*9173 PHY_EDGE_ROW_198_2_Right_1135
*9174 PHY_EDGE_ROW_198_3_Left_984
*9175 PHY_EDGE_ROW_198_3_Right_526
*9176 PHY_EDGE_ROW_199_2_Left_29
*9177 PHY_EDGE_ROW_199_2_Right_1136
*9178 PHY_EDGE_ROW_199_3_Left_985
*9179 PHY_EDGE_ROW_199_3_Right_527
*9180 PHY_EDGE_ROW_19_2_Left_171
*9181 PHY_EDGE_ROW_19_2_Right_815
*9182 PHY_EDGE_ROW_19_3_Left_666
*9183 PHY_EDGE_ROW_19_3_Right_358
*9184 PHY_EDGE_ROW_1_Left_313
*9185 PHY_EDGE_ROW_1_Right_322
*9186 PHY_EDGE_ROW_200_2_Left_30
*9187 PHY_EDGE_ROW_200_2_Right_1137
*9188 PHY_EDGE_ROW_200_3_Left_986
*9189 PHY_EDGE_ROW_200_3_Right_528
*9190 PHY_EDGE_ROW_201_2_Left_31
*9191 PHY_EDGE_ROW_201_2_Right_1138
*9192 PHY_EDGE_ROW_201_3_Left_987
*9193 PHY_EDGE_ROW_201_3_Right_529
*9194 PHY_EDGE_ROW_202_2_Left_32
*9195 PHY_EDGE_ROW_202_2_Right_1139
*9196 PHY_EDGE_ROW_202_3_Left_988
*9197 PHY_EDGE_ROW_202_3_Right_530
*9198 PHY_EDGE_ROW_203_2_Left_33
*9199 PHY_EDGE_ROW_203_2_Right_1140
*9200 PHY_EDGE_ROW_203_3_Left_989
*9201 PHY_EDGE_ROW_203_3_Right_531
*9202 PHY_EDGE_ROW_204_2_Left_34
*9203 PHY_EDGE_ROW_204_2_Right_1141
*9204 PHY_EDGE_ROW_204_3_Left_990
*9205 PHY_EDGE_ROW_204_3_Right_532
*9206 PHY_EDGE_ROW_205_2_Left_35
*9207 PHY_EDGE_ROW_205_2_Right_1142
*9208 PHY_EDGE_ROW_205_3_Left_991
*9209 PHY_EDGE_ROW_205_3_Right_533
*9210 PHY_EDGE_ROW_206_2_Left_36
*9211 PHY_EDGE_ROW_206_2_Right_1143
*9212 PHY_EDGE_ROW_206_3_Left_992
*9213 PHY_EDGE_ROW_206_3_Right_534
*9214 PHY_EDGE_ROW_207_2_Left_37
*9215 PHY_EDGE_ROW_207_2_Right_1144
*9216 PHY_EDGE_ROW_207_3_Left_993
*9217 PHY_EDGE_ROW_207_3_Right_535
*9218 PHY_EDGE_ROW_208_2_Left_38
*9219 PHY_EDGE_ROW_208_2_Right_1145
*9220 PHY_EDGE_ROW_208_3_Left_994
*9221 PHY_EDGE_ROW_208_3_Right_536
*9222 PHY_EDGE_ROW_209_2_Left_39
*9223 PHY_EDGE_ROW_209_2_Right_1146
*9224 PHY_EDGE_ROW_209_3_Left_995
*9225 PHY_EDGE_ROW_209_3_Right_537
*9226 PHY_EDGE_ROW_20_2_Left_172
*9227 PHY_EDGE_ROW_20_2_Right_816
*9228 PHY_EDGE_ROW_20_3_Left_667
*9229 PHY_EDGE_ROW_20_3_Right_359
*9230 PHY_EDGE_ROW_210_2_Left_40
*9231 PHY_EDGE_ROW_210_2_Right_1147
*9232 PHY_EDGE_ROW_210_3_Left_996
*9233 PHY_EDGE_ROW_210_3_Right_538
*9234 PHY_EDGE_ROW_211_2_Left_41
*9235 PHY_EDGE_ROW_211_2_Right_1148
*9236 PHY_EDGE_ROW_211_3_Left_997
*9237 PHY_EDGE_ROW_211_3_Right_539
*9238 PHY_EDGE_ROW_212_2_Left_42
*9239 PHY_EDGE_ROW_212_2_Right_1149
*9240 PHY_EDGE_ROW_212_3_Left_998
*9241 PHY_EDGE_ROW_212_3_Right_540
*9242 PHY_EDGE_ROW_213_2_Left_43
*9243 PHY_EDGE_ROW_213_2_Right_1150
*9244 PHY_EDGE_ROW_213_3_Left_999
*9245 PHY_EDGE_ROW_213_3_Right_541
*9246 PHY_EDGE_ROW_214_2_Left_44
*9247 PHY_EDGE_ROW_214_2_Right_1151
*9248 PHY_EDGE_ROW_214_3_Left_1000
*9249 PHY_EDGE_ROW_214_3_Right_542
*9250 PHY_EDGE_ROW_215_2_Left_45
*9251 PHY_EDGE_ROW_215_2_Right_1152
*9252 PHY_EDGE_ROW_215_3_Left_1001
*9253 PHY_EDGE_ROW_215_3_Right_543
*9254 PHY_EDGE_ROW_216_2_Left_46
*9255 PHY_EDGE_ROW_216_2_Right_1153
*9256 PHY_EDGE_ROW_216_3_Left_1002
*9257 PHY_EDGE_ROW_216_3_Right_544
*9258 PHY_EDGE_ROW_217_2_Left_47
*9259 PHY_EDGE_ROW_217_2_Right_1154
*9260 PHY_EDGE_ROW_217_3_Left_1003
*9261 PHY_EDGE_ROW_217_3_Right_545
*9262 PHY_EDGE_ROW_218_2_Left_48
*9263 PHY_EDGE_ROW_218_2_Right_1155
*9264 PHY_EDGE_ROW_218_3_Left_1004
*9265 PHY_EDGE_ROW_218_3_Right_546
*9266 PHY_EDGE_ROW_219_2_Left_49
*9267 PHY_EDGE_ROW_219_2_Right_1156
*9268 PHY_EDGE_ROW_219_3_Left_1005
*9269 PHY_EDGE_ROW_219_3_Right_547
*9270 PHY_EDGE_ROW_21_2_Left_173
*9271 PHY_EDGE_ROW_21_2_Right_817
*9272 PHY_EDGE_ROW_21_3_Left_668
*9273 PHY_EDGE_ROW_21_3_Right_360
*9274 PHY_EDGE_ROW_220_2_Left_50
*9275 PHY_EDGE_ROW_220_2_Right_1157
*9276 PHY_EDGE_ROW_220_3_Left_1006
*9277 PHY_EDGE_ROW_220_3_Right_548
*9278 PHY_EDGE_ROW_221_2_Left_51
*9279 PHY_EDGE_ROW_221_2_Right_1158
*9280 PHY_EDGE_ROW_221_3_Left_1007
*9281 PHY_EDGE_ROW_221_3_Right_549
*9282 PHY_EDGE_ROW_222_2_Left_52
*9283 PHY_EDGE_ROW_222_2_Right_1159
*9284 PHY_EDGE_ROW_222_3_Left_1008
*9285 PHY_EDGE_ROW_222_3_Right_550
*9286 PHY_EDGE_ROW_223_2_Left_53
*9287 PHY_EDGE_ROW_223_2_Right_1160
*9288 PHY_EDGE_ROW_223_3_Left_1009
*9289 PHY_EDGE_ROW_223_3_Right_551
*9290 PHY_EDGE_ROW_224_2_Left_54
*9291 PHY_EDGE_ROW_224_2_Right_1161
*9292 PHY_EDGE_ROW_224_3_Left_1010
*9293 PHY_EDGE_ROW_224_3_Right_552
*9294 PHY_EDGE_ROW_225_2_Left_55
*9295 PHY_EDGE_ROW_225_2_Right_1162
*9296 PHY_EDGE_ROW_225_3_Left_1011
*9297 PHY_EDGE_ROW_225_3_Right_553
*9298 PHY_EDGE_ROW_226_2_Left_56
*9299 PHY_EDGE_ROW_226_2_Right_1163
*9300 PHY_EDGE_ROW_226_3_Left_1012
*9301 PHY_EDGE_ROW_226_3_Right_554
*9302 PHY_EDGE_ROW_227_2_Left_57
*9303 PHY_EDGE_ROW_227_2_Right_1164
*9304 PHY_EDGE_ROW_227_3_Left_1013
*9305 PHY_EDGE_ROW_227_3_Right_555
*9306 PHY_EDGE_ROW_228_2_Left_58
*9307 PHY_EDGE_ROW_228_2_Right_1165
*9308 PHY_EDGE_ROW_228_3_Left_1014
*9309 PHY_EDGE_ROW_228_3_Right_556
*9310 PHY_EDGE_ROW_229_2_Left_59
*9311 PHY_EDGE_ROW_229_2_Right_1166
*9312 PHY_EDGE_ROW_229_3_Left_1015
*9313 PHY_EDGE_ROW_229_3_Right_557
*9314 PHY_EDGE_ROW_22_2_Left_174
*9315 PHY_EDGE_ROW_22_2_Right_818
*9316 PHY_EDGE_ROW_22_3_Left_669
*9317 PHY_EDGE_ROW_22_3_Right_361
*9318 PHY_EDGE_ROW_230_2_Left_60
*9319 PHY_EDGE_ROW_230_2_Right_1167
*9320 PHY_EDGE_ROW_230_3_Left_1016
*9321 PHY_EDGE_ROW_230_3_Right_558
*9322 PHY_EDGE_ROW_231_2_Left_61
*9323 PHY_EDGE_ROW_231_2_Right_1168
*9324 PHY_EDGE_ROW_231_3_Left_1017
*9325 PHY_EDGE_ROW_231_3_Right_559
*9326 PHY_EDGE_ROW_232_2_Left_62
*9327 PHY_EDGE_ROW_232_2_Right_1169
*9328 PHY_EDGE_ROW_232_3_Left_1018
*9329 PHY_EDGE_ROW_232_3_Right_560
*9330 PHY_EDGE_ROW_233_2_Left_63
*9331 PHY_EDGE_ROW_233_2_Right_1170
*9332 PHY_EDGE_ROW_233_3_Left_1019
*9333 PHY_EDGE_ROW_233_3_Right_561
*9334 PHY_EDGE_ROW_234_2_Left_64
*9335 PHY_EDGE_ROW_234_2_Right_1171
*9336 PHY_EDGE_ROW_234_3_Left_1020
*9337 PHY_EDGE_ROW_234_3_Right_562
*9338 PHY_EDGE_ROW_235_2_Left_65
*9339 PHY_EDGE_ROW_235_2_Right_1172
*9340 PHY_EDGE_ROW_235_3_Left_1021
*9341 PHY_EDGE_ROW_235_3_Right_563
*9342 PHY_EDGE_ROW_236_2_Left_66
*9343 PHY_EDGE_ROW_236_2_Right_1173
*9344 PHY_EDGE_ROW_236_3_Left_1022
*9345 PHY_EDGE_ROW_236_3_Right_564
*9346 PHY_EDGE_ROW_237_2_Left_67
*9347 PHY_EDGE_ROW_237_2_Right_1174
*9348 PHY_EDGE_ROW_237_3_Left_1023
*9349 PHY_EDGE_ROW_237_3_Right_565
*9350 PHY_EDGE_ROW_238_2_Left_68
*9351 PHY_EDGE_ROW_238_2_Right_1175
*9352 PHY_EDGE_ROW_238_3_Left_1024
*9353 PHY_EDGE_ROW_238_3_Right_566
*9354 PHY_EDGE_ROW_239_2_Left_69
*9355 PHY_EDGE_ROW_239_2_Right_1176
*9356 PHY_EDGE_ROW_239_3_Left_1025
*9357 PHY_EDGE_ROW_239_3_Right_567
*9358 PHY_EDGE_ROW_23_2_Left_175
*9359 PHY_EDGE_ROW_23_2_Right_819
*9360 PHY_EDGE_ROW_23_3_Left_670
*9361 PHY_EDGE_ROW_23_3_Right_362
*9362 PHY_EDGE_ROW_240_2_Left_70
*9363 PHY_EDGE_ROW_240_2_Right_1177
*9364 PHY_EDGE_ROW_240_3_Left_1026
*9365 PHY_EDGE_ROW_240_3_Right_568
*9366 PHY_EDGE_ROW_241_2_Left_71
*9367 PHY_EDGE_ROW_241_2_Right_1178
*9368 PHY_EDGE_ROW_241_3_Left_1027
*9369 PHY_EDGE_ROW_241_3_Right_569
*9370 PHY_EDGE_ROW_242_2_Left_72
*9371 PHY_EDGE_ROW_242_2_Right_1179
*9372 PHY_EDGE_ROW_242_3_Left_1028
*9373 PHY_EDGE_ROW_242_3_Right_570
*9374 PHY_EDGE_ROW_243_2_Left_73
*9375 PHY_EDGE_ROW_243_2_Right_1180
*9376 PHY_EDGE_ROW_243_3_Left_1029
*9377 PHY_EDGE_ROW_243_3_Right_571
*9378 PHY_EDGE_ROW_244_2_Left_74
*9379 PHY_EDGE_ROW_244_2_Right_1181
*9380 PHY_EDGE_ROW_244_3_Left_1030
*9381 PHY_EDGE_ROW_244_3_Right_572
*9382 PHY_EDGE_ROW_245_2_Left_75
*9383 PHY_EDGE_ROW_245_2_Right_1182
*9384 PHY_EDGE_ROW_245_3_Left_1031
*9385 PHY_EDGE_ROW_245_3_Right_573
*9386 PHY_EDGE_ROW_246_2_Left_76
*9387 PHY_EDGE_ROW_246_2_Right_1183
*9388 PHY_EDGE_ROW_246_3_Left_1032
*9389 PHY_EDGE_ROW_246_3_Right_574
*9390 PHY_EDGE_ROW_247_2_Left_77
*9391 PHY_EDGE_ROW_247_2_Right_1184
*9392 PHY_EDGE_ROW_247_3_Left_1033
*9393 PHY_EDGE_ROW_247_3_Right_575
*9394 PHY_EDGE_ROW_248_2_Left_78
*9395 PHY_EDGE_ROW_248_2_Right_1185
*9396 PHY_EDGE_ROW_248_3_Left_1034
*9397 PHY_EDGE_ROW_248_3_Right_576
*9398 PHY_EDGE_ROW_249_2_Left_79
*9399 PHY_EDGE_ROW_249_2_Right_1186
*9400 PHY_EDGE_ROW_249_3_Left_1035
*9401 PHY_EDGE_ROW_249_3_Right_577
*9402 PHY_EDGE_ROW_24_2_Left_176
*9403 PHY_EDGE_ROW_24_2_Right_820
*9404 PHY_EDGE_ROW_24_3_Left_671
*9405 PHY_EDGE_ROW_24_3_Right_363
*9406 PHY_EDGE_ROW_250_2_Left_80
*9407 PHY_EDGE_ROW_250_2_Right_1187
*9408 PHY_EDGE_ROW_250_3_Left_1036
*9409 PHY_EDGE_ROW_250_3_Right_578
*9410 PHY_EDGE_ROW_251_2_Left_81
*9411 PHY_EDGE_ROW_251_2_Right_1188
*9412 PHY_EDGE_ROW_251_3_Left_1037
*9413 PHY_EDGE_ROW_251_3_Right_579
*9414 PHY_EDGE_ROW_252_2_Left_82
*9415 PHY_EDGE_ROW_252_2_Right_1189
*9416 PHY_EDGE_ROW_252_3_Left_1038
*9417 PHY_EDGE_ROW_252_3_Right_580
*9418 PHY_EDGE_ROW_253_2_Left_83
*9419 PHY_EDGE_ROW_253_2_Right_1190
*9420 PHY_EDGE_ROW_253_3_Left_1039
*9421 PHY_EDGE_ROW_253_3_Right_581
*9422 PHY_EDGE_ROW_254_2_Left_84
*9423 PHY_EDGE_ROW_254_2_Right_1191
*9424 PHY_EDGE_ROW_254_3_Left_1040
*9425 PHY_EDGE_ROW_254_3_Right_582
*9426 PHY_EDGE_ROW_255_2_Left_85
*9427 PHY_EDGE_ROW_255_2_Right_1192
*9428 PHY_EDGE_ROW_255_3_Left_1041
*9429 PHY_EDGE_ROW_255_3_Right_583
*9430 PHY_EDGE_ROW_256_2_Left_86
*9431 PHY_EDGE_ROW_256_2_Right_1193
*9432 PHY_EDGE_ROW_256_3_Left_1042
*9433 PHY_EDGE_ROW_256_3_Right_584
*9434 PHY_EDGE_ROW_257_2_Left_87
*9435 PHY_EDGE_ROW_257_2_Right_1194
*9436 PHY_EDGE_ROW_257_3_Left_1043
*9437 PHY_EDGE_ROW_257_3_Right_585
*9438 PHY_EDGE_ROW_258_2_Left_88
*9439 PHY_EDGE_ROW_258_2_Right_1195
*9440 PHY_EDGE_ROW_258_3_Left_1044
*9441 PHY_EDGE_ROW_258_3_Right_586
*9442 PHY_EDGE_ROW_259_2_Left_89
*9443 PHY_EDGE_ROW_259_2_Right_1196
*9444 PHY_EDGE_ROW_259_3_Left_1045
*9445 PHY_EDGE_ROW_259_3_Right_587
*9446 PHY_EDGE_ROW_25_2_Left_177
*9447 PHY_EDGE_ROW_25_2_Right_821
*9448 PHY_EDGE_ROW_25_3_Left_672
*9449 PHY_EDGE_ROW_25_3_Right_364
*9450 PHY_EDGE_ROW_260_2_Left_90
*9451 PHY_EDGE_ROW_260_2_Right_1197
*9452 PHY_EDGE_ROW_260_3_Left_1046
*9453 PHY_EDGE_ROW_260_3_Right_588
*9454 PHY_EDGE_ROW_261_2_Left_91
*9455 PHY_EDGE_ROW_261_2_Right_1198
*9456 PHY_EDGE_ROW_261_3_Left_1047
*9457 PHY_EDGE_ROW_261_3_Right_589
*9458 PHY_EDGE_ROW_262_2_Left_92
*9459 PHY_EDGE_ROW_262_2_Right_1199
*9460 PHY_EDGE_ROW_262_3_Left_1048
*9461 PHY_EDGE_ROW_262_3_Right_590
*9462 PHY_EDGE_ROW_263_2_Left_93
*9463 PHY_EDGE_ROW_263_2_Right_1200
*9464 PHY_EDGE_ROW_263_3_Left_1049
*9465 PHY_EDGE_ROW_263_3_Right_591
*9466 PHY_EDGE_ROW_264_2_Left_94
*9467 PHY_EDGE_ROW_264_2_Right_1201
*9468 PHY_EDGE_ROW_264_3_Left_1050
*9469 PHY_EDGE_ROW_264_3_Right_592
*9470 PHY_EDGE_ROW_265_2_Left_95
*9471 PHY_EDGE_ROW_265_2_Right_1202
*9472 PHY_EDGE_ROW_265_3_Left_1051
*9473 PHY_EDGE_ROW_265_3_Right_593
*9474 PHY_EDGE_ROW_266_2_Left_96
*9475 PHY_EDGE_ROW_266_2_Right_1203
*9476 PHY_EDGE_ROW_266_3_Left_1052
*9477 PHY_EDGE_ROW_266_3_Right_594
*9478 PHY_EDGE_ROW_267_2_Left_97
*9479 PHY_EDGE_ROW_267_2_Right_1204
*9480 PHY_EDGE_ROW_267_3_Left_1053
*9481 PHY_EDGE_ROW_267_3_Right_595
*9482 PHY_EDGE_ROW_268_2_Left_98
*9483 PHY_EDGE_ROW_268_2_Right_1205
*9484 PHY_EDGE_ROW_268_3_Left_1054
*9485 PHY_EDGE_ROW_268_3_Right_596
*9486 PHY_EDGE_ROW_269_2_Left_99
*9487 PHY_EDGE_ROW_269_2_Right_1206
*9488 PHY_EDGE_ROW_269_3_Left_1055
*9489 PHY_EDGE_ROW_269_3_Right_597
*9490 PHY_EDGE_ROW_26_2_Left_178
*9491 PHY_EDGE_ROW_26_2_Right_822
*9492 PHY_EDGE_ROW_26_3_Left_673
*9493 PHY_EDGE_ROW_26_3_Right_365
*9494 PHY_EDGE_ROW_270_2_Left_100
*9495 PHY_EDGE_ROW_270_2_Right_1207
*9496 PHY_EDGE_ROW_270_3_Left_1056
*9497 PHY_EDGE_ROW_270_3_Right_598
*9498 PHY_EDGE_ROW_271_2_Left_101
*9499 PHY_EDGE_ROW_271_2_Right_1208
*9500 PHY_EDGE_ROW_271_3_Left_1057
*9501 PHY_EDGE_ROW_271_3_Right_599
*9502 PHY_EDGE_ROW_272_2_Left_102
*9503 PHY_EDGE_ROW_272_2_Right_1209
*9504 PHY_EDGE_ROW_272_3_Left_1058
*9505 PHY_EDGE_ROW_272_3_Right_600
*9506 PHY_EDGE_ROW_273_2_Left_103
*9507 PHY_EDGE_ROW_273_2_Right_1210
*9508 PHY_EDGE_ROW_273_3_Left_1059
*9509 PHY_EDGE_ROW_273_3_Right_601
*9510 PHY_EDGE_ROW_274_2_Left_104
*9511 PHY_EDGE_ROW_274_2_Right_1211
*9512 PHY_EDGE_ROW_274_3_Left_1060
*9513 PHY_EDGE_ROW_274_3_Right_602
*9514 PHY_EDGE_ROW_275_2_Left_105
*9515 PHY_EDGE_ROW_275_2_Right_1212
*9516 PHY_EDGE_ROW_275_3_Left_1061
*9517 PHY_EDGE_ROW_275_3_Right_603
*9518 PHY_EDGE_ROW_276_2_Left_106
*9519 PHY_EDGE_ROW_276_2_Right_1213
*9520 PHY_EDGE_ROW_276_3_Left_1062
*9521 PHY_EDGE_ROW_276_3_Right_604
*9522 PHY_EDGE_ROW_277_2_Left_107
*9523 PHY_EDGE_ROW_277_2_Right_1214
*9524 PHY_EDGE_ROW_277_3_Left_1063
*9525 PHY_EDGE_ROW_277_3_Right_605
*9526 PHY_EDGE_ROW_278_2_Left_108
*9527 PHY_EDGE_ROW_278_2_Right_1215
*9528 PHY_EDGE_ROW_278_3_Left_1064
*9529 PHY_EDGE_ROW_278_3_Right_606
*9530 PHY_EDGE_ROW_279_2_Left_109
*9531 PHY_EDGE_ROW_279_2_Right_1216
*9532 PHY_EDGE_ROW_279_3_Left_1065
*9533 PHY_EDGE_ROW_279_3_Right_607
*9534 PHY_EDGE_ROW_27_2_Left_179
*9535 PHY_EDGE_ROW_27_2_Right_823
*9536 PHY_EDGE_ROW_27_3_Left_674
*9537 PHY_EDGE_ROW_27_3_Right_366
*9538 PHY_EDGE_ROW_280_2_Left_110
*9539 PHY_EDGE_ROW_280_2_Right_1217
*9540 PHY_EDGE_ROW_280_3_Left_1066
*9541 PHY_EDGE_ROW_280_3_Right_608
*9542 PHY_EDGE_ROW_281_2_Left_111
*9543 PHY_EDGE_ROW_281_2_Right_1218
*9544 PHY_EDGE_ROW_281_3_Left_1067
*9545 PHY_EDGE_ROW_281_3_Right_609
*9546 PHY_EDGE_ROW_282_2_Left_112
*9547 PHY_EDGE_ROW_282_2_Right_1219
*9548 PHY_EDGE_ROW_282_3_Left_1068
*9549 PHY_EDGE_ROW_282_3_Right_610
*9550 PHY_EDGE_ROW_283_2_Left_113
*9551 PHY_EDGE_ROW_283_2_Right_1220
*9552 PHY_EDGE_ROW_283_3_Left_1069
*9553 PHY_EDGE_ROW_283_3_Right_611
*9554 PHY_EDGE_ROW_284_2_Left_114
*9555 PHY_EDGE_ROW_284_2_Right_1221
*9556 PHY_EDGE_ROW_284_3_Left_1070
*9557 PHY_EDGE_ROW_284_3_Right_612
*9558 PHY_EDGE_ROW_285_2_Left_115
*9559 PHY_EDGE_ROW_285_2_Right_1222
*9560 PHY_EDGE_ROW_285_3_Left_1071
*9561 PHY_EDGE_ROW_285_3_Right_613
*9562 PHY_EDGE_ROW_286_2_Left_116
*9563 PHY_EDGE_ROW_286_2_Right_1223
*9564 PHY_EDGE_ROW_286_3_Left_1072
*9565 PHY_EDGE_ROW_286_3_Right_614
*9566 PHY_EDGE_ROW_287_2_Left_117
*9567 PHY_EDGE_ROW_287_2_Right_1224
*9568 PHY_EDGE_ROW_287_3_Left_1073
*9569 PHY_EDGE_ROW_287_3_Right_615
*9570 PHY_EDGE_ROW_288_2_Left_118
*9571 PHY_EDGE_ROW_288_2_Right_1225
*9572 PHY_EDGE_ROW_288_3_Left_1074
*9573 PHY_EDGE_ROW_288_3_Right_616
*9574 PHY_EDGE_ROW_289_2_Left_119
*9575 PHY_EDGE_ROW_289_2_Right_1226
*9576 PHY_EDGE_ROW_289_3_Left_1075
*9577 PHY_EDGE_ROW_289_3_Right_617
*9578 PHY_EDGE_ROW_28_2_Left_180
*9579 PHY_EDGE_ROW_28_2_Right_824
*9580 PHY_EDGE_ROW_28_3_Left_675
*9581 PHY_EDGE_ROW_28_3_Right_367
*9582 PHY_EDGE_ROW_290_2_Left_120
*9583 PHY_EDGE_ROW_290_2_Right_1227
*9584 PHY_EDGE_ROW_290_3_Left_1076
*9585 PHY_EDGE_ROW_290_3_Right_618
*9586 PHY_EDGE_ROW_291_2_Left_121
*9587 PHY_EDGE_ROW_291_2_Right_1228
*9588 PHY_EDGE_ROW_291_3_Left_1077
*9589 PHY_EDGE_ROW_291_3_Right_619
*9590 PHY_EDGE_ROW_292_2_Left_122
*9591 PHY_EDGE_ROW_292_2_Right_1229
*9592 PHY_EDGE_ROW_292_3_Left_1078
*9593 PHY_EDGE_ROW_292_3_Right_620
*9594 PHY_EDGE_ROW_293_2_Left_123
*9595 PHY_EDGE_ROW_293_2_Right_1230
*9596 PHY_EDGE_ROW_293_3_Left_1079
*9597 PHY_EDGE_ROW_293_3_Right_621
*9598 PHY_EDGE_ROW_294_2_Left_124
*9599 PHY_EDGE_ROW_294_2_Right_1231
*9600 PHY_EDGE_ROW_294_3_Left_1080
*9601 PHY_EDGE_ROW_294_3_Right_622
*9602 PHY_EDGE_ROW_295_2_Left_125
*9603 PHY_EDGE_ROW_295_2_Right_1232
*9604 PHY_EDGE_ROW_295_3_Left_1081
*9605 PHY_EDGE_ROW_295_3_Right_623
*9606 PHY_EDGE_ROW_296_2_Left_126
*9607 PHY_EDGE_ROW_296_2_Right_1233
*9608 PHY_EDGE_ROW_296_3_Left_1082
*9609 PHY_EDGE_ROW_296_3_Right_624
*9610 PHY_EDGE_ROW_297_2_Left_127
*9611 PHY_EDGE_ROW_297_2_Right_1234
*9612 PHY_EDGE_ROW_297_3_Left_1083
*9613 PHY_EDGE_ROW_297_3_Right_625
*9614 PHY_EDGE_ROW_298_2_Left_128
*9615 PHY_EDGE_ROW_298_2_Right_1235
*9616 PHY_EDGE_ROW_298_3_Left_1084
*9617 PHY_EDGE_ROW_298_3_Right_626
*9618 PHY_EDGE_ROW_299_2_Left_129
*9619 PHY_EDGE_ROW_299_2_Right_1236
*9620 PHY_EDGE_ROW_299_3_Left_1085
*9621 PHY_EDGE_ROW_299_3_Right_627
*9622 PHY_EDGE_ROW_29_2_Left_181
*9623 PHY_EDGE_ROW_29_2_Right_825
*9624 PHY_EDGE_ROW_29_3_Left_676
*9625 PHY_EDGE_ROW_29_3_Right_368
*9626 PHY_EDGE_ROW_2_Left_314
*9627 PHY_EDGE_ROW_2_Right_323
*9628 PHY_EDGE_ROW_300_2_Left_130
*9629 PHY_EDGE_ROW_300_2_Right_1237
*9630 PHY_EDGE_ROW_300_3_Left_1086
*9631 PHY_EDGE_ROW_300_3_Right_628
*9632 PHY_EDGE_ROW_301_2_Left_131
*9633 PHY_EDGE_ROW_301_2_Right_1238
*9634 PHY_EDGE_ROW_301_3_Left_1087
*9635 PHY_EDGE_ROW_301_3_Right_629
*9636 PHY_EDGE_ROW_302_2_Left_132
*9637 PHY_EDGE_ROW_302_2_Right_1239
*9638 PHY_EDGE_ROW_302_3_Left_1088
*9639 PHY_EDGE_ROW_302_3_Right_630
*9640 PHY_EDGE_ROW_303_2_Left_133
*9641 PHY_EDGE_ROW_303_2_Right_1240
*9642 PHY_EDGE_ROW_303_3_Left_1089
*9643 PHY_EDGE_ROW_303_3_Right_631
*9644 PHY_EDGE_ROW_304_2_Left_134
*9645 PHY_EDGE_ROW_304_2_Right_1241
*9646 PHY_EDGE_ROW_304_3_Left_1090
*9647 PHY_EDGE_ROW_304_3_Right_632
*9648 PHY_EDGE_ROW_305_2_Left_135
*9649 PHY_EDGE_ROW_305_2_Right_1242
*9650 PHY_EDGE_ROW_305_3_Left_1091
*9651 PHY_EDGE_ROW_305_3_Right_633
*9652 PHY_EDGE_ROW_306_2_Left_136
*9653 PHY_EDGE_ROW_306_2_Right_1243
*9654 PHY_EDGE_ROW_306_3_Left_1092
*9655 PHY_EDGE_ROW_306_3_Right_634
*9656 PHY_EDGE_ROW_307_2_Left_137
*9657 PHY_EDGE_ROW_307_2_Right_1244
*9658 PHY_EDGE_ROW_307_3_Left_1093
*9659 PHY_EDGE_ROW_307_3_Right_635
*9660 PHY_EDGE_ROW_308_2_Left_138
*9661 PHY_EDGE_ROW_308_2_Right_1245
*9662 PHY_EDGE_ROW_308_3_Left_1094
*9663 PHY_EDGE_ROW_308_3_Right_636
*9664 PHY_EDGE_ROW_309_2_Left_139
*9665 PHY_EDGE_ROW_309_2_Right_1246
*9666 PHY_EDGE_ROW_309_3_Left_1095
*9667 PHY_EDGE_ROW_309_3_Right_637
*9668 PHY_EDGE_ROW_30_2_Left_182
*9669 PHY_EDGE_ROW_30_2_Right_826
*9670 PHY_EDGE_ROW_30_3_Left_677
*9671 PHY_EDGE_ROW_30_3_Right_369
*9672 PHY_EDGE_ROW_310_2_Left_140
*9673 PHY_EDGE_ROW_310_2_Right_1247
*9674 PHY_EDGE_ROW_310_3_Left_1096
*9675 PHY_EDGE_ROW_310_3_Right_638
*9676 PHY_EDGE_ROW_311_2_Left_141
*9677 PHY_EDGE_ROW_311_2_Right_1248
*9678 PHY_EDGE_ROW_311_3_Left_1097
*9679 PHY_EDGE_ROW_311_3_Right_639
*9680 PHY_EDGE_ROW_312_2_Left_142
*9681 PHY_EDGE_ROW_312_2_Right_1249
*9682 PHY_EDGE_ROW_312_3_Left_1098
*9683 PHY_EDGE_ROW_312_3_Right_640
*9684 PHY_EDGE_ROW_313_2_Left_143
*9685 PHY_EDGE_ROW_313_2_Right_1250
*9686 PHY_EDGE_ROW_313_3_Left_1099
*9687 PHY_EDGE_ROW_313_3_Right_641
*9688 PHY_EDGE_ROW_314_2_Left_144
*9689 PHY_EDGE_ROW_314_2_Right_1251
*9690 PHY_EDGE_ROW_314_3_Left_1100
*9691 PHY_EDGE_ROW_314_3_Right_642
*9692 PHY_EDGE_ROW_315_2_Left_145
*9693 PHY_EDGE_ROW_315_2_Right_1252
*9694 PHY_EDGE_ROW_315_3_Left_1101
*9695 PHY_EDGE_ROW_315_3_Right_643
*9696 PHY_EDGE_ROW_316_2_Left_146
*9697 PHY_EDGE_ROW_316_2_Right_1253
*9698 PHY_EDGE_ROW_316_3_Left_1102
*9699 PHY_EDGE_ROW_316_3_Right_644
*9700 PHY_EDGE_ROW_317_2_Left_147
*9701 PHY_EDGE_ROW_317_2_Right_1254
*9702 PHY_EDGE_ROW_317_3_Left_1103
*9703 PHY_EDGE_ROW_317_3_Right_645
*9704 PHY_EDGE_ROW_318_2_Left_148
*9705 PHY_EDGE_ROW_318_2_Right_1255
*9706 PHY_EDGE_ROW_318_3_Left_1104
*9707 PHY_EDGE_ROW_318_3_Right_646
*9708 PHY_EDGE_ROW_319_2_Left_149
*9709 PHY_EDGE_ROW_319_2_Right_1256
*9710 PHY_EDGE_ROW_319_3_Left_1105
*9711 PHY_EDGE_ROW_319_3_Right_647
*9712 PHY_EDGE_ROW_31_2_Left_183
*9713 PHY_EDGE_ROW_31_2_Right_827
*9714 PHY_EDGE_ROW_31_3_Left_678
*9715 PHY_EDGE_ROW_31_3_Right_370
*9716 PHY_EDGE_ROW_320_2_Left_150
*9717 PHY_EDGE_ROW_320_2_Right_1257
*9718 PHY_EDGE_ROW_320_3_Left_1106
*9719 PHY_EDGE_ROW_320_3_Right_648
*9720 PHY_EDGE_ROW_321_Left_649
*9721 PHY_EDGE_ROW_321_Right_341
*9722 PHY_EDGE_ROW_322_Left_650
*9723 PHY_EDGE_ROW_322_Right_342
*9724 PHY_EDGE_ROW_323_Left_651
*9725 PHY_EDGE_ROW_323_Right_343
*9726 PHY_EDGE_ROW_324_Left_652
*9727 PHY_EDGE_ROW_324_Right_344
*9728 PHY_EDGE_ROW_325_Left_653
*9729 PHY_EDGE_ROW_325_Right_345
*9730 PHY_EDGE_ROW_326_Left_654
*9731 PHY_EDGE_ROW_326_Right_346
*9732 PHY_EDGE_ROW_327_Left_655
*9733 PHY_EDGE_ROW_327_Right_347
*9734 PHY_EDGE_ROW_32_2_Left_184
*9735 PHY_EDGE_ROW_32_2_Right_828
*9736 PHY_EDGE_ROW_32_3_Left_679
*9737 PHY_EDGE_ROW_32_3_Right_371
*9738 PHY_EDGE_ROW_33_2_Left_185
*9739 PHY_EDGE_ROW_33_2_Right_829
*9740 PHY_EDGE_ROW_33_3_Left_680
*9741 PHY_EDGE_ROW_33_3_Right_372
*9742 PHY_EDGE_ROW_34_2_Left_186
*9743 PHY_EDGE_ROW_34_2_Right_830
*9744 PHY_EDGE_ROW_34_3_Left_681
*9745 PHY_EDGE_ROW_34_3_Right_373
*9746 PHY_EDGE_ROW_35_2_Left_187
*9747 PHY_EDGE_ROW_35_2_Right_831
*9748 PHY_EDGE_ROW_35_3_Left_682
*9749 PHY_EDGE_ROW_35_3_Right_374
*9750 PHY_EDGE_ROW_36_2_Left_188
*9751 PHY_EDGE_ROW_36_2_Right_832
*9752 PHY_EDGE_ROW_36_3_Left_683
*9753 PHY_EDGE_ROW_36_3_Right_375
*9754 PHY_EDGE_ROW_37_2_Left_189
*9755 PHY_EDGE_ROW_37_2_Right_833
*9756 PHY_EDGE_ROW_37_3_Left_684
*9757 PHY_EDGE_ROW_37_3_Right_376
*9758 PHY_EDGE_ROW_38_2_Left_190
*9759 PHY_EDGE_ROW_38_2_Right_834
*9760 PHY_EDGE_ROW_38_3_Left_685
*9761 PHY_EDGE_ROW_38_3_Right_377
*9762 PHY_EDGE_ROW_39_2_Left_191
*9763 PHY_EDGE_ROW_39_2_Right_835
*9764 PHY_EDGE_ROW_39_3_Left_686
*9765 PHY_EDGE_ROW_39_3_Right_378
*9766 PHY_EDGE_ROW_3_Left_315
*9767 PHY_EDGE_ROW_3_Right_324
*9768 PHY_EDGE_ROW_40_2_Left_192
*9769 PHY_EDGE_ROW_40_2_Right_836
*9770 PHY_EDGE_ROW_40_3_Left_687
*9771 PHY_EDGE_ROW_40_3_Right_379
*9772 PHY_EDGE_ROW_41_2_Left_193
*9773 PHY_EDGE_ROW_41_2_Right_837
*9774 PHY_EDGE_ROW_41_3_Left_688
*9775 PHY_EDGE_ROW_41_3_Right_380
*9776 PHY_EDGE_ROW_42_2_Left_194
*9777 PHY_EDGE_ROW_42_2_Right_838
*9778 PHY_EDGE_ROW_42_3_Left_689
*9779 PHY_EDGE_ROW_42_3_Right_381
*9780 PHY_EDGE_ROW_43_2_Left_195
*9781 PHY_EDGE_ROW_43_2_Right_839
*9782 PHY_EDGE_ROW_43_3_Left_690
*9783 PHY_EDGE_ROW_43_3_Right_382
*9784 PHY_EDGE_ROW_44_2_Left_196
*9785 PHY_EDGE_ROW_44_2_Right_840
*9786 PHY_EDGE_ROW_44_3_Left_691
*9787 PHY_EDGE_ROW_44_3_Right_383
*9788 PHY_EDGE_ROW_45_2_Left_197
*9789 PHY_EDGE_ROW_45_2_Right_841
*9790 PHY_EDGE_ROW_45_3_Left_692
*9791 PHY_EDGE_ROW_45_3_Right_384
*9792 PHY_EDGE_ROW_46_2_Left_198
*9793 PHY_EDGE_ROW_46_2_Right_842
*9794 PHY_EDGE_ROW_46_3_Left_693
*9795 PHY_EDGE_ROW_46_3_Right_385
*9796 PHY_EDGE_ROW_47_2_Left_199
*9797 PHY_EDGE_ROW_47_2_Right_843
*9798 PHY_EDGE_ROW_47_3_Left_694
*9799 PHY_EDGE_ROW_47_3_Right_386
*9800 PHY_EDGE_ROW_48_2_Left_200
*9801 PHY_EDGE_ROW_48_2_Right_844
*9802 PHY_EDGE_ROW_48_3_Left_695
*9803 PHY_EDGE_ROW_48_3_Right_387
*9804 PHY_EDGE_ROW_49_2_Left_201
*9805 PHY_EDGE_ROW_49_2_Right_845
*9806 PHY_EDGE_ROW_49_3_Left_696
*9807 PHY_EDGE_ROW_49_3_Right_388
*9808 PHY_EDGE_ROW_4_Left_316
*9809 PHY_EDGE_ROW_4_Right_325
*9810 PHY_EDGE_ROW_50_2_Left_202
*9811 PHY_EDGE_ROW_50_2_Right_846
*9812 PHY_EDGE_ROW_50_3_Left_697
*9813 PHY_EDGE_ROW_50_3_Right_389
*9814 PHY_EDGE_ROW_51_2_Left_203
*9815 PHY_EDGE_ROW_51_2_Right_847
*9816 PHY_EDGE_ROW_51_3_Left_698
*9817 PHY_EDGE_ROW_51_3_Right_390
*9818 PHY_EDGE_ROW_52_2_Left_204
*9819 PHY_EDGE_ROW_52_2_Right_848
*9820 PHY_EDGE_ROW_52_3_Left_699
*9821 PHY_EDGE_ROW_52_3_Right_391
*9822 PHY_EDGE_ROW_53_2_Left_205
*9823 PHY_EDGE_ROW_53_2_Right_849
*9824 PHY_EDGE_ROW_53_3_Left_700
*9825 PHY_EDGE_ROW_53_3_Right_392
*9826 PHY_EDGE_ROW_54_2_Left_206
*9827 PHY_EDGE_ROW_54_2_Right_850
*9828 PHY_EDGE_ROW_54_3_Left_701
*9829 PHY_EDGE_ROW_54_3_Right_393
*9830 PHY_EDGE_ROW_55_2_Left_207
*9831 PHY_EDGE_ROW_55_2_Right_851
*9832 PHY_EDGE_ROW_55_3_Left_702
*9833 PHY_EDGE_ROW_55_3_Right_394
*9834 PHY_EDGE_ROW_56_2_Left_208
*9835 PHY_EDGE_ROW_56_2_Right_852
*9836 PHY_EDGE_ROW_56_3_Left_703
*9837 PHY_EDGE_ROW_56_3_Right_395
*9838 PHY_EDGE_ROW_57_2_Left_209
*9839 PHY_EDGE_ROW_57_2_Right_853
*9840 PHY_EDGE_ROW_57_3_Left_704
*9841 PHY_EDGE_ROW_57_3_Right_396
*9842 PHY_EDGE_ROW_58_2_Left_210
*9843 PHY_EDGE_ROW_58_2_Right_854
*9844 PHY_EDGE_ROW_58_3_Left_705
*9845 PHY_EDGE_ROW_58_3_Right_397
*9846 PHY_EDGE_ROW_59_2_Left_211
*9847 PHY_EDGE_ROW_59_2_Right_855
*9848 PHY_EDGE_ROW_59_3_Left_706
*9849 PHY_EDGE_ROW_59_3_Right_398
*9850 PHY_EDGE_ROW_5_Left_317
*9851 PHY_EDGE_ROW_5_Right_326
*9852 PHY_EDGE_ROW_60_2_Left_212
*9853 PHY_EDGE_ROW_60_2_Right_856
*9854 PHY_EDGE_ROW_60_3_Left_707
*9855 PHY_EDGE_ROW_60_3_Right_399
*9856 PHY_EDGE_ROW_61_2_Left_213
*9857 PHY_EDGE_ROW_61_2_Right_857
*9858 PHY_EDGE_ROW_61_3_Left_708
*9859 PHY_EDGE_ROW_61_3_Right_400
*9860 PHY_EDGE_ROW_62_2_Left_214
*9861 PHY_EDGE_ROW_62_2_Right_858
*9862 PHY_EDGE_ROW_62_3_Left_709
*9863 PHY_EDGE_ROW_62_3_Right_401
*9864 PHY_EDGE_ROW_63_2_Left_215
*9865 PHY_EDGE_ROW_63_2_Right_859
*9866 PHY_EDGE_ROW_63_3_Left_710
*9867 PHY_EDGE_ROW_63_3_Right_402
*9868 PHY_EDGE_ROW_64_2_Left_216
*9869 PHY_EDGE_ROW_64_2_Right_860
*9870 PHY_EDGE_ROW_64_3_Left_711
*9871 PHY_EDGE_ROW_64_3_Right_403
*9872 PHY_EDGE_ROW_65_2_Left_217
*9873 PHY_EDGE_ROW_65_2_Right_861
*9874 PHY_EDGE_ROW_65_3_Left_712
*9875 PHY_EDGE_ROW_65_3_Right_404
*9876 PHY_EDGE_ROW_66_2_Left_218
*9877 PHY_EDGE_ROW_66_2_Right_862
*9878 PHY_EDGE_ROW_66_3_Left_713
*9879 PHY_EDGE_ROW_66_3_Right_405
*9880 PHY_EDGE_ROW_67_2_Left_219
*9881 PHY_EDGE_ROW_67_2_Right_863
*9882 PHY_EDGE_ROW_67_3_Left_714
*9883 PHY_EDGE_ROW_67_3_Right_406
*9884 PHY_EDGE_ROW_68_2_Left_220
*9885 PHY_EDGE_ROW_68_2_Right_864
*9886 PHY_EDGE_ROW_68_3_Left_715
*9887 PHY_EDGE_ROW_68_3_Right_407
*9888 PHY_EDGE_ROW_69_2_Left_221
*9889 PHY_EDGE_ROW_69_2_Right_865
*9890 PHY_EDGE_ROW_69_3_Left_716
*9891 PHY_EDGE_ROW_69_3_Right_408
*9892 PHY_EDGE_ROW_6_Left_318
*9893 PHY_EDGE_ROW_6_Right_327
*9894 PHY_EDGE_ROW_70_2_Left_222
*9895 PHY_EDGE_ROW_70_2_Right_866
*9896 PHY_EDGE_ROW_70_3_Left_717
*9897 PHY_EDGE_ROW_70_3_Right_409
*9898 PHY_EDGE_ROW_71_2_Left_223
*9899 PHY_EDGE_ROW_71_2_Right_867
*9900 PHY_EDGE_ROW_71_3_Left_718
*9901 PHY_EDGE_ROW_71_3_Right_410
*9902 PHY_EDGE_ROW_72_2_Left_224
*9903 PHY_EDGE_ROW_72_2_Right_868
*9904 PHY_EDGE_ROW_72_3_Left_719
*9905 PHY_EDGE_ROW_72_3_Right_411
*9906 PHY_EDGE_ROW_73_2_Left_225
*9907 PHY_EDGE_ROW_73_2_Right_869
*9908 PHY_EDGE_ROW_73_3_Left_720
*9909 PHY_EDGE_ROW_73_3_Right_412
*9910 PHY_EDGE_ROW_74_2_Left_226
*9911 PHY_EDGE_ROW_74_2_Right_870
*9912 PHY_EDGE_ROW_74_3_Left_721
*9913 PHY_EDGE_ROW_74_3_Right_413
*9914 PHY_EDGE_ROW_75_2_Left_227
*9915 PHY_EDGE_ROW_75_2_Right_871
*9916 PHY_EDGE_ROW_75_3_Left_722
*9917 PHY_EDGE_ROW_75_3_Right_414
*9918 PHY_EDGE_ROW_76_2_Left_228
*9919 PHY_EDGE_ROW_76_2_Right_872
*9920 PHY_EDGE_ROW_76_3_Left_723
*9921 PHY_EDGE_ROW_76_3_Right_415
*9922 PHY_EDGE_ROW_77_2_Left_229
*9923 PHY_EDGE_ROW_77_2_Right_873
*9924 PHY_EDGE_ROW_77_3_Left_724
*9925 PHY_EDGE_ROW_77_3_Right_416
*9926 PHY_EDGE_ROW_78_2_Left_230
*9927 PHY_EDGE_ROW_78_2_Right_874
*9928 PHY_EDGE_ROW_78_3_Left_725
*9929 PHY_EDGE_ROW_78_3_Right_417
*9930 PHY_EDGE_ROW_79_2_Left_231
*9931 PHY_EDGE_ROW_79_2_Right_875
*9932 PHY_EDGE_ROW_79_3_Left_726
*9933 PHY_EDGE_ROW_79_3_Right_418
*9934 PHY_EDGE_ROW_7_Left_319
*9935 PHY_EDGE_ROW_7_Right_328
*9936 PHY_EDGE_ROW_80_2_Left_232
*9937 PHY_EDGE_ROW_80_2_Right_876
*9938 PHY_EDGE_ROW_80_3_Left_727
*9939 PHY_EDGE_ROW_80_3_Right_419
*9940 PHY_EDGE_ROW_81_2_Left_233
*9941 PHY_EDGE_ROW_81_2_Right_877
*9942 PHY_EDGE_ROW_81_3_Left_728
*9943 PHY_EDGE_ROW_81_3_Right_420
*9944 PHY_EDGE_ROW_82_2_Left_234
*9945 PHY_EDGE_ROW_82_2_Right_878
*9946 PHY_EDGE_ROW_82_3_Left_729
*9947 PHY_EDGE_ROW_82_3_Right_421
*9948 PHY_EDGE_ROW_83_2_Left_235
*9949 PHY_EDGE_ROW_83_2_Right_879
*9950 PHY_EDGE_ROW_83_3_Left_730
*9951 PHY_EDGE_ROW_83_3_Right_422
*9952 PHY_EDGE_ROW_84_2_Left_236
*9953 PHY_EDGE_ROW_84_2_Right_880
*9954 PHY_EDGE_ROW_84_3_Left_731
*9955 PHY_EDGE_ROW_84_3_Right_423
*9956 PHY_EDGE_ROW_85_2_Left_237
*9957 PHY_EDGE_ROW_85_2_Right_881
*9958 PHY_EDGE_ROW_85_3_Left_732
*9959 PHY_EDGE_ROW_85_3_Right_424
*9960 PHY_EDGE_ROW_86_2_Left_238
*9961 PHY_EDGE_ROW_86_2_Right_882
*9962 PHY_EDGE_ROW_86_3_Left_733
*9963 PHY_EDGE_ROW_86_3_Right_425
*9964 PHY_EDGE_ROW_87_2_Left_239
*9965 PHY_EDGE_ROW_87_2_Right_883
*9966 PHY_EDGE_ROW_87_3_Left_734
*9967 PHY_EDGE_ROW_87_3_Right_426
*9968 PHY_EDGE_ROW_88_2_Left_240
*9969 PHY_EDGE_ROW_88_2_Right_884
*9970 PHY_EDGE_ROW_88_3_Left_735
*9971 PHY_EDGE_ROW_88_3_Right_427
*9972 PHY_EDGE_ROW_89_2_Left_241
*9973 PHY_EDGE_ROW_89_2_Right_885
*9974 PHY_EDGE_ROW_89_3_Left_736
*9975 PHY_EDGE_ROW_89_3_Right_428
*9976 PHY_EDGE_ROW_8_Left_320
*9977 PHY_EDGE_ROW_8_Right_329
*9978 PHY_EDGE_ROW_90_2_Left_242
*9979 PHY_EDGE_ROW_90_2_Right_886
*9980 PHY_EDGE_ROW_90_3_Left_737
*9981 PHY_EDGE_ROW_90_3_Right_429
*9982 PHY_EDGE_ROW_91_2_Left_243
*9983 PHY_EDGE_ROW_91_2_Right_887
*9984 PHY_EDGE_ROW_91_3_Left_738
*9985 PHY_EDGE_ROW_91_3_Right_430
*9986 PHY_EDGE_ROW_92_2_Left_244
*9987 PHY_EDGE_ROW_92_2_Right_888
*9988 PHY_EDGE_ROW_92_3_Left_739
*9989 PHY_EDGE_ROW_92_3_Right_431
*9990 PHY_EDGE_ROW_93_2_Left_245
*9991 PHY_EDGE_ROW_93_2_Right_889
*9992 PHY_EDGE_ROW_93_3_Left_740
*9993 PHY_EDGE_ROW_93_3_Right_432
*9994 PHY_EDGE_ROW_94_2_Left_246
*9995 PHY_EDGE_ROW_94_2_Right_890
*9996 PHY_EDGE_ROW_94_3_Left_741
*9997 PHY_EDGE_ROW_94_3_Right_433
*9998 PHY_EDGE_ROW_95_2_Left_247
*9999 PHY_EDGE_ROW_95_2_Right_891
*10000 PHY_EDGE_ROW_95_3_Left_742
*10001 PHY_EDGE_ROW_95_3_Right_434
*10002 PHY_EDGE_ROW_96_2_Left_248
*10003 PHY_EDGE_ROW_96_2_Right_892
*10004 PHY_EDGE_ROW_96_3_Left_743
*10005 PHY_EDGE_ROW_96_3_Right_435
*10006 PHY_EDGE_ROW_97_2_Left_249
*10007 PHY_EDGE_ROW_97_2_Right_893
*10008 PHY_EDGE_ROW_97_3_Left_744
*10009 PHY_EDGE_ROW_97_3_Right_436
*10010 PHY_EDGE_ROW_98_2_Left_250
*10011 PHY_EDGE_ROW_98_2_Right_894
*10012 PHY_EDGE_ROW_98_3_Left_745
*10013 PHY_EDGE_ROW_98_3_Right_437
*10014 PHY_EDGE_ROW_99_2_Left_251
*10015 PHY_EDGE_ROW_99_2_Right_895
*10016 PHY_EDGE_ROW_99_3_Left_746
*10017 PHY_EDGE_ROW_99_3_Right_438
*10018 PHY_EDGE_ROW_9_2_Left_311
*10019 PHY_EDGE_ROW_9_2_Right_955
*10020 PHY_EDGE_ROW_9_3_Left_656
*10021 PHY_EDGE_ROW_9_3_Right_348
*10022 TAP_TAPCELL_ROW_0_1258
*10023 TAP_TAPCELL_ROW_0_1259
*10024 TAP_TAPCELL_ROW_0_1260
*10025 TAP_TAPCELL_ROW_0_1261
*10026 TAP_TAPCELL_ROW_0_1262
*10027 TAP_TAPCELL_ROW_0_1263
*10028 TAP_TAPCELL_ROW_0_1264
*10029 TAP_TAPCELL_ROW_0_1265
*10030 TAP_TAPCELL_ROW_0_1266
*10031 TAP_TAPCELL_ROW_0_1267
*10032 TAP_TAPCELL_ROW_0_1268
*10033 TAP_TAPCELL_ROW_0_1269
*10034 TAP_TAPCELL_ROW_0_1270
*10035 TAP_TAPCELL_ROW_0_1271
*10036 TAP_TAPCELL_ROW_0_1272
*10037 TAP_TAPCELL_ROW_0_1273
*10038 TAP_TAPCELL_ROW_0_1274
*10039 TAP_TAPCELL_ROW_0_1275
*10040 TAP_TAPCELL_ROW_0_1276
*10041 TAP_TAPCELL_ROW_0_1277
*10042 TAP_TAPCELL_ROW_0_1278
*10043 TAP_TAPCELL_ROW_0_1279
*10044 TAP_TAPCELL_ROW_0_1280
*10045 TAP_TAPCELL_ROW_0_1281
*10046 TAP_TAPCELL_ROW_0_1282
*10047 TAP_TAPCELL_ROW_0_1283
*10048 TAP_TAPCELL_ROW_0_1284
*10049 TAP_TAPCELL_ROW_0_1285
*10050 TAP_TAPCELL_ROW_0_1286
*10051 TAP_TAPCELL_ROW_0_1287
*10052 TAP_TAPCELL_ROW_0_1288
*10053 TAP_TAPCELL_ROW_0_1289
*10054 TAP_TAPCELL_ROW_0_1290
*10055 TAP_TAPCELL_ROW_0_1291
*10056 TAP_TAPCELL_ROW_0_1292
*10057 TAP_TAPCELL_ROW_0_1293
*10058 TAP_TAPCELL_ROW_0_1294
*10059 TAP_TAPCELL_ROW_0_1295
*10060 TAP_TAPCELL_ROW_0_1296
*10061 TAP_TAPCELL_ROW_0_1297
*10062 TAP_TAPCELL_ROW_0_1298
*10063 TAP_TAPCELL_ROW_0_1299
*10064 TAP_TAPCELL_ROW_0_1300
*10065 TAP_TAPCELL_ROW_0_1301
*10066 TAP_TAPCELL_ROW_0_1302
*10067 TAP_TAPCELL_ROW_0_1303
*10068 TAP_TAPCELL_ROW_0_1304
*10069 TAP_TAPCELL_ROW_0_1305
*10070 TAP_TAPCELL_ROW_0_1306
*10071 TAP_TAPCELL_ROW_0_1307
*10072 TAP_TAPCELL_ROW_0_1308
*10073 TAP_TAPCELL_ROW_0_1309
*10074 TAP_TAPCELL_ROW_0_1310
*10075 TAP_TAPCELL_ROW_100_2_1594
*10076 TAP_TAPCELL_ROW_100_3_2329
*10077 TAP_TAPCELL_ROW_102_2_1595
*10078 TAP_TAPCELL_ROW_102_3_2330
*10079 TAP_TAPCELL_ROW_104_2_1596
*10080 TAP_TAPCELL_ROW_104_3_2331
*10081 TAP_TAPCELL_ROW_106_2_1597
*10082 TAP_TAPCELL_ROW_106_3_2332
*10083 TAP_TAPCELL_ROW_108_2_1598
*10084 TAP_TAPCELL_ROW_108_3_2333
*10085 TAP_TAPCELL_ROW_10_2_1549
*10086 TAP_TAPCELL_ROW_10_3_2284
*10087 TAP_TAPCELL_ROW_110_2_1599
*10088 TAP_TAPCELL_ROW_110_3_2334
*10089 TAP_TAPCELL_ROW_112_2_1600
*10090 TAP_TAPCELL_ROW_112_3_2335
*10091 TAP_TAPCELL_ROW_114_2_1601
*10092 TAP_TAPCELL_ROW_114_3_2336
*10093 TAP_TAPCELL_ROW_116_2_1602
*10094 TAP_TAPCELL_ROW_116_3_2337
*10095 TAP_TAPCELL_ROW_118_2_1603
*10096 TAP_TAPCELL_ROW_118_3_2338
*10097 TAP_TAPCELL_ROW_120_2_1604
*10098 TAP_TAPCELL_ROW_120_3_2339
*10099 TAP_TAPCELL_ROW_122_2_1605
*10100 TAP_TAPCELL_ROW_122_3_2340
*10101 TAP_TAPCELL_ROW_124_2_1606
*10102 TAP_TAPCELL_ROW_124_3_2341
*10103 TAP_TAPCELL_ROW_126_2_1607
*10104 TAP_TAPCELL_ROW_126_3_2342
*10105 TAP_TAPCELL_ROW_128_2_1608
*10106 TAP_TAPCELL_ROW_128_3_2343
*10107 TAP_TAPCELL_ROW_12_2_1550
*10108 TAP_TAPCELL_ROW_12_3_2285
*10109 TAP_TAPCELL_ROW_130_2_1609
*10110 TAP_TAPCELL_ROW_130_3_2344
*10111 TAP_TAPCELL_ROW_132_2_1610
*10112 TAP_TAPCELL_ROW_132_3_2345
*10113 TAP_TAPCELL_ROW_134_2_1611
*10114 TAP_TAPCELL_ROW_134_3_2346
*10115 TAP_TAPCELL_ROW_136_2_1612
*10116 TAP_TAPCELL_ROW_136_3_2347
*10117 TAP_TAPCELL_ROW_138_2_1613
*10118 TAP_TAPCELL_ROW_138_3_2348
*10119 TAP_TAPCELL_ROW_140_2_1614
*10120 TAP_TAPCELL_ROW_140_3_2349
*10121 TAP_TAPCELL_ROW_142_2_1615
*10122 TAP_TAPCELL_ROW_142_3_2350
*10123 TAP_TAPCELL_ROW_144_2_1616
*10124 TAP_TAPCELL_ROW_144_3_2351
*10125 TAP_TAPCELL_ROW_146_2_1617
*10126 TAP_TAPCELL_ROW_146_3_2352
*10127 TAP_TAPCELL_ROW_148_2_1618
*10128 TAP_TAPCELL_ROW_148_3_2353
*10129 TAP_TAPCELL_ROW_14_2_1551
*10130 TAP_TAPCELL_ROW_14_3_2286
*10131 TAP_TAPCELL_ROW_150_2_1619
*10132 TAP_TAPCELL_ROW_150_3_2354
*10133 TAP_TAPCELL_ROW_152_2_1620
*10134 TAP_TAPCELL_ROW_152_3_2355
*10135 TAP_TAPCELL_ROW_154_2_1621
*10136 TAP_TAPCELL_ROW_154_3_2356
*10137 TAP_TAPCELL_ROW_156_2_1622
*10138 TAP_TAPCELL_ROW_156_3_2357
*10139 TAP_TAPCELL_ROW_158_2_1623
*10140 TAP_TAPCELL_ROW_158_3_2358
*10141 TAP_TAPCELL_ROW_159_1625
*10142 TAP_TAPCELL_ROW_159_1626
*10143 TAP_TAPCELL_ROW_159_1627
*10144 TAP_TAPCELL_ROW_159_1628
*10145 TAP_TAPCELL_ROW_159_1629
*10146 TAP_TAPCELL_ROW_159_1630
*10147 TAP_TAPCELL_ROW_159_1631
*10148 TAP_TAPCELL_ROW_159_1632
*10149 TAP_TAPCELL_ROW_159_1633
*10150 TAP_TAPCELL_ROW_159_1634
*10151 TAP_TAPCELL_ROW_159_1635
*10152 TAP_TAPCELL_ROW_159_1636
*10153 TAP_TAPCELL_ROW_159_1637
*10154 TAP_TAPCELL_ROW_159_1638
*10155 TAP_TAPCELL_ROW_159_1639
*10156 TAP_TAPCELL_ROW_159_1640
*10157 TAP_TAPCELL_ROW_159_1641
*10158 TAP_TAPCELL_ROW_159_1642
*10159 TAP_TAPCELL_ROW_159_1643
*10160 TAP_TAPCELL_ROW_159_1644
*10161 TAP_TAPCELL_ROW_159_1645
*10162 TAP_TAPCELL_ROW_159_1646
*10163 TAP_TAPCELL_ROW_159_1647
*10164 TAP_TAPCELL_ROW_159_1648
*10165 TAP_TAPCELL_ROW_159_1649
*10166 TAP_TAPCELL_ROW_159_1650
*10167 TAP_TAPCELL_ROW_159_1651
*10168 TAP_TAPCELL_ROW_159_1652
*10169 TAP_TAPCELL_ROW_159_1653
*10170 TAP_TAPCELL_ROW_159_1654
*10171 TAP_TAPCELL_ROW_159_1655
*10172 TAP_TAPCELL_ROW_159_1656
*10173 TAP_TAPCELL_ROW_159_1657
*10174 TAP_TAPCELL_ROW_159_1658
*10175 TAP_TAPCELL_ROW_159_1659
*10176 TAP_TAPCELL_ROW_159_1660
*10177 TAP_TAPCELL_ROW_159_1661
*10178 TAP_TAPCELL_ROW_159_1662
*10179 TAP_TAPCELL_ROW_159_1663
*10180 TAP_TAPCELL_ROW_159_1664
*10181 TAP_TAPCELL_ROW_159_1665
*10182 TAP_TAPCELL_ROW_159_1666
*10183 TAP_TAPCELL_ROW_159_1667
*10184 TAP_TAPCELL_ROW_159_1668
*10185 TAP_TAPCELL_ROW_159_1669
*10186 TAP_TAPCELL_ROW_159_1670
*10187 TAP_TAPCELL_ROW_159_1671
*10188 TAP_TAPCELL_ROW_159_1672
*10189 TAP_TAPCELL_ROW_159_1673
*10190 TAP_TAPCELL_ROW_159_1674
*10191 TAP_TAPCELL_ROW_159_1675
*10192 TAP_TAPCELL_ROW_159_1676
*10193 TAP_TAPCELL_ROW_159_1677
*10194 TAP_TAPCELL_ROW_160_1678
*10195 TAP_TAPCELL_ROW_160_1679
*10196 TAP_TAPCELL_ROW_160_1680
*10197 TAP_TAPCELL_ROW_160_1681
*10198 TAP_TAPCELL_ROW_160_1682
*10199 TAP_TAPCELL_ROW_160_1683
*10200 TAP_TAPCELL_ROW_160_1684
*10201 TAP_TAPCELL_ROW_160_1685
*10202 TAP_TAPCELL_ROW_160_1686
*10203 TAP_TAPCELL_ROW_160_1687
*10204 TAP_TAPCELL_ROW_160_1688
*10205 TAP_TAPCELL_ROW_160_1689
*10206 TAP_TAPCELL_ROW_160_1690
*10207 TAP_TAPCELL_ROW_160_1691
*10208 TAP_TAPCELL_ROW_160_1692
*10209 TAP_TAPCELL_ROW_160_1693
*10210 TAP_TAPCELL_ROW_160_1694
*10211 TAP_TAPCELL_ROW_160_1695
*10212 TAP_TAPCELL_ROW_160_1696
*10213 TAP_TAPCELL_ROW_160_1697
*10214 TAP_TAPCELL_ROW_160_1698
*10215 TAP_TAPCELL_ROW_160_1699
*10216 TAP_TAPCELL_ROW_160_1700
*10217 TAP_TAPCELL_ROW_160_1701
*10218 TAP_TAPCELL_ROW_160_1702
*10219 TAP_TAPCELL_ROW_160_1703
*10220 TAP_TAPCELL_ROW_160_1704
*10221 TAP_TAPCELL_ROW_161_1705
*10222 TAP_TAPCELL_ROW_161_1706
*10223 TAP_TAPCELL_ROW_161_1707
*10224 TAP_TAPCELL_ROW_161_1708
*10225 TAP_TAPCELL_ROW_161_1709
*10226 TAP_TAPCELL_ROW_161_1710
*10227 TAP_TAPCELL_ROW_161_1711
*10228 TAP_TAPCELL_ROW_161_1712
*10229 TAP_TAPCELL_ROW_161_1713
*10230 TAP_TAPCELL_ROW_161_1714
*10231 TAP_TAPCELL_ROW_161_1715
*10232 TAP_TAPCELL_ROW_161_1716
*10233 TAP_TAPCELL_ROW_161_1717
*10234 TAP_TAPCELL_ROW_161_1718
*10235 TAP_TAPCELL_ROW_161_1719
*10236 TAP_TAPCELL_ROW_161_1720
*10237 TAP_TAPCELL_ROW_161_1721
*10238 TAP_TAPCELL_ROW_161_1722
*10239 TAP_TAPCELL_ROW_161_1723
*10240 TAP_TAPCELL_ROW_161_1724
*10241 TAP_TAPCELL_ROW_161_1725
*10242 TAP_TAPCELL_ROW_161_1726
*10243 TAP_TAPCELL_ROW_161_1727
*10244 TAP_TAPCELL_ROW_161_1728
*10245 TAP_TAPCELL_ROW_161_1729
*10246 TAP_TAPCELL_ROW_161_1730
*10247 TAP_TAPCELL_ROW_162_1731
*10248 TAP_TAPCELL_ROW_162_1732
*10249 TAP_TAPCELL_ROW_162_1733
*10250 TAP_TAPCELL_ROW_162_1734
*10251 TAP_TAPCELL_ROW_162_1735
*10252 TAP_TAPCELL_ROW_162_1736
*10253 TAP_TAPCELL_ROW_162_1737
*10254 TAP_TAPCELL_ROW_162_1738
*10255 TAP_TAPCELL_ROW_162_1739
*10256 TAP_TAPCELL_ROW_162_1740
*10257 TAP_TAPCELL_ROW_162_1741
*10258 TAP_TAPCELL_ROW_162_1742
*10259 TAP_TAPCELL_ROW_162_1743
*10260 TAP_TAPCELL_ROW_162_1744
*10261 TAP_TAPCELL_ROW_162_1745
*10262 TAP_TAPCELL_ROW_162_1746
*10263 TAP_TAPCELL_ROW_162_1747
*10264 TAP_TAPCELL_ROW_162_1748
*10265 TAP_TAPCELL_ROW_162_1749
*10266 TAP_TAPCELL_ROW_162_1750
*10267 TAP_TAPCELL_ROW_162_1751
*10268 TAP_TAPCELL_ROW_162_1752
*10269 TAP_TAPCELL_ROW_162_1753
*10270 TAP_TAPCELL_ROW_162_1754
*10271 TAP_TAPCELL_ROW_162_1755
*10272 TAP_TAPCELL_ROW_162_1756
*10273 TAP_TAPCELL_ROW_162_1757
*10274 TAP_TAPCELL_ROW_163_1758
*10275 TAP_TAPCELL_ROW_163_1759
*10276 TAP_TAPCELL_ROW_163_1760
*10277 TAP_TAPCELL_ROW_163_1761
*10278 TAP_TAPCELL_ROW_163_1762
*10279 TAP_TAPCELL_ROW_163_1763
*10280 TAP_TAPCELL_ROW_163_1764
*10281 TAP_TAPCELL_ROW_163_1765
*10282 TAP_TAPCELL_ROW_163_1766
*10283 TAP_TAPCELL_ROW_163_1767
*10284 TAP_TAPCELL_ROW_163_1768
*10285 TAP_TAPCELL_ROW_163_1769
*10286 TAP_TAPCELL_ROW_163_1770
*10287 TAP_TAPCELL_ROW_163_1771
*10288 TAP_TAPCELL_ROW_163_1772
*10289 TAP_TAPCELL_ROW_163_1773
*10290 TAP_TAPCELL_ROW_163_1774
*10291 TAP_TAPCELL_ROW_163_1775
*10292 TAP_TAPCELL_ROW_163_1776
*10293 TAP_TAPCELL_ROW_163_1777
*10294 TAP_TAPCELL_ROW_163_1778
*10295 TAP_TAPCELL_ROW_163_1779
*10296 TAP_TAPCELL_ROW_163_1780
*10297 TAP_TAPCELL_ROW_163_1781
*10298 TAP_TAPCELL_ROW_163_1782
*10299 TAP_TAPCELL_ROW_163_1783
*10300 TAP_TAPCELL_ROW_164_1784
*10301 TAP_TAPCELL_ROW_164_1785
*10302 TAP_TAPCELL_ROW_164_1786
*10303 TAP_TAPCELL_ROW_164_1787
*10304 TAP_TAPCELL_ROW_164_1788
*10305 TAP_TAPCELL_ROW_164_1789
*10306 TAP_TAPCELL_ROW_164_1790
*10307 TAP_TAPCELL_ROW_164_1791
*10308 TAP_TAPCELL_ROW_164_1792
*10309 TAP_TAPCELL_ROW_164_1793
*10310 TAP_TAPCELL_ROW_164_1794
*10311 TAP_TAPCELL_ROW_164_1795
*10312 TAP_TAPCELL_ROW_164_1796
*10313 TAP_TAPCELL_ROW_164_1797
*10314 TAP_TAPCELL_ROW_164_1798
*10315 TAP_TAPCELL_ROW_164_1799
*10316 TAP_TAPCELL_ROW_164_1800
*10317 TAP_TAPCELL_ROW_164_1801
*10318 TAP_TAPCELL_ROW_164_1802
*10319 TAP_TAPCELL_ROW_164_1803
*10320 TAP_TAPCELL_ROW_164_1804
*10321 TAP_TAPCELL_ROW_164_1805
*10322 TAP_TAPCELL_ROW_164_1806
*10323 TAP_TAPCELL_ROW_164_1807
*10324 TAP_TAPCELL_ROW_164_1808
*10325 TAP_TAPCELL_ROW_164_1809
*10326 TAP_TAPCELL_ROW_164_1810
*10327 TAP_TAPCELL_ROW_165_1811
*10328 TAP_TAPCELL_ROW_165_1812
*10329 TAP_TAPCELL_ROW_165_1813
*10330 TAP_TAPCELL_ROW_165_1814
*10331 TAP_TAPCELL_ROW_165_1815
*10332 TAP_TAPCELL_ROW_165_1816
*10333 TAP_TAPCELL_ROW_165_1817
*10334 TAP_TAPCELL_ROW_165_1818
*10335 TAP_TAPCELL_ROW_165_1819
*10336 TAP_TAPCELL_ROW_165_1820
*10337 TAP_TAPCELL_ROW_165_1821
*10338 TAP_TAPCELL_ROW_165_1822
*10339 TAP_TAPCELL_ROW_165_1823
*10340 TAP_TAPCELL_ROW_165_1824
*10341 TAP_TAPCELL_ROW_165_1825
*10342 TAP_TAPCELL_ROW_165_1826
*10343 TAP_TAPCELL_ROW_165_1827
*10344 TAP_TAPCELL_ROW_165_1828
*10345 TAP_TAPCELL_ROW_165_1829
*10346 TAP_TAPCELL_ROW_165_1830
*10347 TAP_TAPCELL_ROW_165_1831
*10348 TAP_TAPCELL_ROW_165_1832
*10349 TAP_TAPCELL_ROW_165_1833
*10350 TAP_TAPCELL_ROW_165_1834
*10351 TAP_TAPCELL_ROW_165_1835
*10352 TAP_TAPCELL_ROW_165_1836
*10353 TAP_TAPCELL_ROW_166_1837
*10354 TAP_TAPCELL_ROW_166_1838
*10355 TAP_TAPCELL_ROW_166_1839
*10356 TAP_TAPCELL_ROW_166_1840
*10357 TAP_TAPCELL_ROW_166_1841
*10358 TAP_TAPCELL_ROW_166_1842
*10359 TAP_TAPCELL_ROW_166_1843
*10360 TAP_TAPCELL_ROW_166_1844
*10361 TAP_TAPCELL_ROW_166_1845
*10362 TAP_TAPCELL_ROW_166_1846
*10363 TAP_TAPCELL_ROW_166_1847
*10364 TAP_TAPCELL_ROW_166_1848
*10365 TAP_TAPCELL_ROW_166_1849
*10366 TAP_TAPCELL_ROW_166_1850
*10367 TAP_TAPCELL_ROW_166_1851
*10368 TAP_TAPCELL_ROW_166_1852
*10369 TAP_TAPCELL_ROW_166_1853
*10370 TAP_TAPCELL_ROW_166_1854
*10371 TAP_TAPCELL_ROW_166_1855
*10372 TAP_TAPCELL_ROW_166_1856
*10373 TAP_TAPCELL_ROW_166_1857
*10374 TAP_TAPCELL_ROW_166_1858
*10375 TAP_TAPCELL_ROW_166_1859
*10376 TAP_TAPCELL_ROW_166_1860
*10377 TAP_TAPCELL_ROW_166_1861
*10378 TAP_TAPCELL_ROW_166_1862
*10379 TAP_TAPCELL_ROW_166_1863
*10380 TAP_TAPCELL_ROW_167_1864
*10381 TAP_TAPCELL_ROW_167_1865
*10382 TAP_TAPCELL_ROW_167_1866
*10383 TAP_TAPCELL_ROW_167_1867
*10384 TAP_TAPCELL_ROW_167_1868
*10385 TAP_TAPCELL_ROW_167_1869
*10386 TAP_TAPCELL_ROW_167_1870
*10387 TAP_TAPCELL_ROW_167_1871
*10388 TAP_TAPCELL_ROW_167_1872
*10389 TAP_TAPCELL_ROW_167_1873
*10390 TAP_TAPCELL_ROW_167_1874
*10391 TAP_TAPCELL_ROW_167_1875
*10392 TAP_TAPCELL_ROW_167_1876
*10393 TAP_TAPCELL_ROW_167_1877
*10394 TAP_TAPCELL_ROW_167_1878
*10395 TAP_TAPCELL_ROW_167_1879
*10396 TAP_TAPCELL_ROW_167_1880
*10397 TAP_TAPCELL_ROW_167_1881
*10398 TAP_TAPCELL_ROW_167_1882
*10399 TAP_TAPCELL_ROW_167_1883
*10400 TAP_TAPCELL_ROW_167_1884
*10401 TAP_TAPCELL_ROW_167_1885
*10402 TAP_TAPCELL_ROW_167_1886
*10403 TAP_TAPCELL_ROW_167_1887
*10404 TAP_TAPCELL_ROW_167_1888
*10405 TAP_TAPCELL_ROW_167_1889
*10406 TAP_TAPCELL_ROW_168_1890
*10407 TAP_TAPCELL_ROW_168_1891
*10408 TAP_TAPCELL_ROW_168_1892
*10409 TAP_TAPCELL_ROW_168_1893
*10410 TAP_TAPCELL_ROW_168_1894
*10411 TAP_TAPCELL_ROW_168_1895
*10412 TAP_TAPCELL_ROW_168_1896
*10413 TAP_TAPCELL_ROW_168_1897
*10414 TAP_TAPCELL_ROW_168_1898
*10415 TAP_TAPCELL_ROW_168_1899
*10416 TAP_TAPCELL_ROW_168_1900
*10417 TAP_TAPCELL_ROW_168_1901
*10418 TAP_TAPCELL_ROW_168_1902
*10419 TAP_TAPCELL_ROW_168_1903
*10420 TAP_TAPCELL_ROW_168_1904
*10421 TAP_TAPCELL_ROW_168_1905
*10422 TAP_TAPCELL_ROW_168_1906
*10423 TAP_TAPCELL_ROW_168_1907
*10424 TAP_TAPCELL_ROW_168_1908
*10425 TAP_TAPCELL_ROW_168_1909
*10426 TAP_TAPCELL_ROW_168_1910
*10427 TAP_TAPCELL_ROW_168_1911
*10428 TAP_TAPCELL_ROW_168_1912
*10429 TAP_TAPCELL_ROW_168_1913
*10430 TAP_TAPCELL_ROW_168_1914
*10431 TAP_TAPCELL_ROW_168_1915
*10432 TAP_TAPCELL_ROW_168_1916
*10433 TAP_TAPCELL_ROW_169_1917
*10434 TAP_TAPCELL_ROW_169_1918
*10435 TAP_TAPCELL_ROW_169_1919
*10436 TAP_TAPCELL_ROW_169_1920
*10437 TAP_TAPCELL_ROW_169_1921
*10438 TAP_TAPCELL_ROW_169_1922
*10439 TAP_TAPCELL_ROW_169_1923
*10440 TAP_TAPCELL_ROW_169_1924
*10441 TAP_TAPCELL_ROW_169_1925
*10442 TAP_TAPCELL_ROW_169_1926
*10443 TAP_TAPCELL_ROW_169_1927
*10444 TAP_TAPCELL_ROW_169_1928
*10445 TAP_TAPCELL_ROW_169_1929
*10446 TAP_TAPCELL_ROW_169_1930
*10447 TAP_TAPCELL_ROW_169_1931
*10448 TAP_TAPCELL_ROW_169_1932
*10449 TAP_TAPCELL_ROW_169_1933
*10450 TAP_TAPCELL_ROW_169_1934
*10451 TAP_TAPCELL_ROW_169_1935
*10452 TAP_TAPCELL_ROW_169_1936
*10453 TAP_TAPCELL_ROW_169_1937
*10454 TAP_TAPCELL_ROW_169_1938
*10455 TAP_TAPCELL_ROW_169_1939
*10456 TAP_TAPCELL_ROW_169_1940
*10457 TAP_TAPCELL_ROW_169_1941
*10458 TAP_TAPCELL_ROW_169_1942
*10459 TAP_TAPCELL_ROW_169_1943
*10460 TAP_TAPCELL_ROW_169_1944
*10461 TAP_TAPCELL_ROW_169_1945
*10462 TAP_TAPCELL_ROW_169_1946
*10463 TAP_TAPCELL_ROW_169_1947
*10464 TAP_TAPCELL_ROW_169_1948
*10465 TAP_TAPCELL_ROW_169_1949
*10466 TAP_TAPCELL_ROW_169_1950
*10467 TAP_TAPCELL_ROW_169_1951
*10468 TAP_TAPCELL_ROW_169_1952
*10469 TAP_TAPCELL_ROW_169_1953
*10470 TAP_TAPCELL_ROW_169_1954
*10471 TAP_TAPCELL_ROW_169_1955
*10472 TAP_TAPCELL_ROW_169_1956
*10473 TAP_TAPCELL_ROW_169_1957
*10474 TAP_TAPCELL_ROW_169_1958
*10475 TAP_TAPCELL_ROW_169_1959
*10476 TAP_TAPCELL_ROW_169_1960
*10477 TAP_TAPCELL_ROW_169_1961
*10478 TAP_TAPCELL_ROW_169_1962
*10479 TAP_TAPCELL_ROW_169_1963
*10480 TAP_TAPCELL_ROW_169_1964
*10481 TAP_TAPCELL_ROW_169_1965
*10482 TAP_TAPCELL_ROW_169_1966
*10483 TAP_TAPCELL_ROW_169_1967
*10484 TAP_TAPCELL_ROW_169_1968
*10485 TAP_TAPCELL_ROW_169_1969
*10486 TAP_TAPCELL_ROW_16_2_1552
*10487 TAP_TAPCELL_ROW_16_3_2287
*10488 TAP_TAPCELL_ROW_170_2_1624
*10489 TAP_TAPCELL_ROW_170_3_2359
*10490 TAP_TAPCELL_ROW_172_2_1970
*10491 TAP_TAPCELL_ROW_172_3_2360
*10492 TAP_TAPCELL_ROW_174_2_1971
*10493 TAP_TAPCELL_ROW_174_3_2361
*10494 TAP_TAPCELL_ROW_176_2_1972
*10495 TAP_TAPCELL_ROW_176_3_2362
*10496 TAP_TAPCELL_ROW_178_2_1973
*10497 TAP_TAPCELL_ROW_178_3_2363
*10498 TAP_TAPCELL_ROW_180_2_1974
*10499 TAP_TAPCELL_ROW_180_3_2364
*10500 TAP_TAPCELL_ROW_182_2_1975
*10501 TAP_TAPCELL_ROW_182_3_2365
*10502 TAP_TAPCELL_ROW_184_2_1976
*10503 TAP_TAPCELL_ROW_184_3_2366
*10504 TAP_TAPCELL_ROW_186_2_1977
*10505 TAP_TAPCELL_ROW_186_3_2367
*10506 TAP_TAPCELL_ROW_188_2_1978
*10507 TAP_TAPCELL_ROW_188_3_2368
*10508 TAP_TAPCELL_ROW_18_2_1553
*10509 TAP_TAPCELL_ROW_18_3_2288
*10510 TAP_TAPCELL_ROW_190_2_1979
*10511 TAP_TAPCELL_ROW_190_3_2369
*10512 TAP_TAPCELL_ROW_192_2_1980
*10513 TAP_TAPCELL_ROW_192_3_2370
*10514 TAP_TAPCELL_ROW_194_2_1981
*10515 TAP_TAPCELL_ROW_194_3_2371
*10516 TAP_TAPCELL_ROW_196_2_1982
*10517 TAP_TAPCELL_ROW_196_3_2372
*10518 TAP_TAPCELL_ROW_198_2_1983
*10519 TAP_TAPCELL_ROW_198_3_2373
*10520 TAP_TAPCELL_ROW_1_1311
*10521 TAP_TAPCELL_ROW_1_1312
*10522 TAP_TAPCELL_ROW_1_1313
*10523 TAP_TAPCELL_ROW_1_1314
*10524 TAP_TAPCELL_ROW_1_1315
*10525 TAP_TAPCELL_ROW_1_1316
*10526 TAP_TAPCELL_ROW_1_1317
*10527 TAP_TAPCELL_ROW_1_1318
*10528 TAP_TAPCELL_ROW_1_1319
*10529 TAP_TAPCELL_ROW_1_1320
*10530 TAP_TAPCELL_ROW_1_1321
*10531 TAP_TAPCELL_ROW_1_1322
*10532 TAP_TAPCELL_ROW_1_1323
*10533 TAP_TAPCELL_ROW_1_1324
*10534 TAP_TAPCELL_ROW_1_1325
*10535 TAP_TAPCELL_ROW_1_1326
*10536 TAP_TAPCELL_ROW_1_1327
*10537 TAP_TAPCELL_ROW_1_1328
*10538 TAP_TAPCELL_ROW_1_1329
*10539 TAP_TAPCELL_ROW_1_1330
*10540 TAP_TAPCELL_ROW_1_1331
*10541 TAP_TAPCELL_ROW_1_1332
*10542 TAP_TAPCELL_ROW_1_1333
*10543 TAP_TAPCELL_ROW_1_1334
*10544 TAP_TAPCELL_ROW_1_1335
*10545 TAP_TAPCELL_ROW_1_1336
*10546 TAP_TAPCELL_ROW_200_2_1984
*10547 TAP_TAPCELL_ROW_200_3_2374
*10548 TAP_TAPCELL_ROW_202_2_1985
*10549 TAP_TAPCELL_ROW_202_3_2375
*10550 TAP_TAPCELL_ROW_204_2_1986
*10551 TAP_TAPCELL_ROW_204_3_2376
*10552 TAP_TAPCELL_ROW_206_2_1987
*10553 TAP_TAPCELL_ROW_206_3_2377
*10554 TAP_TAPCELL_ROW_208_2_1988
*10555 TAP_TAPCELL_ROW_208_3_2378
*10556 TAP_TAPCELL_ROW_20_2_1554
*10557 TAP_TAPCELL_ROW_20_3_2289
*10558 TAP_TAPCELL_ROW_210_2_1989
*10559 TAP_TAPCELL_ROW_210_3_2379
*10560 TAP_TAPCELL_ROW_212_2_1990
*10561 TAP_TAPCELL_ROW_212_3_2380
*10562 TAP_TAPCELL_ROW_214_2_1991
*10563 TAP_TAPCELL_ROW_214_3_2381
*10564 TAP_TAPCELL_ROW_216_2_1992
*10565 TAP_TAPCELL_ROW_216_3_2382
*10566 TAP_TAPCELL_ROW_218_2_1993
*10567 TAP_TAPCELL_ROW_218_3_2383
*10568 TAP_TAPCELL_ROW_220_2_1994
*10569 TAP_TAPCELL_ROW_220_3_2384
*10570 TAP_TAPCELL_ROW_222_2_1995
*10571 TAP_TAPCELL_ROW_222_3_2385
*10572 TAP_TAPCELL_ROW_224_2_1996
*10573 TAP_TAPCELL_ROW_224_3_2386
*10574 TAP_TAPCELL_ROW_226_2_1997
*10575 TAP_TAPCELL_ROW_226_3_2387
*10576 TAP_TAPCELL_ROW_228_2_1998
*10577 TAP_TAPCELL_ROW_228_3_2388
*10578 TAP_TAPCELL_ROW_22_2_1555
*10579 TAP_TAPCELL_ROW_22_3_2290
*10580 TAP_TAPCELL_ROW_230_2_1999
*10581 TAP_TAPCELL_ROW_230_3_2389
*10582 TAP_TAPCELL_ROW_232_2_2000
*10583 TAP_TAPCELL_ROW_232_3_2390
*10584 TAP_TAPCELL_ROW_234_2_2001
*10585 TAP_TAPCELL_ROW_234_3_2391
*10586 TAP_TAPCELL_ROW_236_2_2002
*10587 TAP_TAPCELL_ROW_236_3_2392
*10588 TAP_TAPCELL_ROW_238_2_2003
*10589 TAP_TAPCELL_ROW_238_3_2393
*10590 TAP_TAPCELL_ROW_240_2_2004
*10591 TAP_TAPCELL_ROW_240_3_2394
*10592 TAP_TAPCELL_ROW_242_2_2005
*10593 TAP_TAPCELL_ROW_242_3_2395
*10594 TAP_TAPCELL_ROW_244_2_2006
*10595 TAP_TAPCELL_ROW_244_3_2396
*10596 TAP_TAPCELL_ROW_246_2_2007
*10597 TAP_TAPCELL_ROW_246_3_2397
*10598 TAP_TAPCELL_ROW_248_2_2008
*10599 TAP_TAPCELL_ROW_248_3_2398
*10600 TAP_TAPCELL_ROW_24_2_1556
*10601 TAP_TAPCELL_ROW_24_3_2291
*10602 TAP_TAPCELL_ROW_250_2_2009
*10603 TAP_TAPCELL_ROW_250_3_2399
*10604 TAP_TAPCELL_ROW_252_2_2010
*10605 TAP_TAPCELL_ROW_252_3_2400
*10606 TAP_TAPCELL_ROW_254_2_2011
*10607 TAP_TAPCELL_ROW_254_3_2401
*10608 TAP_TAPCELL_ROW_256_2_2012
*10609 TAP_TAPCELL_ROW_256_3_2402
*10610 TAP_TAPCELL_ROW_258_2_2013
*10611 TAP_TAPCELL_ROW_258_3_2403
*10612 TAP_TAPCELL_ROW_260_2_2014
*10613 TAP_TAPCELL_ROW_260_3_2404
*10614 TAP_TAPCELL_ROW_262_2_2015
*10615 TAP_TAPCELL_ROW_262_3_2405
*10616 TAP_TAPCELL_ROW_264_2_2016
*10617 TAP_TAPCELL_ROW_264_3_2406
*10618 TAP_TAPCELL_ROW_266_2_2017
*10619 TAP_TAPCELL_ROW_266_3_2407
*10620 TAP_TAPCELL_ROW_268_2_2018
*10621 TAP_TAPCELL_ROW_268_3_2408
*10622 TAP_TAPCELL_ROW_26_2_1557
*10623 TAP_TAPCELL_ROW_26_3_2292
*10624 TAP_TAPCELL_ROW_270_2_2019
*10625 TAP_TAPCELL_ROW_270_3_2409
*10626 TAP_TAPCELL_ROW_272_2_2020
*10627 TAP_TAPCELL_ROW_272_3_2410
*10628 TAP_TAPCELL_ROW_274_2_2021
*10629 TAP_TAPCELL_ROW_274_3_2411
*10630 TAP_TAPCELL_ROW_276_2_2022
*10631 TAP_TAPCELL_ROW_276_3_2412
*10632 TAP_TAPCELL_ROW_278_2_2023
*10633 TAP_TAPCELL_ROW_278_3_2413
*10634 TAP_TAPCELL_ROW_280_2_2024
*10635 TAP_TAPCELL_ROW_280_3_2414
*10636 TAP_TAPCELL_ROW_282_2_2025
*10637 TAP_TAPCELL_ROW_282_3_2415
*10638 TAP_TAPCELL_ROW_284_2_2026
*10639 TAP_TAPCELL_ROW_284_3_2416
*10640 TAP_TAPCELL_ROW_286_2_2027
*10641 TAP_TAPCELL_ROW_286_3_2417
*10642 TAP_TAPCELL_ROW_288_2_2028
*10643 TAP_TAPCELL_ROW_288_3_2418
*10644 TAP_TAPCELL_ROW_28_2_1558
*10645 TAP_TAPCELL_ROW_28_3_2293
*10646 TAP_TAPCELL_ROW_290_2_2029
*10647 TAP_TAPCELL_ROW_290_3_2419
*10648 TAP_TAPCELL_ROW_292_2_2030
*10649 TAP_TAPCELL_ROW_292_3_2420
*10650 TAP_TAPCELL_ROW_294_2_2031
*10651 TAP_TAPCELL_ROW_294_3_2421
*10652 TAP_TAPCELL_ROW_296_2_2032
*10653 TAP_TAPCELL_ROW_296_3_2422
*10654 TAP_TAPCELL_ROW_298_2_2033
*10655 TAP_TAPCELL_ROW_298_3_2423
*10656 TAP_TAPCELL_ROW_2_1337
*10657 TAP_TAPCELL_ROW_2_1338
*10658 TAP_TAPCELL_ROW_2_1339
*10659 TAP_TAPCELL_ROW_2_1340
*10660 TAP_TAPCELL_ROW_2_1341
*10661 TAP_TAPCELL_ROW_2_1342
*10662 TAP_TAPCELL_ROW_2_1343
*10663 TAP_TAPCELL_ROW_2_1344
*10664 TAP_TAPCELL_ROW_2_1345
*10665 TAP_TAPCELL_ROW_2_1346
*10666 TAP_TAPCELL_ROW_2_1347
*10667 TAP_TAPCELL_ROW_2_1348
*10668 TAP_TAPCELL_ROW_2_1349
*10669 TAP_TAPCELL_ROW_2_1350
*10670 TAP_TAPCELL_ROW_2_1351
*10671 TAP_TAPCELL_ROW_2_1352
*10672 TAP_TAPCELL_ROW_2_1353
*10673 TAP_TAPCELL_ROW_2_1354
*10674 TAP_TAPCELL_ROW_2_1355
*10675 TAP_TAPCELL_ROW_2_1356
*10676 TAP_TAPCELL_ROW_2_1357
*10677 TAP_TAPCELL_ROW_2_1358
*10678 TAP_TAPCELL_ROW_2_1359
*10679 TAP_TAPCELL_ROW_2_1360
*10680 TAP_TAPCELL_ROW_2_1361
*10681 TAP_TAPCELL_ROW_2_1362
*10682 TAP_TAPCELL_ROW_2_1363
*10683 TAP_TAPCELL_ROW_300_2_2034
*10684 TAP_TAPCELL_ROW_300_3_2424
*10685 TAP_TAPCELL_ROW_302_2_2035
*10686 TAP_TAPCELL_ROW_302_3_2425
*10687 TAP_TAPCELL_ROW_304_2_2036
*10688 TAP_TAPCELL_ROW_304_3_2426
*10689 TAP_TAPCELL_ROW_306_2_2037
*10690 TAP_TAPCELL_ROW_306_3_2427
*10691 TAP_TAPCELL_ROW_308_2_2038
*10692 TAP_TAPCELL_ROW_308_3_2428
*10693 TAP_TAPCELL_ROW_30_2_1559
*10694 TAP_TAPCELL_ROW_30_3_2294
*10695 TAP_TAPCELL_ROW_310_2_2039
*10696 TAP_TAPCELL_ROW_310_3_2429
*10697 TAP_TAPCELL_ROW_312_2_2040
*10698 TAP_TAPCELL_ROW_312_3_2430
*10699 TAP_TAPCELL_ROW_314_2_2041
*10700 TAP_TAPCELL_ROW_314_3_2431
*10701 TAP_TAPCELL_ROW_316_2_2042
*10702 TAP_TAPCELL_ROW_316_3_2432
*10703 TAP_TAPCELL_ROW_318_2_2043
*10704 TAP_TAPCELL_ROW_318_3_2433
*10705 TAP_TAPCELL_ROW_320_2_2044
*10706 TAP_TAPCELL_ROW_320_3_2434
*10707 TAP_TAPCELL_ROW_321_2045
*10708 TAP_TAPCELL_ROW_321_2046
*10709 TAP_TAPCELL_ROW_321_2047
*10710 TAP_TAPCELL_ROW_321_2048
*10711 TAP_TAPCELL_ROW_321_2049
*10712 TAP_TAPCELL_ROW_321_2050
*10713 TAP_TAPCELL_ROW_321_2051
*10714 TAP_TAPCELL_ROW_321_2052
*10715 TAP_TAPCELL_ROW_321_2053
*10716 TAP_TAPCELL_ROW_321_2054
*10717 TAP_TAPCELL_ROW_321_2055
*10718 TAP_TAPCELL_ROW_321_2056
*10719 TAP_TAPCELL_ROW_321_2057
*10720 TAP_TAPCELL_ROW_321_2058
*10721 TAP_TAPCELL_ROW_321_2059
*10722 TAP_TAPCELL_ROW_321_2060
*10723 TAP_TAPCELL_ROW_321_2061
*10724 TAP_TAPCELL_ROW_321_2062
*10725 TAP_TAPCELL_ROW_321_2063
*10726 TAP_TAPCELL_ROW_321_2064
*10727 TAP_TAPCELL_ROW_321_2065
*10728 TAP_TAPCELL_ROW_321_2066
*10729 TAP_TAPCELL_ROW_321_2067
*10730 TAP_TAPCELL_ROW_321_2068
*10731 TAP_TAPCELL_ROW_321_2069
*10732 TAP_TAPCELL_ROW_321_2070
*10733 TAP_TAPCELL_ROW_321_2071
*10734 TAP_TAPCELL_ROW_321_2072
*10735 TAP_TAPCELL_ROW_321_2073
*10736 TAP_TAPCELL_ROW_321_2074
*10737 TAP_TAPCELL_ROW_321_2075
*10738 TAP_TAPCELL_ROW_321_2076
*10739 TAP_TAPCELL_ROW_321_2077
*10740 TAP_TAPCELL_ROW_321_2078
*10741 TAP_TAPCELL_ROW_321_2079
*10742 TAP_TAPCELL_ROW_321_2080
*10743 TAP_TAPCELL_ROW_321_2081
*10744 TAP_TAPCELL_ROW_321_2082
*10745 TAP_TAPCELL_ROW_321_2083
*10746 TAP_TAPCELL_ROW_321_2084
*10747 TAP_TAPCELL_ROW_321_2085
*10748 TAP_TAPCELL_ROW_321_2086
*10749 TAP_TAPCELL_ROW_321_2087
*10750 TAP_TAPCELL_ROW_321_2088
*10751 TAP_TAPCELL_ROW_321_2089
*10752 TAP_TAPCELL_ROW_321_2090
*10753 TAP_TAPCELL_ROW_321_2091
*10754 TAP_TAPCELL_ROW_321_2092
*10755 TAP_TAPCELL_ROW_321_2093
*10756 TAP_TAPCELL_ROW_321_2094
*10757 TAP_TAPCELL_ROW_321_2095
*10758 TAP_TAPCELL_ROW_321_2096
*10759 TAP_TAPCELL_ROW_321_2097
*10760 TAP_TAPCELL_ROW_322_2098
*10761 TAP_TAPCELL_ROW_322_2099
*10762 TAP_TAPCELL_ROW_322_2100
*10763 TAP_TAPCELL_ROW_322_2101
*10764 TAP_TAPCELL_ROW_322_2102
*10765 TAP_TAPCELL_ROW_322_2103
*10766 TAP_TAPCELL_ROW_322_2104
*10767 TAP_TAPCELL_ROW_322_2105
*10768 TAP_TAPCELL_ROW_322_2106
*10769 TAP_TAPCELL_ROW_322_2107
*10770 TAP_TAPCELL_ROW_322_2108
*10771 TAP_TAPCELL_ROW_322_2109
*10772 TAP_TAPCELL_ROW_322_2110
*10773 TAP_TAPCELL_ROW_322_2111
*10774 TAP_TAPCELL_ROW_322_2112
*10775 TAP_TAPCELL_ROW_322_2113
*10776 TAP_TAPCELL_ROW_322_2114
*10777 TAP_TAPCELL_ROW_322_2115
*10778 TAP_TAPCELL_ROW_322_2116
*10779 TAP_TAPCELL_ROW_322_2117
*10780 TAP_TAPCELL_ROW_322_2118
*10781 TAP_TAPCELL_ROW_322_2119
*10782 TAP_TAPCELL_ROW_322_2120
*10783 TAP_TAPCELL_ROW_322_2121
*10784 TAP_TAPCELL_ROW_322_2122
*10785 TAP_TAPCELL_ROW_322_2123
*10786 TAP_TAPCELL_ROW_322_2124
*10787 TAP_TAPCELL_ROW_323_2125
*10788 TAP_TAPCELL_ROW_323_2126
*10789 TAP_TAPCELL_ROW_323_2127
*10790 TAP_TAPCELL_ROW_323_2128
*10791 TAP_TAPCELL_ROW_323_2129
*10792 TAP_TAPCELL_ROW_323_2130
*10793 TAP_TAPCELL_ROW_323_2131
*10794 TAP_TAPCELL_ROW_323_2132
*10795 TAP_TAPCELL_ROW_323_2133
*10796 TAP_TAPCELL_ROW_323_2134
*10797 TAP_TAPCELL_ROW_323_2135
*10798 TAP_TAPCELL_ROW_323_2136
*10799 TAP_TAPCELL_ROW_323_2137
*10800 TAP_TAPCELL_ROW_323_2138
*10801 TAP_TAPCELL_ROW_323_2139
*10802 TAP_TAPCELL_ROW_323_2140
*10803 TAP_TAPCELL_ROW_323_2141
*10804 TAP_TAPCELL_ROW_323_2142
*10805 TAP_TAPCELL_ROW_323_2143
*10806 TAP_TAPCELL_ROW_323_2144
*10807 TAP_TAPCELL_ROW_323_2145
*10808 TAP_TAPCELL_ROW_323_2146
*10809 TAP_TAPCELL_ROW_323_2147
*10810 TAP_TAPCELL_ROW_323_2148
*10811 TAP_TAPCELL_ROW_323_2149
*10812 TAP_TAPCELL_ROW_323_2150
*10813 TAP_TAPCELL_ROW_324_2151
*10814 TAP_TAPCELL_ROW_324_2152
*10815 TAP_TAPCELL_ROW_324_2153
*10816 TAP_TAPCELL_ROW_324_2154
*10817 TAP_TAPCELL_ROW_324_2155
*10818 TAP_TAPCELL_ROW_324_2156
*10819 TAP_TAPCELL_ROW_324_2157
*10820 TAP_TAPCELL_ROW_324_2158
*10821 TAP_TAPCELL_ROW_324_2159
*10822 TAP_TAPCELL_ROW_324_2160
*10823 TAP_TAPCELL_ROW_324_2161
*10824 TAP_TAPCELL_ROW_324_2162
*10825 TAP_TAPCELL_ROW_324_2163
*10826 TAP_TAPCELL_ROW_324_2164
*10827 TAP_TAPCELL_ROW_324_2165
*10828 TAP_TAPCELL_ROW_324_2166
*10829 TAP_TAPCELL_ROW_324_2167
*10830 TAP_TAPCELL_ROW_324_2168
*10831 TAP_TAPCELL_ROW_324_2169
*10832 TAP_TAPCELL_ROW_324_2170
*10833 TAP_TAPCELL_ROW_324_2171
*10834 TAP_TAPCELL_ROW_324_2172
*10835 TAP_TAPCELL_ROW_324_2173
*10836 TAP_TAPCELL_ROW_324_2174
*10837 TAP_TAPCELL_ROW_324_2175
*10838 TAP_TAPCELL_ROW_324_2176
*10839 TAP_TAPCELL_ROW_324_2177
*10840 TAP_TAPCELL_ROW_325_2178
*10841 TAP_TAPCELL_ROW_325_2179
*10842 TAP_TAPCELL_ROW_325_2180
*10843 TAP_TAPCELL_ROW_325_2181
*10844 TAP_TAPCELL_ROW_325_2182
*10845 TAP_TAPCELL_ROW_325_2183
*10846 TAP_TAPCELL_ROW_325_2184
*10847 TAP_TAPCELL_ROW_325_2185
*10848 TAP_TAPCELL_ROW_325_2186
*10849 TAP_TAPCELL_ROW_325_2187
*10850 TAP_TAPCELL_ROW_325_2188
*10851 TAP_TAPCELL_ROW_325_2189
*10852 TAP_TAPCELL_ROW_325_2190
*10853 TAP_TAPCELL_ROW_325_2191
*10854 TAP_TAPCELL_ROW_325_2192
*10855 TAP_TAPCELL_ROW_325_2193
*10856 TAP_TAPCELL_ROW_325_2194
*10857 TAP_TAPCELL_ROW_325_2195
*10858 TAP_TAPCELL_ROW_325_2196
*10859 TAP_TAPCELL_ROW_325_2197
*10860 TAP_TAPCELL_ROW_325_2198
*10861 TAP_TAPCELL_ROW_325_2199
*10862 TAP_TAPCELL_ROW_325_2200
*10863 TAP_TAPCELL_ROW_325_2201
*10864 TAP_TAPCELL_ROW_325_2202
*10865 TAP_TAPCELL_ROW_325_2203
*10866 TAP_TAPCELL_ROW_326_2204
*10867 TAP_TAPCELL_ROW_326_2205
*10868 TAP_TAPCELL_ROW_326_2206
*10869 TAP_TAPCELL_ROW_326_2207
*10870 TAP_TAPCELL_ROW_326_2208
*10871 TAP_TAPCELL_ROW_326_2209
*10872 TAP_TAPCELL_ROW_326_2210
*10873 TAP_TAPCELL_ROW_326_2211
*10874 TAP_TAPCELL_ROW_326_2212
*10875 TAP_TAPCELL_ROW_326_2213
*10876 TAP_TAPCELL_ROW_326_2214
*10877 TAP_TAPCELL_ROW_326_2215
*10878 TAP_TAPCELL_ROW_326_2216
*10879 TAP_TAPCELL_ROW_326_2217
*10880 TAP_TAPCELL_ROW_326_2218
*10881 TAP_TAPCELL_ROW_326_2219
*10882 TAP_TAPCELL_ROW_326_2220
*10883 TAP_TAPCELL_ROW_326_2221
*10884 TAP_TAPCELL_ROW_326_2222
*10885 TAP_TAPCELL_ROW_326_2223
*10886 TAP_TAPCELL_ROW_326_2224
*10887 TAP_TAPCELL_ROW_326_2225
*10888 TAP_TAPCELL_ROW_326_2226
*10889 TAP_TAPCELL_ROW_326_2227
*10890 TAP_TAPCELL_ROW_326_2228
*10891 TAP_TAPCELL_ROW_326_2229
*10892 TAP_TAPCELL_ROW_326_2230
*10893 TAP_TAPCELL_ROW_327_2231
*10894 TAP_TAPCELL_ROW_327_2232
*10895 TAP_TAPCELL_ROW_327_2233
*10896 TAP_TAPCELL_ROW_327_2234
*10897 TAP_TAPCELL_ROW_327_2235
*10898 TAP_TAPCELL_ROW_327_2236
*10899 TAP_TAPCELL_ROW_327_2237
*10900 TAP_TAPCELL_ROW_327_2238
*10901 TAP_TAPCELL_ROW_327_2239
*10902 TAP_TAPCELL_ROW_327_2240
*10903 TAP_TAPCELL_ROW_327_2241
*10904 TAP_TAPCELL_ROW_327_2242
*10905 TAP_TAPCELL_ROW_327_2243
*10906 TAP_TAPCELL_ROW_327_2244
*10907 TAP_TAPCELL_ROW_327_2245
*10908 TAP_TAPCELL_ROW_327_2246
*10909 TAP_TAPCELL_ROW_327_2247
*10910 TAP_TAPCELL_ROW_327_2248
*10911 TAP_TAPCELL_ROW_327_2249
*10912 TAP_TAPCELL_ROW_327_2250
*10913 TAP_TAPCELL_ROW_327_2251
*10914 TAP_TAPCELL_ROW_327_2252
*10915 TAP_TAPCELL_ROW_327_2253
*10916 TAP_TAPCELL_ROW_327_2254
*10917 TAP_TAPCELL_ROW_327_2255
*10918 TAP_TAPCELL_ROW_327_2256
*10919 TAP_TAPCELL_ROW_327_2257
*10920 TAP_TAPCELL_ROW_327_2258
*10921 TAP_TAPCELL_ROW_327_2259
*10922 TAP_TAPCELL_ROW_327_2260
*10923 TAP_TAPCELL_ROW_327_2261
*10924 TAP_TAPCELL_ROW_327_2262
*10925 TAP_TAPCELL_ROW_327_2263
*10926 TAP_TAPCELL_ROW_327_2264
*10927 TAP_TAPCELL_ROW_327_2265
*10928 TAP_TAPCELL_ROW_327_2266
*10929 TAP_TAPCELL_ROW_327_2267
*10930 TAP_TAPCELL_ROW_327_2268
*10931 TAP_TAPCELL_ROW_327_2269
*10932 TAP_TAPCELL_ROW_327_2270
*10933 TAP_TAPCELL_ROW_327_2271
*10934 TAP_TAPCELL_ROW_327_2272
*10935 TAP_TAPCELL_ROW_327_2273
*10936 TAP_TAPCELL_ROW_327_2274
*10937 TAP_TAPCELL_ROW_327_2275
*10938 TAP_TAPCELL_ROW_327_2276
*10939 TAP_TAPCELL_ROW_327_2277
*10940 TAP_TAPCELL_ROW_327_2278
*10941 TAP_TAPCELL_ROW_327_2279
*10942 TAP_TAPCELL_ROW_327_2280
*10943 TAP_TAPCELL_ROW_327_2281
*10944 TAP_TAPCELL_ROW_327_2282
*10945 TAP_TAPCELL_ROW_327_2283
*10946 TAP_TAPCELL_ROW_32_2_1560
*10947 TAP_TAPCELL_ROW_32_3_2295
*10948 TAP_TAPCELL_ROW_34_2_1561
*10949 TAP_TAPCELL_ROW_34_3_2296
*10950 TAP_TAPCELL_ROW_36_2_1562
*10951 TAP_TAPCELL_ROW_36_3_2297
*10952 TAP_TAPCELL_ROW_38_2_1563
*10953 TAP_TAPCELL_ROW_38_3_2298
*10954 TAP_TAPCELL_ROW_3_1364
*10955 TAP_TAPCELL_ROW_3_1365
*10956 TAP_TAPCELL_ROW_3_1366
*10957 TAP_TAPCELL_ROW_3_1367
*10958 TAP_TAPCELL_ROW_3_1368
*10959 TAP_TAPCELL_ROW_3_1369
*10960 TAP_TAPCELL_ROW_3_1370
*10961 TAP_TAPCELL_ROW_3_1371
*10962 TAP_TAPCELL_ROW_3_1372
*10963 TAP_TAPCELL_ROW_3_1373
*10964 TAP_TAPCELL_ROW_3_1374
*10965 TAP_TAPCELL_ROW_3_1375
*10966 TAP_TAPCELL_ROW_3_1376
*10967 TAP_TAPCELL_ROW_3_1377
*10968 TAP_TAPCELL_ROW_3_1378
*10969 TAP_TAPCELL_ROW_3_1379
*10970 TAP_TAPCELL_ROW_3_1380
*10971 TAP_TAPCELL_ROW_3_1381
*10972 TAP_TAPCELL_ROW_3_1382
*10973 TAP_TAPCELL_ROW_3_1383
*10974 TAP_TAPCELL_ROW_3_1384
*10975 TAP_TAPCELL_ROW_3_1385
*10976 TAP_TAPCELL_ROW_3_1386
*10977 TAP_TAPCELL_ROW_3_1387
*10978 TAP_TAPCELL_ROW_3_1388
*10979 TAP_TAPCELL_ROW_3_1389
*10980 TAP_TAPCELL_ROW_40_2_1564
*10981 TAP_TAPCELL_ROW_40_3_2299
*10982 TAP_TAPCELL_ROW_42_2_1565
*10983 TAP_TAPCELL_ROW_42_3_2300
*10984 TAP_TAPCELL_ROW_44_2_1566
*10985 TAP_TAPCELL_ROW_44_3_2301
*10986 TAP_TAPCELL_ROW_46_2_1567
*10987 TAP_TAPCELL_ROW_46_3_2302
*10988 TAP_TAPCELL_ROW_48_2_1568
*10989 TAP_TAPCELL_ROW_48_3_2303
*10990 TAP_TAPCELL_ROW_4_1390
*10991 TAP_TAPCELL_ROW_4_1391
*10992 TAP_TAPCELL_ROW_4_1392
*10993 TAP_TAPCELL_ROW_4_1393
*10994 TAP_TAPCELL_ROW_4_1394
*10995 TAP_TAPCELL_ROW_4_1395
*10996 TAP_TAPCELL_ROW_4_1396
*10997 TAP_TAPCELL_ROW_4_1397
*10998 TAP_TAPCELL_ROW_4_1398
*10999 TAP_TAPCELL_ROW_4_1399
*11000 TAP_TAPCELL_ROW_4_1400
*11001 TAP_TAPCELL_ROW_4_1401
*11002 TAP_TAPCELL_ROW_4_1402
*11003 TAP_TAPCELL_ROW_4_1403
*11004 TAP_TAPCELL_ROW_4_1404
*11005 TAP_TAPCELL_ROW_4_1405
*11006 TAP_TAPCELL_ROW_4_1406
*11007 TAP_TAPCELL_ROW_4_1407
*11008 TAP_TAPCELL_ROW_4_1408
*11009 TAP_TAPCELL_ROW_4_1409
*11010 TAP_TAPCELL_ROW_4_1410
*11011 TAP_TAPCELL_ROW_4_1411
*11012 TAP_TAPCELL_ROW_4_1412
*11013 TAP_TAPCELL_ROW_4_1413
*11014 TAP_TAPCELL_ROW_4_1414
*11015 TAP_TAPCELL_ROW_4_1415
*11016 TAP_TAPCELL_ROW_4_1416
*11017 TAP_TAPCELL_ROW_50_2_1569
*11018 TAP_TAPCELL_ROW_50_3_2304
*11019 TAP_TAPCELL_ROW_52_2_1570
*11020 TAP_TAPCELL_ROW_52_3_2305
*11021 TAP_TAPCELL_ROW_54_2_1571
*11022 TAP_TAPCELL_ROW_54_3_2306
*11023 TAP_TAPCELL_ROW_56_2_1572
*11024 TAP_TAPCELL_ROW_56_3_2307
*11025 TAP_TAPCELL_ROW_58_2_1573
*11026 TAP_TAPCELL_ROW_58_3_2308
*11027 TAP_TAPCELL_ROW_5_1417
*11028 TAP_TAPCELL_ROW_5_1418
*11029 TAP_TAPCELL_ROW_5_1419
*11030 TAP_TAPCELL_ROW_5_1420
*11031 TAP_TAPCELL_ROW_5_1421
*11032 TAP_TAPCELL_ROW_5_1422
*11033 TAP_TAPCELL_ROW_5_1423
*11034 TAP_TAPCELL_ROW_5_1424
*11035 TAP_TAPCELL_ROW_5_1425
*11036 TAP_TAPCELL_ROW_5_1426
*11037 TAP_TAPCELL_ROW_5_1427
*11038 TAP_TAPCELL_ROW_5_1428
*11039 TAP_TAPCELL_ROW_5_1429
*11040 TAP_TAPCELL_ROW_5_1430
*11041 TAP_TAPCELL_ROW_5_1431
*11042 TAP_TAPCELL_ROW_5_1432
*11043 TAP_TAPCELL_ROW_5_1433
*11044 TAP_TAPCELL_ROW_5_1434
*11045 TAP_TAPCELL_ROW_5_1435
*11046 TAP_TAPCELL_ROW_5_1436
*11047 TAP_TAPCELL_ROW_5_1437
*11048 TAP_TAPCELL_ROW_5_1438
*11049 TAP_TAPCELL_ROW_5_1439
*11050 TAP_TAPCELL_ROW_5_1440
*11051 TAP_TAPCELL_ROW_5_1441
*11052 TAP_TAPCELL_ROW_5_1442
*11053 TAP_TAPCELL_ROW_60_2_1574
*11054 TAP_TAPCELL_ROW_60_3_2309
*11055 TAP_TAPCELL_ROW_62_2_1575
*11056 TAP_TAPCELL_ROW_62_3_2310
*11057 TAP_TAPCELL_ROW_64_2_1576
*11058 TAP_TAPCELL_ROW_64_3_2311
*11059 TAP_TAPCELL_ROW_66_2_1577
*11060 TAP_TAPCELL_ROW_66_3_2312
*11061 TAP_TAPCELL_ROW_68_2_1578
*11062 TAP_TAPCELL_ROW_68_3_2313
*11063 TAP_TAPCELL_ROW_6_1443
*11064 TAP_TAPCELL_ROW_6_1444
*11065 TAP_TAPCELL_ROW_6_1445
*11066 TAP_TAPCELL_ROW_6_1446
*11067 TAP_TAPCELL_ROW_6_1447
*11068 TAP_TAPCELL_ROW_6_1448
*11069 TAP_TAPCELL_ROW_6_1449
*11070 TAP_TAPCELL_ROW_6_1450
*11071 TAP_TAPCELL_ROW_6_1451
*11072 TAP_TAPCELL_ROW_6_1452
*11073 TAP_TAPCELL_ROW_6_1453
*11074 TAP_TAPCELL_ROW_6_1454
*11075 TAP_TAPCELL_ROW_6_1455
*11076 TAP_TAPCELL_ROW_6_1456
*11077 TAP_TAPCELL_ROW_6_1457
*11078 TAP_TAPCELL_ROW_6_1458
*11079 TAP_TAPCELL_ROW_6_1459
*11080 TAP_TAPCELL_ROW_6_1460
*11081 TAP_TAPCELL_ROW_6_1461
*11082 TAP_TAPCELL_ROW_6_1462
*11083 TAP_TAPCELL_ROW_6_1463
*11084 TAP_TAPCELL_ROW_6_1464
*11085 TAP_TAPCELL_ROW_6_1465
*11086 TAP_TAPCELL_ROW_6_1466
*11087 TAP_TAPCELL_ROW_6_1467
*11088 TAP_TAPCELL_ROW_6_1468
*11089 TAP_TAPCELL_ROW_6_1469
*11090 TAP_TAPCELL_ROW_70_2_1579
*11091 TAP_TAPCELL_ROW_70_3_2314
*11092 TAP_TAPCELL_ROW_72_2_1580
*11093 TAP_TAPCELL_ROW_72_3_2315
*11094 TAP_TAPCELL_ROW_74_2_1581
*11095 TAP_TAPCELL_ROW_74_3_2316
*11096 TAP_TAPCELL_ROW_76_2_1582
*11097 TAP_TAPCELL_ROW_76_3_2317
*11098 TAP_TAPCELL_ROW_78_2_1583
*11099 TAP_TAPCELL_ROW_78_3_2318
*11100 TAP_TAPCELL_ROW_7_1470
*11101 TAP_TAPCELL_ROW_7_1471
*11102 TAP_TAPCELL_ROW_7_1472
*11103 TAP_TAPCELL_ROW_7_1473
*11104 TAP_TAPCELL_ROW_7_1474
*11105 TAP_TAPCELL_ROW_7_1475
*11106 TAP_TAPCELL_ROW_7_1476
*11107 TAP_TAPCELL_ROW_7_1477
*11108 TAP_TAPCELL_ROW_7_1478
*11109 TAP_TAPCELL_ROW_7_1479
*11110 TAP_TAPCELL_ROW_7_1480
*11111 TAP_TAPCELL_ROW_7_1481
*11112 TAP_TAPCELL_ROW_7_1482
*11113 TAP_TAPCELL_ROW_7_1483
*11114 TAP_TAPCELL_ROW_7_1484
*11115 TAP_TAPCELL_ROW_7_1485
*11116 TAP_TAPCELL_ROW_7_1486
*11117 TAP_TAPCELL_ROW_7_1487
*11118 TAP_TAPCELL_ROW_7_1488
*11119 TAP_TAPCELL_ROW_7_1489
*11120 TAP_TAPCELL_ROW_7_1490
*11121 TAP_TAPCELL_ROW_7_1491
*11122 TAP_TAPCELL_ROW_7_1492
*11123 TAP_TAPCELL_ROW_7_1493
*11124 TAP_TAPCELL_ROW_7_1494
*11125 TAP_TAPCELL_ROW_7_1495
*11126 TAP_TAPCELL_ROW_80_2_1584
*11127 TAP_TAPCELL_ROW_80_3_2319
*11128 TAP_TAPCELL_ROW_82_2_1585
*11129 TAP_TAPCELL_ROW_82_3_2320
*11130 TAP_TAPCELL_ROW_84_2_1586
*11131 TAP_TAPCELL_ROW_84_3_2321
*11132 TAP_TAPCELL_ROW_86_2_1587
*11133 TAP_TAPCELL_ROW_86_3_2322
*11134 TAP_TAPCELL_ROW_88_2_1588
*11135 TAP_TAPCELL_ROW_88_3_2323
*11136 TAP_TAPCELL_ROW_8_1496
*11137 TAP_TAPCELL_ROW_8_1497
*11138 TAP_TAPCELL_ROW_8_1498
*11139 TAP_TAPCELL_ROW_8_1499
*11140 TAP_TAPCELL_ROW_8_1500
*11141 TAP_TAPCELL_ROW_8_1501
*11142 TAP_TAPCELL_ROW_8_1502
*11143 TAP_TAPCELL_ROW_8_1503
*11144 TAP_TAPCELL_ROW_8_1504
*11145 TAP_TAPCELL_ROW_8_1505
*11146 TAP_TAPCELL_ROW_8_1506
*11147 TAP_TAPCELL_ROW_8_1507
*11148 TAP_TAPCELL_ROW_8_1508
*11149 TAP_TAPCELL_ROW_8_1509
*11150 TAP_TAPCELL_ROW_8_1510
*11151 TAP_TAPCELL_ROW_8_1511
*11152 TAP_TAPCELL_ROW_8_1512
*11153 TAP_TAPCELL_ROW_8_1513
*11154 TAP_TAPCELL_ROW_8_1514
*11155 TAP_TAPCELL_ROW_8_1515
*11156 TAP_TAPCELL_ROW_8_1516
*11157 TAP_TAPCELL_ROW_8_1517
*11158 TAP_TAPCELL_ROW_8_1518
*11159 TAP_TAPCELL_ROW_8_1519
*11160 TAP_TAPCELL_ROW_8_1520
*11161 TAP_TAPCELL_ROW_8_1521
*11162 TAP_TAPCELL_ROW_8_1522
*11163 TAP_TAPCELL_ROW_8_1523
*11164 TAP_TAPCELL_ROW_8_1524
*11165 TAP_TAPCELL_ROW_8_1525
*11166 TAP_TAPCELL_ROW_8_1526
*11167 TAP_TAPCELL_ROW_8_1527
*11168 TAP_TAPCELL_ROW_8_1528
*11169 TAP_TAPCELL_ROW_8_1529
*11170 TAP_TAPCELL_ROW_8_1530
*11171 TAP_TAPCELL_ROW_8_1531
*11172 TAP_TAPCELL_ROW_8_1532
*11173 TAP_TAPCELL_ROW_8_1533
*11174 TAP_TAPCELL_ROW_8_1534
*11175 TAP_TAPCELL_ROW_8_1535
*11176 TAP_TAPCELL_ROW_8_1536
*11177 TAP_TAPCELL_ROW_8_1537
*11178 TAP_TAPCELL_ROW_8_1538
*11179 TAP_TAPCELL_ROW_8_1539
*11180 TAP_TAPCELL_ROW_8_1540
*11181 TAP_TAPCELL_ROW_8_1541
*11182 TAP_TAPCELL_ROW_8_1542
*11183 TAP_TAPCELL_ROW_8_1543
*11184 TAP_TAPCELL_ROW_8_1544
*11185 TAP_TAPCELL_ROW_8_1545
*11186 TAP_TAPCELL_ROW_8_1546
*11187 TAP_TAPCELL_ROW_8_1547
*11188 TAP_TAPCELL_ROW_8_1548
*11189 TAP_TAPCELL_ROW_90_2_1589
*11190 TAP_TAPCELL_ROW_90_3_2324
*11191 TAP_TAPCELL_ROW_92_2_1590
*11192 TAP_TAPCELL_ROW_92_3_2325
*11193 TAP_TAPCELL_ROW_94_2_1591
*11194 TAP_TAPCELL_ROW_94_3_2326
*11195 TAP_TAPCELL_ROW_96_2_1592
*11196 TAP_TAPCELL_ROW_96_3_2327
*11197 TAP_TAPCELL_ROW_98_2_1593
*11198 TAP_TAPCELL_ROW_98_3_2328
*11199 _123_
*11200 _124_
*11201 _125_
*11202 _126_
*11203 _127_
*11204 _128_
*11205 _129_
*11206 _130_
*11207 _131_
*11208 _132_
*11209 _133_
*11210 _134_
*11211 _135_
*11212 _136_
*11213 _137_
*11214 _138_
*11215 _139_
*11216 _140_
*11217 _141_
*11218 _142_
*11219 _143_
*11220 _144_
*11221 _145_
*11222 _146_
*11223 _147_
*11224 _148_
*11225 _149_
*11226 _150_
*11227 _151_
*11228 _152_
*11229 _153_
*11230 _154_
*11231 _155_
*11232 _156_
*11233 _157_
*11234 _158_
*11235 _159_
*11236 _160_
*11237 _161_
*11238 _162_
*11239 _163_
*11240 _164_
*11241 _165_
*11242 _166_
*11243 _167_
*11244 _168_
*11245 _169_
*11246 _170_
*11247 _171_
*11248 _172_
*11249 _173_
*11250 _174_
*11251 _175_
*11252 _176_
*11253 _177_
*11254 _178_
*11255 _179_
*11256 _180_
*11257 _181_
*11258 _182_
*11259 _183_
*11260 _184_
*11261 _185_
*11262 _186_
*11263 _187_
*11264 _188_
*11265 _189_
*11266 _190_
*11267 _191_
*11268 _192_
*11269 _193_
*11270 _194_
*11271 _195_
*11272 _196_
*11273 _197_
*11274 _198_
*11275 _199_
*11276 _200_
*11277 _201_
*11278 _202_
*11279 _203_
*11280 _204_
*11281 _205_
*11282 _206_
*11283 _207_
*11284 _208_
*11285 _209_
*11286 _210_
*11287 _211_
*11288 _212_
*11289 _213_
*11290 _214_
*11291 _215_
*11292 _216_
*11293 _217_
*11294 _218_
*11295 _219_
*11296 _220_
*11297 _221_
*11298 _222_
*11299 _223_
*11300 _224_
*11301 _225_
*11302 _226_
*11303 _227_
*11304 _228_
*11305 _229_
*11306 _230_
*11307 _231_
*11308 _232_
*11309 _233_
*11310 _234_
*11311 _235_
*11312 _236_
*11313 _237_
*11314 _238_
*11315 _239_
*11316 _240_
*11317 _241_
*11318 _242_
*11319 _243_
*11320 _244_
*11321 _245_
*11322 _246_
*11323 _247_
*11324 _248_
*11325 clkbuf_0_wb_clk_i
*11326 clkbuf_1_0__f_wb_clk_i
*11327 clkbuf_1_1__f_wb_clk_i
*11328 hold1
*11329 hold10
*11330 hold100
*11331 hold101
*11332 hold102
*11333 hold103
*11334 hold104
*11335 hold105
*11336 hold106
*11337 hold107
*11338 hold108
*11339 hold109
*11340 hold11
*11341 hold110
*11342 hold111
*11343 hold112
*11344 hold113
*11345 hold114
*11346 hold115
*11347 hold116
*11348 hold117
*11349 hold118
*11350 hold119
*11351 hold12
*11352 hold120
*11353 hold121
*11354 hold122
*11355 hold123
*11356 hold124
*11357 hold125
*11358 hold126
*11359 hold127
*11360 hold128
*11361 hold129
*11362 hold13
*11363 hold130
*11364 hold131
*11365 hold132
*11366 hold133
*11367 hold134
*11368 hold135
*11369 hold136
*11370 hold137
*11371 hold138
*11372 hold139
*11373 hold14
*11374 hold140
*11375 hold141
*11376 hold142
*11377 hold143
*11378 hold144
*11379 hold145
*11380 hold146
*11381 hold147
*11382 hold148
*11383 hold149
*11384 hold15
*11385 hold150
*11386 hold151
*11387 hold152
*11388 hold153
*11389 hold154
*11390 hold155
*11391 hold156
*11392 hold157
*11393 hold158
*11394 hold159
*11395 hold16
*11396 hold160
*11397 hold161
*11398 hold162
*11399 hold163
*11400 hold164
*11401 hold165
*11402 hold166
*11403 hold167
*11404 hold168
*11405 hold169
*11406 hold17
*11407 hold170
*11408 hold171
*11409 hold172
*11410 hold173
*11411 hold174
*11412 hold175
*11413 hold176
*11414 hold177
*11415 hold178
*11416 hold179
*11417 hold18
*11418 hold180
*11419 hold181
*11420 hold182
*11421 hold183
*11422 hold184
*11423 hold185
*11424 hold186
*11425 hold187
*11426 hold19
*11427 hold2
*11428 hold20
*11429 hold21
*11430 hold22
*11431 hold23
*11432 hold24
*11433 hold25
*11434 hold26
*11435 hold27
*11436 hold28
*11437 hold29
*11438 hold3
*11439 hold30
*11440 hold31
*11441 hold32
*11442 hold33
*11443 hold34
*11444 hold35
*11445 hold36
*11446 hold37
*11447 hold38
*11448 hold39
*11449 hold4
*11450 hold40
*11451 hold41
*11452 hold42
*11453 hold43
*11454 hold44
*11455 hold45
*11456 hold46
*11457 hold47
*11458 hold48
*11459 hold49
*11460 hold5
*11461 hold50
*11462 hold51
*11463 hold52
*11464 hold53
*11465 hold54
*11466 hold55
*11467 hold56
*11468 hold57
*11469 hold58
*11470 hold59
*11471 hold6
*11472 hold60
*11473 hold61
*11474 hold62
*11475 hold63
*11476 hold64
*11477 hold65
*11478 hold66
*11479 hold67
*11480 hold68
*11481 hold69
*11482 hold7
*11483 hold70
*11484 hold71
*11485 hold72
*11486 hold73
*11487 hold74
*11488 hold75
*11489 hold76
*11490 hold77
*11491 hold78
*11492 hold79
*11493 hold8
*11494 hold80
*11495 hold81
*11496 hold82
*11497 hold83
*11498 hold84
*11499 hold85
*11500 hold86
*11501 hold87
*11502 hold88
*11503 hold89
*11504 hold9
*11505 hold90
*11506 hold91
*11507 hold92
*11508 hold93
*11509 hold94
*11510 hold95
*11511 hold96
*11512 hold97
*11513 hold98
*11514 hold99
*11515 i_sram\.sram0
*11516 i_sram\.sram0_113
*11517 i_sram\.sram0_114
*11518 i_sram\.sram0_89
*11519 i_sram\.sram0_90
*11520 i_sram\.sram0_91
*11521 i_sram\.sram0_92
*11522 i_sram\.sram0_93
*11523 i_sram\.sram0_94
*11524 i_sram\.sram1
*11525 i_sram\.sram1_100
*11526 i_sram\.sram1_115
*11527 i_sram\.sram1_116
*11528 i_sram\.sram1_95
*11529 i_sram\.sram1_96
*11530 i_sram\.sram1_97
*11531 i_sram\.sram1_98
*11532 i_sram\.sram1_99
*11533 i_sram\.sram2
*11534 i_sram\.sram2_101
*11535 i_sram\.sram2_102
*11536 i_sram\.sram2_103
*11537 i_sram\.sram2_104
*11538 i_sram\.sram2_105
*11539 i_sram\.sram2_106
*11540 i_sram\.sram2_117
*11541 i_sram\.sram2_118
*11542 i_sram\.sram3
*11543 i_sram\.sram3_107
*11544 i_sram\.sram3_108
*11545 i_sram\.sram3_109
*11546 i_sram\.sram3_110
*11547 i_sram\.sram3_111
*11548 i_sram\.sram3_112
*11549 i_sram\.sram3_119
*11550 i_sram\.sram3_120
*11551 input1
*11552 input10
*11553 input11
*11554 input12
*11555 input13
*11556 input14
*11557 input15
*11558 input16
*11559 input17
*11560 input18
*11561 input19
*11562 input2
*11563 input20
*11564 input21
*11565 input22
*11566 input23
*11567 input24
*11568 input25
*11569 input26
*11570 input27
*11571 input28
*11572 input29
*11573 input3
*11574 input30
*11575 input31
*11576 input32
*11577 input33
*11578 input34
*11579 input35
*11580 input36
*11581 input37
*11582 input38
*11583 input39
*11584 input4
*11585 input40
*11586 input41
*11587 input42
*11588 input43
*11589 input44
*11590 input45
*11591 input46
*11592 input47
*11593 input48
*11594 input49
*11595 input5
*11596 input50
*11597 input51
*11598 input52
*11599 input6
*11600 input7
*11601 input8
*11602 input9
*11603 load_slew86
*11604 load_slew87
*11605 load_slew88
*11606 output53
*11607 output54
*11608 output55
*11609 output56
*11610 output57
*11611 output58
*11612 output59
*11613 output60
*11614 output61
*11615 output62
*11616 output63
*11617 output64
*11618 output65
*11619 output66
*11620 output67
*11621 output68
*11622 output69
*11623 output70
*11624 output71
*11625 output72
*11626 output73
*11627 output74
*11628 output75
*11629 output76
*11630 output77
*11631 output78
*11632 output79
*11633 output80
*11634 output81
*11635 output82
*11636 output83
*11637 output84
*11638 output85

*PORTS
wb_clk_i I
wb_rst_i I
wbs_ack_o O
wbs_adr_i[0] I
wbs_adr_i[10] I
wbs_adr_i[11] I
wbs_adr_i[12] I
wbs_adr_i[13] I
wbs_adr_i[14] I
wbs_adr_i[15] I
wbs_adr_i[16] I
wbs_adr_i[17] I
wbs_adr_i[18] I
wbs_adr_i[19] I
wbs_adr_i[1] I
wbs_adr_i[20] I
wbs_adr_i[21] I
wbs_adr_i[22] I
wbs_adr_i[23] I
wbs_adr_i[24] I
wbs_adr_i[25] I
wbs_adr_i[26] I
wbs_adr_i[27] I
wbs_adr_i[28] I
wbs_adr_i[29] I
wbs_adr_i[2] I
wbs_adr_i[30] I
wbs_adr_i[31] I
wbs_adr_i[3] I
wbs_adr_i[4] I
wbs_adr_i[5] I
wbs_adr_i[6] I
wbs_adr_i[7] I
wbs_adr_i[8] I
wbs_adr_i[9] I
wbs_cyc_i I
wbs_dat_i[0] I
wbs_dat_i[10] I
wbs_dat_i[11] I
wbs_dat_i[12] I
wbs_dat_i[13] I
wbs_dat_i[14] I
wbs_dat_i[15] I
wbs_dat_i[16] I
wbs_dat_i[17] I
wbs_dat_i[18] I
wbs_dat_i[19] I
wbs_dat_i[1] I
wbs_dat_i[20] I
wbs_dat_i[21] I
wbs_dat_i[22] I
wbs_dat_i[23] I
wbs_dat_i[24] I
wbs_dat_i[25] I
wbs_dat_i[26] I
wbs_dat_i[27] I
wbs_dat_i[28] I
wbs_dat_i[29] I
wbs_dat_i[2] I
wbs_dat_i[30] I
wbs_dat_i[31] I
wbs_dat_i[3] I
wbs_dat_i[4] I
wbs_dat_i[5] I
wbs_dat_i[6] I
wbs_dat_i[7] I
wbs_dat_i[8] I
wbs_dat_i[9] I
wbs_dat_o[0] O
wbs_dat_o[10] O
wbs_dat_o[11] O
wbs_dat_o[12] O
wbs_dat_o[13] O
wbs_dat_o[14] O
wbs_dat_o[15] O
wbs_dat_o[16] O
wbs_dat_o[17] O
wbs_dat_o[18] O
wbs_dat_o[19] O
wbs_dat_o[1] O
wbs_dat_o[20] O
wbs_dat_o[21] O
wbs_dat_o[22] O
wbs_dat_o[23] O
wbs_dat_o[24] O
wbs_dat_o[25] O
wbs_dat_o[26] O
wbs_dat_o[27] O
wbs_dat_o[28] O
wbs_dat_o[29] O
wbs_dat_o[2] O
wbs_dat_o[30] O
wbs_dat_o[31] O
wbs_dat_o[3] O
wbs_dat_o[4] O
wbs_dat_o[5] O
wbs_dat_o[6] O
wbs_dat_o[7] O
wbs_dat_o[8] O
wbs_dat_o[9] O
wbs_sel_i[0] I
wbs_sel_i[1] I
wbs_sel_i[2] I
wbs_sel_i[3] I
wbs_stb_i I
wbs_we_i I

*D_NET *3 0.128309
*CONN
*P wb_clk_i I
*I *1201:DIODE I *D sky130_fd_sc_hd__diode_2
*I *11325:A I *D sky130_fd_sc_hd__clkbuf_16
*CAP
1 wb_clk_i 0.00895328
2 *1201:DIODE 2.20523e-05
3 *11325:A 0
4 *3:35 0.00655096
5 *3:25 0.0303481
6 *3:23 0.0327725
7 *1201:DIODE *292:39 7.33728e-05
8 *1201:DIODE *306:36 0.000123319
9 *3:23 *11324:CLK 0.000212024
10 *3:23 *11551:A 0
11 *3:23 *127:14 0.000562298
12 *3:23 *145:41 0.000234212
13 *3:23 *205:29 0
14 *3:23 *216:29 2.29222e-05
15 *3:23 *227:27 0.00465102
16 *3:23 *230:27 0.00101762
17 *3:23 *233:27 0.000321076
18 *3:23 *393:12 0.000321076
19 *3:25 *11202:C 0.000102025
20 *3:25 *11204:B 0.000399658
21 *3:25 *11421:A 0.000200748
22 *3:25 *120:10 0.00225392
23 *3:25 *143:41 0.000154286
24 *3:25 *159:10 0.00177225
25 *3:25 *161:10 0.00100151
26 *3:25 *162:10 0.000176741
27 *3:25 *163:10 0.00223391
28 *3:25 *196:22 0.0131727
29 *3:25 *199:74 0.000258848
30 *3:25 *222:28 0.000110459
31 *3:25 *224:36 0.000110459
32 *3:25 *239:69 0.000134139
33 *3:25 *240:22 0.000405172
34 *3:25 *242:31 0.000228267
35 *3:25 *245:26 0.000555252
36 *3:25 *298:22 0.000264073
37 *3:25 *298:30 0.000137349
38 *3:25 *308:27 0.000106321
39 *3:25 *332:19 0.000102817
40 *3:25 *363:66 0.00574538
41 *3:25 *563:38 0.000284953
42 *3:25 *564:10 0.000874749
43 *3:25 *589:26 0.000764471
44 *3:25 *602:12 0.000366806
45 *3:25 *603:10 0.000156928
46 *3:35 *1005:DIODE 0.000260947
47 *3:35 *11281:A0 0.000242102
48 *3:35 *11281:S 0.000416602
49 *3:35 *11286:A0 0.000106897
50 *3:35 *11286:A1 0.000165928
51 *3:35 *11327:A 0.000158577
52 *3:35 *166:28 0.000116624
53 *3:35 *171:67 0.000561741
54 *3:35 *279:25 0.00119987
55 *3:35 *284:31 0.000287052
56 *3:35 *292:37 0.000182968
57 *3:35 *306:40 0.000406544
58 *3:35 *306:42 0.000867411
59 *3:35 *313:47 0.00062598
60 *3:35 *330:35 0.00444992
*RES
1 wb_clk_i *3:23 31.4758 
2 *3:23 *3:25 51.8041 
3 *3:25 *3:35 21.3623 
4 *3:35 *11325:A 1.6 
5 *3:35 *1201:DIODE 2.74 
*END

*D_NET *4 0.000336722
*CONN
*P wb_rst_i I
*I *11551:A I *D sky130_fd_sc_hd__buf_1
*CAP
1 wb_rst_i 0.000157144
2 *11551:A 0.000157144
3 *11551:A wbs_ack_o 0
4 *11551:A *11323:A 2.24336e-05
5 *3:23 *11551:A 0
*RES
1 wb_rst_i *11551:A 6.27 
*END

*D_NET *5 0.000701035
*CONN
*P wbs_ack_o O
*I *11606:X O *D sky130_fd_sc_hd__buf_12
*CAP
1 wbs_ack_o 0.000350517
2 *11606:X 0.000350517
3 wbs_ack_o *11323:A 0
4 *11551:A wbs_ack_o 0
*RES
1 *11606:X wbs_ack_o 9 
*END

*D_NET *7 0.00384
*CONN
*P wbs_adr_i[10] I
*I *11394:A I *D sky130_fd_sc_hd__dlygate4sd3_1
*CAP
1 wbs_adr_i[10] 0.00110823
2 *11394:A 0.00110823
3 *11394:A wbs_dat_o[10] 0.00049857
4 *11394:A wbs_dat_o[9] 0
5 *11394:A *11484:A 5.38017e-05
6 *11394:A *585:12 0.000273277
7 *11394:A *595:18 0.000463819
8 *11394:A *601:24 0.000138419
9 *11394:A *604:14 0.000195661
*RES
1 wbs_adr_i[10] *11394:A 25.765 
*END

*D_NET *8 0.00350973
*CONN
*P wbs_adr_i[11] I
*I *11397:A I *D sky130_fd_sc_hd__dlygate4sd3_1
*CAP
1 wbs_adr_i[11] 0.000909018
2 *11397:A 0.000909018
3 *11397:A wbs_dat_o[10] 0
4 *11397:A *11328:A 0.000300958
5 *11397:A *11481:A 0
6 *11397:A *11608:A 0
7 *11397:A *117:69 0.000452552
8 *11397:A *122:56 7.27003e-05
9 *11397:A *338:26 0.000341885
10 *11397:A *338:30 4.16262e-05
11 *11397:A *371:26 0.00013521
12 *11397:A *404:18 6.95597e-05
13 *11397:A *559:10 0.000146088
14 *11397:A *584:34 0.000122801
15 *11397:A *589:20 8.30853e-06
*RES
1 wbs_adr_i[11] *11397:A 25.81 
*END

*D_NET *9 0.00119926
*CONN
*P wbs_adr_i[12] I
*I *11419:A I *D sky130_fd_sc_hd__dlygate4sd3_1
*CAP
1 wbs_adr_i[12] 0.000457318
2 *11419:A 0.000457318
3 *11419:A *11479:A 0
4 *11419:A *360:14 0.000201508
5 *11419:A *415:10 0
6 *11419:A *598:14 8.31173e-05
*RES
1 wbs_adr_i[12] *11419:A 10.59 
*END

*D_NET *10 0.00171743
*CONN
*P wbs_adr_i[13] I
*I *11423:A I *D sky130_fd_sc_hd__dlygate4sd3_1
*CAP
1 wbs_adr_i[13] 0.000320075
2 *11423:A 0.000320075
3 *11423:A *11431:A 0
4 *11423:A *11475:A 0
5 *11423:A *11480:A 0
6 *11423:A *11560:A 7.16524e-05
7 *11423:A *11611:A 0.000502814
8 *11423:A *360:14 0.000502814
9 *11423:A *426:10 0
*RES
1 wbs_adr_i[13] *11423:A 12.45 
*END

*D_NET *28 0.00224722
*CONN
*P wbs_adr_i[2] I
*I *11390:A I *D sky130_fd_sc_hd__dlygate4sd3_1
*CAP
1 wbs_adr_i[2] 0.000729894
2 *11390:A 0.000729894
3 *11390:A *745:DIODE 4.66742e-05
4 *11390:A *11324:RESET_B 1.91597e-05
5 *11390:A *11418:A 0
6 *11390:A *11512:A 0
7 *11390:A *11629:A 0.0007216
8 *11390:A *586:22 0
*RES
1 wbs_adr_i[2] *11390:A 17.295 
*END

*D_NET *31 0.00236528
*CONN
*P wbs_adr_i[3] I
*I *11381:A I *D sky130_fd_sc_hd__dlygate4sd3_1
*CAP
1 wbs_adr_i[3] 0.000614742
2 *11381:A 0.000614742
3 *11381:A *11342:A 0
4 *11381:A *11411:A 0
5 *11381:A *11501:A 0
6 *11381:A *11502:A 0.000525705
7 *11381:A *591:28 0
8 *11381:A *595:16 0
9 *11381:A *600:16 0.000305046
10 *11381:A *626:8 0.000305046
11 *11381:A *627:14 0
*RES
1 wbs_adr_i[3] *11381:A 16.845 
*END

*D_NET *32 0.00186032
*CONN
*P wbs_adr_i[4] I
*I *11377:A I *D sky130_fd_sc_hd__dlygate4sd3_1
*CAP
1 wbs_adr_i[4] 0.000553669
2 *11377:A 0.000553669
3 *11377:A *11339:A 8.57348e-05
4 *11377:A *11378:A 0.00034084
5 *11377:A *11414:A 0
6 *11377:A *591:51 0.000163204
7 *11377:A *601:12 0.000163204
*RES
1 wbs_adr_i[4] *11377:A 13.425 
*END

*D_NET *33 0.00165195
*CONN
*P wbs_adr_i[5] I
*I *11372:A I *D sky130_fd_sc_hd__dlygate4sd3_1
*CAP
1 wbs_adr_i[5] 0.00044019
2 *11372:A 0.00044019
3 *11372:A wbs_dat_o[4] 8.247e-05
4 *11372:A *11335:A 5.15528e-05
5 *11372:A *11634:A 0.000637548
*RES
1 wbs_adr_i[5] *11372:A 12.585 
*END

*D_NET *34 0.00146668
*CONN
*P wbs_adr_i[6] I
*I *11379:A I *D sky130_fd_sc_hd__dlygate4sd3_1
*CAP
1 wbs_adr_i[6] 0.000559041
2 *11379:A 0.000559041
3 *11379:A wbs_dat_o[5] 4.82919e-05
4 *11379:A *11333:A 0.0001276
5 *11379:A *11634:A 0.000172705
*RES
1 wbs_adr_i[6] *11379:A 14.1 
*END

*D_NET *35 0.00140451
*CONN
*P wbs_adr_i[7] I
*I *11383:A I *D sky130_fd_sc_hd__dlygate4sd3_1
*CAP
1 wbs_adr_i[7] 0.000481067
2 *11383:A 0.000481067
3 *11383:A wbs_dat_o[6] 0
4 *11383:A *11490:A 0
5 *11383:A *597:10 0.00028442
6 *11383:A *599:12 0.000157959
*RES
1 wbs_adr_i[7] *11383:A 12.42 
*END

*D_NET *36 0.000957888
*CONN
*P wbs_adr_i[8] I
*I *11386:A I *D sky130_fd_sc_hd__dlygate4sd3_1
*CAP
1 wbs_adr_i[8] 0.000413522
2 *11386:A 0.000413522
3 *11386:A wbs_dat_o[7] 0
4 *11386:A *11514:A 0
5 *11386:A *11589:A 0
6 *11386:A *11638:A 0.000103329
7 *11386:A *599:12 2.75145e-05
8 *11386:A *604:12 0
*RES
1 wbs_adr_i[8] *11386:A 10.35 
*END

*D_NET *37 0.00259736
*CONN
*P wbs_adr_i[9] I
*I *11392:A I *D sky130_fd_sc_hd__dlygate4sd3_1
*CAP
1 wbs_adr_i[9] 0.000568996
2 *11392:A 0.000568996
3 *11392:A wbs_dat_o[8] 0
4 *11392:A *11460:A 0.000622215
5 *11392:A *11487:A 0.000125883
6 *11392:A *11488:A 0
7 *11392:A *11510:A 4.99619e-05
8 *11392:A *11590:A 0.000105897
9 *11392:A *584:34 0
10 *11392:A *599:12 0.000509187
11 *11392:A *627:24 4.62198e-05
*RES
1 wbs_adr_i[9] *11392:A 18.525 
*END

*D_NET *38 0.000372232
*CONN
*P wbs_cyc_i I
*I *11556:A I *D sky130_fd_sc_hd__clkbuf_2
*CAP
1 wbs_cyc_i 0.000161557
2 *11556:A 0.000161557
3 *11556:A *11597:A 0
4 *11556:A *382:14 4.91189e-05
*RES
1 wbs_cyc_i *11556:A 6.36 
*END

*D_NET *39 0.0006227
*CONN
*P wbs_dat_i[0] I
*I *11344:A I *D sky130_fd_sc_hd__dlygate4sd3_1
*CAP
1 wbs_dat_i[0] 0.000302162
2 *11344:A 0.000302162
3 *11344:A wbs_dat_o[0] 0
4 *11344:A *11440:A 1.83756e-05
*RES
1 wbs_dat_i[0] *11344:A 8.34 
*END

*D_NET *40 0.00205893
*CONN
*P wbs_dat_i[10] I
*I *11484:A I *D sky130_fd_sc_hd__dlygate4sd3_1
*CAP
1 wbs_dat_i[10] 0.000655835
2 *11484:A 0.000655835
3 *11484:A *11211:A 1.83975e-05
4 *11484:A *11213:A 5.20903e-05
5 *11484:A *11396:A 2.49416e-05
6 *11484:A *11506:A 0
7 *11484:A *11591:A 0.000503638
8 *11484:A *117:12 4.77757e-05
9 *11484:A *338:26 4.66108e-05
10 *11394:A *11484:A 5.38017e-05
*RES
1 wbs_dat_i[10] *11484:A 14.985 
*END

*D_NET *41 0.00153007
*CONN
*P wbs_dat_i[11] I
*I *11481:A I *D sky130_fd_sc_hd__dlygate4sd3_1
*CAP
1 wbs_dat_i[11] 0.000408983
2 *11481:A 0.000408983
3 *11481:A wbs_dat_o[11] 0
4 *11481:A *11506:A 0.00011379
5 *11481:A *448:14 0.000271074
6 *11481:A *559:10 0.000171219
7 *11481:A *599:12 0.000156019
8 *11397:A *11481:A 0
*RES
1 wbs_dat_i[11] *11481:A 12.42 
*END

*D_NET *42 0.00169674
*CONN
*P wbs_dat_i[12] I
*I *11479:A I *D sky130_fd_sc_hd__dlygate4sd3_1
*CAP
1 wbs_dat_i[12] 0.000421593
2 *11479:A 0.000421593
3 *11479:A wbs_dat_o[12] 0
4 *11479:A *11483:A 0.000158174
5 *11479:A *448:14 0.000347689
6 *11479:A *578:12 0
7 *11479:A *589:14 0.000347689
8 *11419:A *11479:A 0
*RES
1 wbs_dat_i[12] *11479:A 13.11 
*END

*D_NET *43 0.00111086
*CONN
*P wbs_dat_i[13] I
*I *11475:A I *D sky130_fd_sc_hd__dlygate4sd3_1
*CAP
1 wbs_dat_i[13] 0.000478136
2 *11475:A 0.000478136
3 *11475:A wbs_dat_o[13] 0
4 *11475:A *11480:A 0
5 *11475:A *11595:A 2.96845e-05
6 *11475:A *448:14 0.0001249
7 *11423:A *11475:A 0
*RES
1 wbs_dat_i[13] *11475:A 11.04 
*END

*D_NET *44 0.000837224
*CONN
*P wbs_dat_i[14] I
*I *11473:A I *D sky130_fd_sc_hd__dlygate4sd3_1
*CAP
1 wbs_dat_i[14] 0.000293712
2 *11473:A 0.000293712
3 *11473:A wbs_dat_o[14] 0
4 *11473:A *11561:A 0
5 *11473:A *11612:A 0.0001249
6 *11473:A *360:14 0.0001249
*RES
1 wbs_dat_i[14] *11473:A 9 
*END

*D_NET *45 0.00082022
*CONN
*P wbs_dat_i[15] I
*I *11468:A I *D sky130_fd_sc_hd__dlygate4sd3_1
*CAP
1 wbs_dat_i[15] 0.000244715
2 *11468:A 0.000244715
3 *11468:A wbs_dat_o[15] 0
4 *11468:A *11613:A 0.0001249
5 *11468:A *608:12 0.00020589
*RES
1 wbs_dat_i[15] *11468:A 9 
*END

*D_NET *46 0.00086256
*CONN
*P wbs_dat_i[16] I
*I *11355:A I *D sky130_fd_sc_hd__dlygate4sd3_1
*CAP
1 wbs_dat_i[16] 0.000222659
2 *11355:A 0.000222659
3 *11355:A wbs_dat_o[16] 0
4 *11355:A *11356:A 0
5 *11355:A *360:22 5.05521e-05
6 *11355:A *471:26 0
7 *11355:A *585:20 0.000366691
*RES
1 wbs_dat_i[16] *11355:A 8.655 
*END

*D_NET *47 0.000691011
*CONN
*P wbs_dat_i[17] I
*I *11357:A I *D sky130_fd_sc_hd__dlygate4sd3_1
*CAP
1 wbs_dat_i[17] 0.00032023
2 *11357:A 0.00032023
3 *11357:A *11358:A 0
4 *11357:A *360:22 5.05521e-05
5 *11357:A *482:24 0
6 *11357:A *610:24 0
*RES
1 wbs_dat_i[17] *11357:A 8.655 
*END

*D_NET *48 0.00216544
*CONN
*P wbs_dat_i[18] I
*I *11361:A I *D sky130_fd_sc_hd__dlygate4sd3_1
*CAP
1 wbs_dat_i[18] 0.000465769
2 *11361:A 0.000465769
3 *11361:A *11363:A 0.000279787
4 *11361:A *360:22 0.0005334
5 *11361:A *609:16 8.96065e-05
6 *11361:A *613:12 0.000331111
*RES
1 wbs_dat_i[18] *11361:A 13.695 
*END

*D_NET *49 0.00311308
*CONN
*P wbs_dat_i[19] I
*I *11346:A I *D sky130_fd_sc_hd__dlygate4sd3_1
*CAP
1 wbs_dat_i[19] 0.000828435
2 *11346:A 0.000828435
3 *11346:A *11616:A 0.000136594
4 *11346:A *11622:A 6.8155e-05
5 *11346:A *482:24 0.000149167
6 *11346:A *610:24 0.00110229
*RES
1 wbs_dat_i[19] *11346:A 16.035 
*END

*D_NET *50 0.00120721
*CONN
*P wbs_dat_i[1] I
*I *11337:A I *D sky130_fd_sc_hd__dlygate4sd3_1
*CAP
1 wbs_dat_i[1] 0.000535675
2 *11337:A 0.000535675
3 *11337:A wbs_dat_o[1] 0
4 *11337:A *11338:A 2.43084e-05
5 *11337:A *592:20 0.000111552
*RES
1 wbs_dat_i[1] *11337:A 11.25 
*END

*D_NET *51 0.000887421
*CONN
*P wbs_dat_i[20] I
*I *11350:A I *D sky130_fd_sc_hd__dlygate4sd3_1
*CAP
1 wbs_dat_i[20] 0.00040692
2 *11350:A 0.00040692
3 *11350:A *11432:A 0
4 *11350:A *11621:A 7.35813e-05
5 *11350:A *526:10 0
*RES
1 wbs_dat_i[20] *11350:A 9 
*END

*D_NET *52 0.00102781
*CONN
*P wbs_dat_i[21] I
*I *11353:A I *D sky130_fd_sc_hd__dlygate4sd3_1
*CAP
1 wbs_dat_i[21] 0.000387613
2 *11353:A 0.000387613
3 *11353:A *11434:A 0
4 *11353:A *11446:A 0.000137058
5 *11353:A *11619:A 0
6 *11353:A *11621:A 0.000115522
*RES
1 wbs_dat_i[21] *11353:A 10.245 
*END

*D_NET *53 0.00064977
*CONN
*P wbs_dat_i[22] I
*I *11359:A I *D sky130_fd_sc_hd__dlygate4sd3_1
*CAP
1 wbs_dat_i[22] 0.000255605
2 *11359:A 0.000255605
3 *11359:A wbs_dat_o[22] 0
4 *11359:A *11428:A 0
5 *11359:A *11622:A 0.00013856
*RES
1 wbs_dat_i[22] *11359:A 7.995 
*END

*D_NET *54 0.00276758
*CONN
*P wbs_dat_i[23] I
*I *11364:A I *D sky130_fd_sc_hd__dlygate4sd3_1
*CAP
1 wbs_dat_i[23] 0.000781131
2 *11364:A 0.000781131
3 *11364:A wbs_dat_o[23] 0.000365089
4 *11364:A *11351:A 0
5 *11364:A *11451:A 0.000134314
6 *11364:A *11572:A 4.89295e-05
7 *11364:A *11622:A 0.000555598
8 *11364:A *471:26 0.000101386
9 *11364:A *548:14 0
*RES
1 wbs_dat_i[23] *11364:A 19.62 
*END

*D_NET *55 0.000857266
*CONN
*P wbs_dat_i[24] I
*I *11366:A I *D sky130_fd_sc_hd__dlygate4sd3_1
*CAP
1 wbs_dat_i[24] 0.000347685
2 *11366:A 0.000347685
3 *11366:A wbs_dat_o[24] 0
4 *11366:A *11623:A 0.000161897
*RES
1 wbs_dat_i[24] *11366:A 9.345 
*END

*D_NET *56 0.00192938
*CONN
*P wbs_dat_i[25] I
*I *11368:A I *D sky130_fd_sc_hd__dlygate4sd3_1
*CAP
1 wbs_dat_i[25] 0.00073397
2 *11368:A 0.00073397
3 *11368:A *11367:A 0
4 *11368:A *11624:A 0
5 *11368:A *569:10 0
6 *11368:A *570:12 0.00012411
7 *11368:A *617:16 0.00033733
*RES
1 wbs_dat_i[25] *11368:A 16.11 
*END

*D_NET *57 0.000302049
*CONN
*P wbs_dat_i[26] I
*I *11370:A I *D sky130_fd_sc_hd__dlygate4sd3_1
*CAP
1 wbs_dat_i[26] 0.000151025
2 *11370:A 0.000151025
3 *11370:A wbs_dat_o[26] 0
*RES
1 wbs_dat_i[26] *11370:A 5.82 
*END

*D_NET *58 0.000849664
*CONN
*P wbs_dat_i[27] I
*I *11375:A I *D sky130_fd_sc_hd__dlygate4sd3_1
*CAP
1 wbs_dat_i[27] 0.000299932
2 *11375:A 0.000299932
3 *11375:A wbs_dat_o[27] 0
4 *11375:A *11577:A 0
5 *11375:A *11626:A 0.0001249
6 *11375:A *11627:A 0.0001249
*RES
1 wbs_dat_i[27] *11375:A 9 
*END

*D_NET *59 0.00197935
*CONN
*P wbs_dat_i[28] I
*I *11388:A I *D sky130_fd_sc_hd__dlygate4sd3_1
*CAP
1 wbs_dat_i[28] 0.000909257
2 *11388:A 0.000909257
3 *11388:A wbs_dat_o[28] 0
4 *11388:A *11464:A 0.000160831
*RES
1 wbs_dat_i[28] *11388:A 15.555 
*END

*D_NET *60 0.000873766
*CONN
*P wbs_dat_i[29] I
*I *11399:A I *D sky130_fd_sc_hd__dlygate4sd3_1
*CAP
1 wbs_dat_i[29] 0.000356832
2 *11399:A 0.000356832
3 *11399:A wbs_dat_o[29] 0
4 *11399:A *572:22 0.000109549
5 *11399:A *617:16 5.05521e-05
*RES
1 wbs_dat_i[29] *11399:A 8.655 
*END

*D_NET *61 0.00291481
*CONN
*P wbs_dat_i[2] I
*I *11512:A I *D sky130_fd_sc_hd__dlygate4sd3_1
*CAP
1 wbs_dat_i[2] 0.000785495
2 *11512:A 0.000785495
3 *11512:A *11415:A 8.59565e-05
4 *11512:A *11418:A 0.00011577
5 *11512:A *11435:A 0.000758294
6 *11512:A *11593:A 2.75229e-05
7 *11512:A *11632:A 8.30853e-06
8 *11512:A *575:26 0
9 *11512:A *586:22 0
10 *11512:A *592:20 0.000347969
11 *11390:A *11512:A 0
*RES
1 wbs_dat_i[2] *11512:A 19.845 
*END

*D_NET *62 0.000838066
*CONN
*P wbs_dat_i[30] I
*I *11401:A I *D sky130_fd_sc_hd__dlygate4sd3_1
*CAP
1 wbs_dat_i[30] 0.00023455
2 *11401:A 0.00023455
3 *11401:A *493:16 0
4 *11401:A *526:22 0.000368965
5 *11401:A *576:8 0
*RES
1 wbs_dat_i[30] *11401:A 8.655 
*END

*D_NET *63 0.000636499
*CONN
*P wbs_dat_i[31] I
*I *11403:A I *D sky130_fd_sc_hd__dlygate4sd3_1
*CAP
1 wbs_dat_i[31] 0.000279483
2 *11403:A 0.000279483
3 *11403:A wbs_dat_o[31] 0
4 *11403:A *577:10 7.75325e-05
*RES
1 wbs_dat_i[31] *11403:A 8.655 
*END

*D_NET *64 0.00156085
*CONN
*P wbs_dat_i[3] I
*I *11501:A I *D sky130_fd_sc_hd__dlygate4sd3_1
*CAP
1 wbs_dat_i[3] 0.000346644
2 *11501:A 0.000346644
3 *11501:A wbs_dat_o[3] 0
4 *11501:A *11429:A 3.23498e-05
5 *11501:A *11600:A 0.000309674
6 *11501:A *11632:A 0.000237249
7 *11501:A *592:28 0.000237249
8 *11501:A *611:10 0
9 *11501:A *627:14 5.10398e-05
10 *11381:A *11501:A 0
*RES
1 wbs_dat_i[3] *11501:A 12.075 
*END

*D_NET *65 0.00195666
*CONN
*P wbs_dat_i[4] I
*I *11497:A I *D sky130_fd_sc_hd__dlygate4sd3_1
*CAP
1 wbs_dat_i[4] 0.000485359
2 *11497:A 0.000485359
3 *11497:A wbs_dat_o[4] 0
4 *11497:A *11339:A 0
5 *11497:A *11406:A 0.000116165
6 *11497:A *11601:A 0
7 *11497:A *11634:A 0.00015428
8 *11497:A *591:51 0.000275553
9 *11497:A *601:12 0.000275553
10 *11497:A *622:12 0.00016439
11 *11497:A *623:18 0
12 *11497:A *624:22 0
*RES
1 wbs_dat_i[4] *11497:A 14.46 
*END

*D_NET *66 0.0022233
*CONN
*P wbs_dat_i[5] I
*I *11495:A I *D sky130_fd_sc_hd__dlygate4sd3_1
*CAP
1 wbs_dat_i[5] 0.000389107
2 *11495:A 0.000389107
3 *11495:A wbs_dat_o[5] 0
4 *11495:A *11602:A 0.000281247
5 *11495:A *110:14 0.000180997
6 *11495:A *586:34 0.000671555
7 *11495:A *601:12 0.000311288
8 *11495:A *633:10 0
*RES
1 wbs_dat_i[5] *11495:A 14.805 
*END

*D_NET *67 0.000582788
*CONN
*P wbs_dat_i[6] I
*I *11492:A I *D sky130_fd_sc_hd__dlygate4sd3_1
*CAP
1 wbs_dat_i[6] 0.000225424
2 *11492:A 0.000225424
3 *11492:A wbs_dat_o[6] 0
4 *11492:A *626:24 0.00013194
*RES
1 wbs_dat_i[6] *11492:A 7.86 
*END

*D_NET *68 0.000753144
*CONN
*P wbs_dat_i[7] I
*I *11490:A I *D sky130_fd_sc_hd__dlygate4sd3_1
*CAP
1 wbs_dat_i[7] 0.000211067
2 *11490:A 0.000211067
3 *11490:A wbs_dat_o[7] 0
4 *11490:A *597:14 9.48835e-05
5 *11490:A *626:24 0.000236126
6 *11383:A *11490:A 0
*RES
1 wbs_dat_i[7] *11490:A 7.995 
*END

*D_NET *69 0.00183008
*CONN
*P wbs_dat_i[8] I
*I *11486:A I *D sky130_fd_sc_hd__dlygate4sd3_1
*CAP
1 wbs_dat_i[8] 0.000636113
2 *11486:A 0.000636113
3 *11486:A *11387:A 0.000340211
4 *11486:A *11554:A 2.49909e-05
5 *11486:A *599:12 0.000123321
6 *11486:A *604:12 6.93254e-05
*RES
1 wbs_dat_i[8] *11486:A 12.975 
*END

*D_NET *70 0.00275099
*CONN
*P wbs_dat_i[9] I
*I *11488:A I *D sky130_fd_sc_hd__dlygate4sd3_1
*CAP
1 wbs_dat_i[9] 0.000642565
2 *11488:A 0.000642565
3 *11488:A *11487:A 0.000122801
4 *11488:A *585:12 0.000625492
5 *11488:A *597:14 0.00011508
6 *11488:A *601:24 0.000602486
7 *11392:A *11488:A 0
*RES
1 wbs_dat_i[9] *11488:A 19.83 
*END

*D_NET *71 0.000805641
*CONN
*P wbs_dat_o[0] O
*I *11607:X O *D sky130_fd_sc_hd__buf_12
*CAP
1 wbs_dat_o[0] 0.000293641
2 *11607:X 0.000293641
3 wbs_dat_o[0] *11408:A 0
4 wbs_dat_o[0] *11557:A 0.000141606
5 wbs_dat_o[0] *393:10 2.68721e-05
6 wbs_dat_o[0] *592:20 4.98818e-05
7 *11344:A wbs_dat_o[0] 0
*RES
1 *11607:X wbs_dat_o[0] 9.21 
*END

*D_NET *72 0.00127267
*CONN
*P wbs_dat_o[10] O
*I *11608:X O *D sky130_fd_sc_hd__buf_12
*CAP
1 wbs_dat_o[10] 0.000189122
2 *11608:X 0.000189122
3 wbs_dat_o[10] *11608:A 3.18219e-05
4 wbs_dat_o[10] *585:12 0.000166738
5 wbs_dat_o[10] *601:24 0.000197297
6 *11394:A wbs_dat_o[10] 0.00049857
7 *11397:A wbs_dat_o[10] 0
*RES
1 *11608:X wbs_dat_o[10] 10.155 
*END

*D_NET *73 0.000873831
*CONN
*P wbs_dat_o[11] O
*I *11609:X O *D sky130_fd_sc_hd__buf_12
*CAP
1 wbs_dat_o[11] 0.000365581
2 *11609:X 0.000365581
3 wbs_dat_o[11] *360:10 0.000142669
4 wbs_dat_o[11] *415:10 0
5 *11481:A wbs_dat_o[11] 0
*RES
1 *11609:X wbs_dat_o[11] 10.035 
*END

*D_NET *74 0.00110538
*CONN
*P wbs_dat_o[12] O
*I *11610:X O *D sky130_fd_sc_hd__buf_12
*CAP
1 wbs_dat_o[12] 0.000297016
2 *11610:X 0.000297016
3 wbs_dat_o[12] *11483:A 0
4 wbs_dat_o[12] *11610:A 0.00011099
5 wbs_dat_o[12] *11611:A 0.000124895
6 wbs_dat_o[12] *360:14 0.000234778
7 wbs_dat_o[12] *598:14 4.06895e-05
8 *11479:A wbs_dat_o[12] 0
*RES
1 *11610:X wbs_dat_o[12] 10.035 
*END

*D_NET *75 0.0011022
*CONN
*P wbs_dat_o[13] O
*I *11611:X O *D sky130_fd_sc_hd__buf_12
*CAP
1 wbs_dat_o[13] 0.000303912
2 *11611:X 0.000303912
3 wbs_dat_o[13] *11611:A 4.77757e-05
4 wbs_dat_o[13] *11612:A 0.000161101
5 wbs_dat_o[13] *360:14 0.000234973
6 wbs_dat_o[13] *437:10 5.05228e-05
7 *11475:A wbs_dat_o[13] 0
*RES
1 *11611:X wbs_dat_o[13] 10.035 
*END

*D_NET *76 0.00135246
*CONN
*P wbs_dat_o[14] O
*I *11612:X O *D sky130_fd_sc_hd__buf_12
*CAP
1 wbs_dat_o[14] 0.000423882
2 *11612:X 0.000423882
3 wbs_dat_o[14] *11384:A 0.000157762
4 wbs_dat_o[14] *11612:A 8.41307e-05
5 wbs_dat_o[14] *360:14 0.000262805
6 *11473:A wbs_dat_o[14] 0
*RES
1 *11612:X wbs_dat_o[14] 10.935 
*END

*D_NET *77 0.00115874
*CONN
*P wbs_dat_o[15] O
*I *11613:X O *D sky130_fd_sc_hd__buf_12
*CAP
1 wbs_dat_o[15] 0.000424247
2 *11613:X 0.000424247
3 wbs_dat_o[15] *11340:A 0.000194891
4 wbs_dat_o[15] *11613:A 5.83121e-06
5 wbs_dat_o[15] *360:22 6.97024e-05
6 wbs_dat_o[15] *460:12 3.98169e-05
7 *11468:A wbs_dat_o[15] 0
*RES
1 *11613:X wbs_dat_o[15] 10.35 
*END

*D_NET *78 0.000976136
*CONN
*P wbs_dat_o[16] O
*I *11614:X O *D sky130_fd_sc_hd__buf_12
*CAP
1 wbs_dat_o[16] 0.000318082
2 *11614:X 0.000318082
3 wbs_dat_o[16] *11356:A 4.70343e-05
4 wbs_dat_o[16] *11462:A 0.000136084
5 wbs_dat_o[16] *11565:A 0
6 wbs_dat_o[16] *11614:A 4.82919e-05
7 wbs_dat_o[16] *360:22 0.000108561
8 *11355:A wbs_dat_o[16] 0
*RES
1 *11614:X wbs_dat_o[16] 10.035 
*END

*D_NET *79 0.00109203
*CONN
*P wbs_dat_o[17] O
*I *11615:X O *D sky130_fd_sc_hd__buf_12
*CAP
1 wbs_dat_o[17] 0.000295035
2 *11615:X 0.000295035
3 wbs_dat_o[17] *11466:A 0.000138808
4 wbs_dat_o[17] *11566:A 0
5 wbs_dat_o[17] *360:22 0.000138808
6 wbs_dat_o[17] *610:24 0.000224344
*RES
1 *11615:X wbs_dat_o[17] 10.035 
*END

*D_NET *80 0.00185705
*CONN
*P wbs_dat_o[18] O
*I *11616:X O *D sky130_fd_sc_hd__buf_12
*CAP
1 wbs_dat_o[18] 0.000503582
2 *11616:X 0.000503582
3 wbs_dat_o[18] *11616:A 0.000119762
4 wbs_dat_o[18] *482:24 0.00012905
5 wbs_dat_o[18] *493:10 0
6 wbs_dat_o[18] *610:24 0.000601074
*RES
1 *11616:X wbs_dat_o[18] 13.29 
*END

*D_NET *81 0.00133144
*CONN
*P wbs_dat_o[19] O
*I *11617:X O *D sky130_fd_sc_hd__buf_12
*CAP
1 wbs_dat_o[19] 0.000519917
2 *11617:X 0.000519917
3 wbs_dat_o[19] *11347:A 3.68682e-05
4 wbs_dat_o[19] *11616:A 0
5 wbs_dat_o[19] *11617:A 3.00381e-05
6 wbs_dat_o[19] *11621:A 0.000136433
7 wbs_dat_o[19] *504:12 8.8266e-05
*RES
1 *11617:X wbs_dat_o[19] 12.21 
*END

*D_NET *82 0.000998578
*CONN
*P wbs_dat_o[1] O
*I *11618:X O *D sky130_fd_sc_hd__buf_12
*CAP
1 wbs_dat_o[1] 0.000285695
2 *11618:X 0.000285695
3 wbs_dat_o[1] *586:22 0.000427188
4 *11337:A wbs_dat_o[1] 0
*RES
1 *11618:X wbs_dat_o[1] 9.465 
*END

*D_NET *83 0.00127072
*CONN
*P wbs_dat_o[20] O
*I *11619:X O *D sky130_fd_sc_hd__buf_12
*CAP
1 wbs_dat_o[20] 0.000428271
2 *11619:X 0.000428271
3 wbs_dat_o[20] *11432:A 5.13715e-05
4 wbs_dat_o[20] *11570:A 0
5 wbs_dat_o[20] *11622:A 0.000255384
6 wbs_dat_o[20] *471:26 0.000107425
*RES
1 *11619:X wbs_dat_o[20] 11.7 
*END

*D_NET *84 0.00176276
*CONN
*P wbs_dat_o[21] O
*I *11620:X O *D sky130_fd_sc_hd__buf_12
*CAP
1 wbs_dat_o[21] 0.000361452
2 *11620:X 0.000361452
3 wbs_dat_o[21] *11434:A 0
4 wbs_dat_o[21] *11446:A 0.0001249
5 wbs_dat_o[21] *11620:A 0.000197264
6 wbs_dat_o[21] *11622:A 0.000717694
*RES
1 *11620:X wbs_dat_o[21] 12.225 
*END

*D_NET *85 0.00147987
*CONN
*P wbs_dat_o[22] O
*I *11621:X O *D sky130_fd_sc_hd__buf_12
*CAP
1 wbs_dat_o[22] 0.000418165
2 *11621:X 0.000418165
3 wbs_dat_o[22] *11360:A 0.00015022
4 wbs_dat_o[22] *11395:A 0
5 wbs_dat_o[22] *11448:A 0.00011852
6 wbs_dat_o[22] *11621:A 0.000268734
7 wbs_dat_o[22] *617:16 0.00010607
8 *11359:A wbs_dat_o[22] 0
*RES
1 *11621:X wbs_dat_o[22] 12.105 
*END

*D_NET *86 0.00151995
*CONN
*P wbs_dat_o[23] O
*I *11622:X O *D sky130_fd_sc_hd__buf_12
*CAP
1 wbs_dat_o[23] 0.000370914
2 *11622:X 0.000370914
3 wbs_dat_o[23] *11351:A 0
4 wbs_dat_o[23] *11451:A 0.000316421
5 wbs_dat_o[23] *11622:A 9.66106e-05
6 *11364:A wbs_dat_o[23] 0.000365089
*RES
1 *11622:X wbs_dat_o[23] 11.265 
*END

*D_NET *87 0.00105343
*CONN
*P wbs_dat_o[24] O
*I *11623:X O *D sky130_fd_sc_hd__buf_12
*CAP
1 wbs_dat_o[24] 0.00040669
2 *11623:X 0.00040669
3 wbs_dat_o[24] *11623:A 0.0001249
4 wbs_dat_o[24] *617:16 0.000115146
5 *11366:A wbs_dat_o[24] 0
*RES
1 *11623:X wbs_dat_o[24] 10.725 
*END

*D_NET *88 0.000868534
*CONN
*P wbs_dat_o[25] O
*I *11624:X O *D sky130_fd_sc_hd__buf_12
*CAP
1 wbs_dat_o[25] 0.000434267
2 *11624:X 0.000434267
*RES
1 *11624:X wbs_dat_o[25] 9.675 
*END

*D_NET *89 0.00103723
*CONN
*P wbs_dat_o[26] O
*I *11625:X O *D sky130_fd_sc_hd__buf_12
*CAP
1 wbs_dat_o[26] 0.00031584
2 *11625:X 0.00031584
3 wbs_dat_o[26] *11371:A 3.79532e-05
4 wbs_dat_o[26] *11627:A 0.000233568
5 wbs_dat_o[26] *617:16 0.000134029
6 *11370:A wbs_dat_o[26] 0
*RES
1 *11625:X wbs_dat_o[26] 10.035 
*END

*D_NET *90 0.00105996
*CONN
*P wbs_dat_o[27] O
*I *11626:X O *D sky130_fd_sc_hd__buf_12
*CAP
1 wbs_dat_o[27] 0.000310991
2 *11626:X 0.000310991
3 wbs_dat_o[27] *11376:A 0
4 wbs_dat_o[27] *11626:A 4.77757e-05
5 wbs_dat_o[27] *11627:A 0.000234181
6 wbs_dat_o[27] *572:14 4.78634e-05
7 wbs_dat_o[27] *617:16 0.000108156
8 *11375:A wbs_dat_o[27] 0
*RES
1 *11626:X wbs_dat_o[27] 10.035 
*END

*D_NET *91 0.000949393
*CONN
*P wbs_dat_o[28] O
*I *11627:X O *D sky130_fd_sc_hd__buf_12
*CAP
1 wbs_dat_o[28] 0.00039627
2 *11627:X 0.00039627
3 wbs_dat_o[28] *11464:A 0
4 wbs_dat_o[28] *11627:A 4.82919e-05
5 wbs_dat_o[28] *573:14 0
6 wbs_dat_o[28] *617:16 0.000108561
7 *11388:A wbs_dat_o[28] 0
*RES
1 *11627:X wbs_dat_o[28] 10.035 
*END

*D_NET *92 0.00105178
*CONN
*P wbs_dat_o[29] O
*I *11628:X O *D sky130_fd_sc_hd__buf_12
*CAP
1 wbs_dat_o[29] 0.00029914
2 *11628:X 0.00029914
3 wbs_dat_o[29] *11400:A 0.00020554
4 wbs_dat_o[29] *11477:A 0.000135259
5 wbs_dat_o[29] *11580:A 0
6 wbs_dat_o[29] *11628:A 4.82919e-05
7 wbs_dat_o[29] *548:20 0
8 wbs_dat_o[29] *572:22 0
9 wbs_dat_o[29] *574:14 6.44134e-05
10 *11399:A wbs_dat_o[29] 0
*RES
1 *11628:X wbs_dat_o[29] 10.035 
*END

*D_NET *93 0.000631414
*CONN
*P wbs_dat_o[2] O
*I *11629:X O *D sky130_fd_sc_hd__buf_12
*CAP
1 wbs_dat_o[2] 0.000152503
2 *11629:X 0.000152503
3 wbs_dat_o[2] *11409:A 0.000163204
4 wbs_dat_o[2] *11411:A 0.000163204
*RES
1 *11629:X wbs_dat_o[2] 7.05 
*END

*D_NET *94 0.000887817
*CONN
*P wbs_dat_o[30] O
*I *11630:X O *D sky130_fd_sc_hd__buf_12
*CAP
1 wbs_dat_o[30] 0.000350988
2 *11630:X 0.000350988
3 wbs_dat_o[30] *11402:A 4.70343e-05
4 wbs_dat_o[30] *11499:A 0.000138808
5 wbs_dat_o[30] *11582:A 0
6 wbs_dat_o[30] *493:16 0
*RES
1 *11630:X wbs_dat_o[30] 10.035 
*END

*D_NET *95 0.000505822
*CONN
*P wbs_dat_o[31] O
*I *11631:X O *D sky130_fd_sc_hd__buf_12
*CAP
1 wbs_dat_o[31] 0.000252911
2 *11631:X 0.000252911
3 wbs_dat_o[31] *11583:A 0
4 wbs_dat_o[31] *577:10 0
5 *11403:A wbs_dat_o[31] 0
*RES
1 *11631:X wbs_dat_o[31] 7.86 
*END

*D_NET *96 0.0016695
*CONN
*P wbs_dat_o[3] O
*I *11632:X O *D sky130_fd_sc_hd__buf_12
*CAP
1 wbs_dat_o[3] 0.000314602
2 *11632:X 0.000314602
3 wbs_dat_o[3] *11632:A 4.66108e-05
4 wbs_dat_o[3] *382:20 0.000555628
5 wbs_dat_o[3] *579:10 9.98662e-05
6 wbs_dat_o[3] *592:28 0.000106078
7 wbs_dat_o[3] *599:12 0.000232111
8 wbs_dat_o[3] *611:10 0
9 *11501:A wbs_dat_o[3] 0
*RES
1 *11632:X wbs_dat_o[3] 12.33 
*END

*D_NET *97 0.000880297
*CONN
*P wbs_dat_o[4] O
*I *11633:X O *D sky130_fd_sc_hd__buf_12
*CAP
1 wbs_dat_o[4] 0.00030078
2 *11633:X 0.00030078
3 wbs_dat_o[4] *11335:A 8.247e-05
4 wbs_dat_o[4] *11634:A 0
5 wbs_dat_o[4] *623:18 0.000113797
6 *11372:A wbs_dat_o[4] 8.247e-05
7 *11497:A wbs_dat_o[4] 0
*RES
1 *11633:X wbs_dat_o[4] 8.115 
*END

*D_NET *98 0.00043727
*CONN
*P wbs_dat_o[5] O
*I *11634:X O *D sky130_fd_sc_hd__buf_12
*CAP
1 wbs_dat_o[5] 0.000180728
2 *11634:X 0.000180728
3 wbs_dat_o[5] *11333:A 2.75229e-05
4 wbs_dat_o[5] *586:34 0
5 *11379:A wbs_dat_o[5] 4.82919e-05
6 *11495:A wbs_dat_o[5] 0
*RES
1 *11634:X wbs_dat_o[5] 6.525 
*END

*D_NET *99 0.000545839
*CONN
*P wbs_dat_o[6] O
*I *11635:X O *D sky130_fd_sc_hd__buf_12
*CAP
1 wbs_dat_o[6] 0.000191317
2 *11635:X 0.000191317
3 wbs_dat_o[6] *626:24 0.000163204
4 *11383:A wbs_dat_o[6] 0
5 *11492:A wbs_dat_o[6] 0
*RES
1 *11635:X wbs_dat_o[6] 7.05 
*END

*D_NET *100 0.00158259
*CONN
*P wbs_dat_o[7] O
*I *11636:X O *D sky130_fd_sc_hd__buf_12
*CAP
1 wbs_dat_o[7] 0.00046561
2 *11636:X 0.00046561
3 wbs_dat_o[7] *11387:A 8.35068e-05
4 wbs_dat_o[7] *11482:A 0.000133408
5 wbs_dat_o[7] *11514:A 4.11718e-05
6 wbs_dat_o[7] *11636:A 0.000325811
7 wbs_dat_o[7] *597:14 6.7474e-05
8 *11386:A wbs_dat_o[7] 0
9 *11490:A wbs_dat_o[7] 0
*RES
1 *11636:X wbs_dat_o[7] 12.225 
*END

*D_NET *101 0.00127299
*CONN
*P wbs_dat_o[8] O
*I *11637:X O *D sky130_fd_sc_hd__buf_12
*CAP
1 wbs_dat_o[8] 0.000470089
2 *11637:X 0.000470089
3 wbs_dat_o[8] *11487:A 0.000124471
4 wbs_dat_o[8] *11514:A 4.82919e-05
5 wbs_dat_o[8] *597:14 0.000160053
6 wbs_dat_o[8] *627:24 0
7 *11392:A wbs_dat_o[8] 0
*RES
1 *11637:X wbs_dat_o[8] 11.535 
*END

*D_NET *102 0.00132853
*CONN
*P wbs_dat_o[9] O
*I *11638:X O *D sky130_fd_sc_hd__buf_12
*CAP
1 wbs_dat_o[9] 0.00037553
2 *11638:X 0.00037553
3 wbs_dat_o[9] *11460:A 0.000187064
4 wbs_dat_o[9] *11638:A 0.000198945
5 wbs_dat_o[9] *360:10 0.000115146
6 wbs_dat_o[9] *601:22 7.63125e-05
7 *11394:A wbs_dat_o[9] 0
*RES
1 *11638:X wbs_dat_o[9] 11.415 
*END

*D_NET *103 0.00095282
*CONN
*P wbs_sel_i[0] I
*I *11408:A I *D sky130_fd_sc_hd__dlygate4sd3_1
*CAP
1 wbs_sel_i[0] 0.00047641
2 *11408:A 0.00047641
3 *11408:A *11607:A 0
4 wbs_dat_o[0] *11408:A 0
*RES
1 wbs_sel_i[0] *11408:A 10.695 
*END

*D_NET *104 0.00187014
*CONN
*P wbs_sel_i[1] I
*I *11418:A I *D sky130_fd_sc_hd__dlygate4sd3_1
*CAP
1 wbs_sel_i[1] 0.000614065
2 *11418:A 0.000614065
3 *11418:A *11415:A 0.000272469
4 *11418:A *11593:A 0.000127599
5 *11418:A *11618:A 0
6 *11418:A *515:14 0
7 *11418:A *592:20 0.000126174
8 *11390:A *11418:A 0
9 *11512:A *11418:A 0.00011577
*RES
1 wbs_sel_i[1] *11418:A 15.045 
*END

*D_NET *105 0.00172703
*CONN
*P wbs_sel_i[2] I
*I *11411:A I *D sky130_fd_sc_hd__dlygate4sd3_1
*CAP
1 wbs_sel_i[2] 0.000522743
2 *11411:A 0.000522743
3 *11411:A *11409:A 0.000166238
4 *11411:A *11629:A 0.000275003
5 *11411:A *591:28 7.71016e-05
6 wbs_dat_o[2] *11411:A 0.000163204
7 *11381:A *11411:A 0
*RES
1 wbs_sel_i[2] *11411:A 14.79 
*END

*D_NET *106 0.00216224
*CONN
*P wbs_sel_i[3] I
*I *11414:A I *D sky130_fd_sc_hd__dlygate4sd3_1
*CAP
1 wbs_sel_i[3] 0.000647234
2 *11414:A 0.000647234
3 *11414:A *11412:A 0.000112679
4 *11414:A *11585:A 0
5 *11414:A *11596:A 0.000149035
6 *11414:A *382:20 0
7 *11414:A *598:12 0
8 *11414:A *600:16 0.000269721
9 *11414:A *601:10 6.66119e-05
10 *11414:A *623:18 0
11 *11414:A *626:8 0.000269721
12 *11377:A *11414:A 0
*RES
1 wbs_sel_i[3] *11414:A 16.5 
*END

*D_NET *107 0.000391907
*CONN
*P wbs_stb_i I
*I *11597:A I *D sky130_fd_sc_hd__clkbuf_2
*CAP
1 wbs_stb_i 0.000176477
2 *11597:A 0.000176477
3 *11597:A *11425:A 0
4 *11597:A *382:14 0
5 *11597:A *591:10 3.89528e-05
6 *11556:A *11597:A 0
*RES
1 wbs_stb_i *11597:A 6.36 
*END

*D_NET *108 0.000278786
*CONN
*P wbs_we_i I
*I *11425:A I *D sky130_fd_sc_hd__dlygate4sd3_1
*CAP
1 wbs_we_i 0.000139393
2 *11425:A 0.000139393
3 *11425:A *591:10 0
4 *11597:A *11425:A 0
*RES
1 wbs_we_i *11425:A 5.82 
*END

*D_NET *109 0.00576458
*CONN
*I *11324:RESET_B I *D sky130_fd_sc_hd__dfrtp_1
*I *11323:Y O *D sky130_fd_sc_hd__inv_2
*CAP
1 *11324:RESET_B 0.00143509
2 *11323:Y 0.00143509
3 *11324:RESET_B *745:DIODE 3.0286e-05
4 *11324:RESET_B *11231:A1 4.66108e-05
5 *11324:RESET_B *11231:A2 4.99619e-05
6 *11324:RESET_B *11231:B2 0.000292759
7 *11324:RESET_B *11231:C1 4.82863e-05
8 *11324:RESET_B *11338:A 0.000224042
9 *11324:RESET_B *11348:A 0.000418493
10 *11324:RESET_B *11629:A 0.000493426
11 *11324:RESET_B *575:26 0.000251194
12 *11324:RESET_B *623:18 0.00102018
13 *11390:A *11324:RESET_B 1.91597e-05
*RES
1 *11323:Y *11324:RESET_B 32.0125 
*END

*D_NET *110 0.0189689
*CONN
*I *11212:A I *D sky130_fd_sc_hd__nor2_2
*I *11201:A I *D sky130_fd_sc_hd__inv_2
*I *11217:B I *D sky130_fd_sc_hd__nor2_2
*I *11200:Y O *D sky130_fd_sc_hd__nand2_2
*CAP
1 *11212:A 0.00103307
2 *11201:A 0.000265191
3 *11217:B 0
4 *11200:Y 0.00140502
5 *110:18 0.000492707
6 *110:14 0.0026656
7 *11201:A *11204:B 2.42236e-05
8 *11201:A *122:16 0.000305992
9 *11201:A *199:6 4.41506e-05
10 *11201:A *199:12 0
11 *11201:A *199:74 0.000112671
12 *11201:A *589:22 8.23457e-05
13 *11201:A *611:12 0.00026617
14 *11212:A *582:18 0.00410559
15 *11212:A *583:14 0.00306512
16 *110:14 *11324:D 0.000364402
17 *110:14 *11494:A 5.83121e-06
18 *110:14 *11635:A 0
19 *110:14 *338:10 3.23391e-05
20 *110:14 *580:12 0.00202735
21 *110:14 *582:10 0
22 *110:14 *591:51 0.00163934
23 *110:14 *601:12 0.000455888
24 *110:14 *623:18 0.00019558
25 *110:14 *626:24 9.14049e-05
26 *110:18 *11204:B 0.000107878
27 *110:18 *11324:D 0
28 *110:18 *199:12 0
29 *110:18 *597:10 0
30 *11495:A *110:14 0.000180997
*RES
1 *11200:Y *110:14 43.175 
2 *110:14 *110:18 5.93 
3 *110:18 *11217:B 3.6 
4 *110:18 *11201:A 10.305 
5 *110:14 *11212:A 40.705 
*END

*D_NET *111 0.0165364
*CONN
*I *11421:A I *D sky130_fd_sc_hd__dlygate4sd3_1
*I *11202:X O *D sky130_fd_sc_hd__and3_2
*CAP
1 *11421:A 0.000888023
2 *11202:X 0.000110322
3 *111:10 0.00228347
4 *111:8 0.00150577
5 *11421:A *120:10 0.00144106
6 *11421:A *245:26 0.00258143
7 *11421:A *564:8 1.77595e-05
8 *111:8 *11202:C 2.75145e-05
9 *111:10 *749:DIODE 0.000182964
10 *111:10 *879:DIODE 5.34699e-05
11 *111:10 *880:DIODE 0.000187759
12 *111:10 *120:10 0.00217066
13 *111:10 *143:41 0.000954033
14 *111:10 *143:80 0.000486931
15 *111:10 *202:24 1.7635e-05
16 *111:10 *202:39 0.000185131
17 *111:10 *238:85 1.93834e-05
18 *111:10 *238:103 0.000166716
19 *111:10 *239:83 0.000459275
20 *111:10 *240:22 0.000883727
21 *111:10 *242:31 0.000665806
22 *111:10 *245:26 0.000688222
23 *111:10 *248:27 1.03592e-05
24 *111:10 *259:29 0.000330242
25 *111:10 *264:29 1.79536e-05
26 *3:25 *11421:A 0.000200748
*RES
1 *11202:X *111:8 4.74 
2 *111:8 *111:10 53.4375 
3 *111:10 *11421:A 35.8725 
*END

*D_NET *112 0.0229484
*CONN
*I *11205:A I *D sky130_fd_sc_hd__clkbuf_8
*I *11204:X O *D sky130_fd_sc_hd__and4b_2
*CAP
1 *11205:A 0.00129659
2 *11204:X 0.000172496
3 *112:10 0.00275959
4 *112:8 0.0016355
5 *11205:A *11262:A1 0.00015624
6 *11205:A *153:24 0.000400791
7 *11205:A *229:34 0.00235877
8 *11205:A *552:12 0.000502216
9 *11205:A *552:16 0.00218982
10 *112:8 *11204:B 5.36384e-06
11 *112:8 *11204:C 3.81908e-06
12 *112:8 *11204:D 2.31329e-05
13 *112:10 *125:12 0.00158554
14 *112:10 *125:14 1.10631e-05
15 *112:10 *212:35 0.000165035
16 *112:10 *229:34 0.0052261
17 *112:10 *229:40 2.51747e-05
18 *112:10 *549:16 0.00347392
19 *112:10 *552:12 0.000301926
20 *112:10 *596:12 0.000655326
*RES
1 *11204:X *112:8 5.43 
2 *112:8 *112:10 68.5125 
3 *112:10 *11205:A 42.3225 
*END

*D_NET *113 0.0641371
*CONN
*I *11320:S I *D sky130_fd_sc_hd__mux2_4
*I *11317:S I *D sky130_fd_sc_hd__mux2_4
*I *11314:S I *D sky130_fd_sc_hd__mux2_4
*I *11280:A I *D sky130_fd_sc_hd__clkbuf_8
*I *11206:A I *D sky130_fd_sc_hd__buf_6
*I *11245:A I *D sky130_fd_sc_hd__buf_4
*I *11205:X O *D sky130_fd_sc_hd__clkbuf_8
*CAP
1 *11320:S 0.00077406
2 *11317:S 2.08101e-05
3 *11314:S 0
4 *11280:A 0.000232605
5 *11206:A 0
6 *11245:A 0
7 *11205:X 0.000323708
8 *113:68 0.00142391
9 *113:59 0.00206386
10 *113:57 0.0018906
11 *113:36 0.00362741
12 *113:27 0.00317386
13 *113:20 0.000886726
14 *113:14 0.00288247
15 *113:12 0.00223058
16 *113:10 0.00731098
17 *113:8 0.00763468
18 *11280:A *166:10 0
19 *11280:A *315:35 0.000176226
20 *11317:S *11317:A0 0
21 *11317:S *11317:A1 0
22 *11320:S *11317:A0 0.000431359
23 *11320:S *11320:A0 3.23663e-05
24 *11320:S *11320:A1 0.000316421
25 *11320:S *184:38 0.00172389
26 *11320:S *324:30 0.000285779
27 *113:10 *204:10 0
28 *113:10 *214:22 0.00465159
29 *113:10 *217:22 0.000788024
30 *113:10 *222:28 0
31 *113:10 *226:26 0.001559
32 *113:10 *246:69 0
33 *113:10 *309:55 0
34 *113:10 *326:27 0.00268847
35 *113:14 *301:23 0.00138584
36 *113:14 *304:51 0.00618044
37 *113:14 *329:27 4.21973e-05
38 *113:27 *203:8 0.000278117
39 *113:36 *1016:DIODE 0.000326917
40 *113:36 *11290:A0 0.000597442
41 *113:36 *11290:A1 0.000939171
42 *113:36 *11290:S 4.77719e-05
43 *113:36 *174:29 8.12896e-06
44 *113:36 *282:34 4.82919e-05
45 *113:36 *314:29 0.000151563
46 *113:57 *1124:DIODE 0
47 *113:57 *315:35 0
48 *113:59 *166:114 0.00104326
49 *113:59 *180:60 0.000214038
50 *113:59 *190:12 8.23457e-05
51 *113:59 *292:39 0.00282959
52 *113:59 *306:36 0.00136352
53 *113:59 *330:35 0.000221176
54 *113:68 *11314:A0 0.000832982
55 *113:68 *11317:A0 4.60584e-05
56 *113:68 *11317:A1 0.000164874
57 *113:68 *292:39 7.07354e-05
58 *113:68 *313:47 0.000133246
*RES
1 *11205:X *113:8 8.19 
2 *113:8 *113:10 174.015 
3 *113:10 *113:12 2 
4 *113:12 *113:14 59.445 
5 *113:14 *113:20 13.795 
6 *113:20 *11245:A 1.6 
7 *113:20 *113:27 4.59 
8 *113:27 *11206:A 1.6 
9 *113:27 *113:36 47.04 
10 *113:36 *11280:A 9.98 
11 *113:36 *113:57 10.27 
12 *113:57 *113:59 43.92 
13 *113:59 *11314:S 1.6 
14 *113:59 *113:68 11.85 
15 *113:68 *11317:S 1.96 
16 *113:68 *11320:S 22.42 
*END

*D_NET *114 0.0123645
*CONN
*I *11208:A I *D sky130_fd_sc_hd__buf_4
*I *11207:X O *D sky130_fd_sc_hd__and3b_1
*CAP
1 *11208:A 0.000136036
2 *11207:X 6.58885e-05
3 *114:14 0.000869453
4 *114:10 0.000799305
5 *11208:A *217:32 0.000214755
6 *114:10 *11210:A 4.63425e-05
7 *114:10 *563:8 5.18317e-06
8 *114:14 *515:16 0.00511378
9 *114:14 *581:12 0.00511378
*RES
1 *11207:X *114:10 6.725 
2 *114:10 *114:14 48.68 
3 *114:14 *11208:A 6.255 
*END

*D_NET *115 0.0557969
*CONN
*I *11247:A I *D sky130_fd_sc_hd__buf_4
*I *11321:S I *D sky130_fd_sc_hd__mux2_2
*I *11318:S I *D sky130_fd_sc_hd__mux2_2
*I *11315:S I *D sky130_fd_sc_hd__mux2_1
*I *11282:A I *D sky130_fd_sc_hd__buf_4
*I *11209:A I *D sky130_fd_sc_hd__buf_8
*I *11208:X O *D sky130_fd_sc_hd__buf_4
*CAP
1 *11247:A 4.79169e-05
2 *11321:S 0.00126908
3 *11318:S 5.52901e-05
4 *11315:S 0
5 *11282:A 0
6 *11209:A 0
7 *11208:X 0.000767137
8 *115:71 0.00461677
9 *115:69 0.0032924
10 *115:67 0.00171629
11 *115:54 0.00386774
12 *115:43 0.002313
13 *115:37 0.00173871
14 *115:30 0.00197054
15 *115:16 0.00120843
16 *11247:A *11449:A 0.000153816
17 *11247:A *404:24 8.05167e-05
18 *11318:S *11318:A1 4.66108e-05
19 *11321:S *11321:A1 4.66108e-05
20 *11321:S *168:114 0.00176128
21 *11321:S *369:79 2.76356e-05
22 *11321:S *482:24 0.000236066
23 *115:16 *11449:A 0.000123225
24 *115:16 *167:121 3.38341e-05
25 *115:16 *169:24 0.0019939
26 *115:16 *217:32 0
27 *115:16 *404:22 0.00152092
28 *115:16 *404:24 0.000522531
29 *115:30 *718:DIODE 1.44259e-05
30 *115:30 *11334:A 0.000988509
31 *115:30 *11471:A 3.96653e-05
32 *115:30 *118:81 0.00031499
33 *115:30 *143:10 3.09164e-05
34 *115:30 *172:28 5.46877e-05
35 *115:30 *371:46 0.00127249
36 *115:30 *585:20 6.57201e-05
37 *115:37 *1232:DIODE 0.000151541
38 *115:37 *11322:B2 0.000110212
39 *115:37 *118:81 3.63661e-05
40 *115:37 *178:97 0.00012657
41 *115:37 *371:46 0.000826273
42 *115:37 *537:12 0.00169652
43 *115:37 *612:20 0.00283057
44 *115:37 *614:16 0.00219332
45 *115:37 *614:18 0.00134257
46 *115:43 *11351:A 0
47 *115:43 *11395:A 0
48 *115:43 *168:86 8.53113e-06
49 *115:54 *191:10 0
50 *115:54 *191:22 0.00230112
51 *115:54 *571:10 0.000267669
52 *115:67 *168:99 0.0044236
53 *115:67 *571:10 6.96144e-05
54 *115:67 *572:22 0.00126857
55 *115:71 *168:103 0.00474301
56 *115:71 *168:114 0.000202886
57 *115:71 *482:24 0.00100627
*RES
1 *11208:X *115:16 31.7 
2 *115:16 *115:30 20.44 
3 *115:30 *11209:A 1.6 
4 *115:30 *115:37 57.375 
5 *115:37 *115:43 6.4 
6 *115:43 *11282:A 1.6 
7 *115:43 *115:54 45.935 
8 *115:54 *11315:S 3.6 
9 *115:54 *115:67 49.295 
10 *115:67 *115:69 2 
11 *115:69 *115:71 57.225 
12 *115:71 *11318:S 4.395 
13 *115:71 *11321:S 24.9 
14 *115:16 *11247:A 3.085 
*END

*D_NET *116 0.00331497
*CONN
*I *11211:A I *D sky130_fd_sc_hd__buf_2
*I *11210:X O *D sky130_fd_sc_hd__or2_1
*CAP
1 *11211:A 0.000897555
2 *11210:X 0.000897555
3 *11211:A *11253:A 1.94256e-05
4 *11211:A *11328:A 0.000164874
5 *11211:A *117:10 9.96033e-05
6 *11211:A *117:12 0.000121019
7 *11211:A *118:12 2.13417e-05
8 *11211:A *118:14 8.08091e-05
9 *11211:A *140:24 0.000109372
10 *11211:A *338:22 9.70218e-06
11 *11211:A *338:26 0.000384543
12 *11211:A *582:18 0.000490776
13 *11484:A *11211:A 1.83975e-05
*RES
1 *11210:X *11211:A 22.935 
*END

*D_NET *117 0.0320611
*CONN
*I *11322:A2 I *D sky130_fd_sc_hd__o221a_2
*I *11319:A2 I *D sky130_fd_sc_hd__o221a_2
*I *11285:A I *D sky130_fd_sc_hd__buf_2
*I *11212:B I *D sky130_fd_sc_hd__nor2_2
*I *11250:A I *D sky130_fd_sc_hd__clkbuf_4
*I *11214:A I *D sky130_fd_sc_hd__clkbuf_4
*I *11211:X O *D sky130_fd_sc_hd__buf_2
*CAP
1 *11322:A2 0.000800887
2 *11319:A2 1.71091e-05
3 *11285:A 0
4 *11212:B 0.000267767
5 *11250:A 0
6 *11214:A 0.000323108
7 *11211:X 0
8 *117:104 0.00338516
9 *117:71 0.00264879
10 *117:69 0.00200634
11 *117:12 0.000577244
12 *117:10 0.000754026
13 *117:4 0.00215684
14 *11212:B *118:12 0.000118663
15 *11212:B *118:14 0.000237185
16 *11212:B *122:56 7.98512e-05
17 *11212:B *215:32 4.09231e-05
18 *11214:A *11489:A 8.8266e-05
19 *11214:A *201:20 0.000161529
20 *11214:A *338:22 0.00011964
21 *11214:A *580:12 0.00122267
22 *11214:A *580:22 1.88904e-05
23 *11214:A *584:34 1.46828e-05
24 *11214:A *601:12 0.000145648
25 *11214:A *601:22 0.000768151
26 *11319:A2 *11319:B1 4.61701e-06
27 *11319:A2 *11322:C1 1.92979e-05
28 *11322:A2 *11307:A2 9.58678e-06
29 *11322:A2 *11307:B2 0.0003218
30 *11322:A2 *11313:B1 4.55864e-06
31 *11322:A2 *11319:B1 3.07667e-05
32 *11322:A2 *11322:A1 6.00413e-05
33 *11322:A2 *11322:B2 0.00013193
34 *11322:A2 *11322:C1 0.000202191
35 *11322:A2 *11330:A 0.000141033
36 *11322:A2 *11449:A 0.000894187
37 *11322:A2 *11471:A 0.0004869
38 *11322:A2 *11617:A 0
39 *11322:A2 *118:81 1.27288e-05
40 *11322:A2 *229:46 0.000275612
41 *11322:A2 *404:24 0.00105679
42 *117:10 *11328:A 0.000241483
43 *117:12 *11396:A 0.000196052
44 *117:12 *338:22 0.000187381
45 *117:12 *338:26 3.63206e-05
46 *117:69 *11288:A 8.52137e-06
47 *117:69 *11328:A 0.000160635
48 *117:69 *118:61 0.00286291
49 *117:69 *122:58 4.9101e-05
50 *117:69 *122:89 8.34281e-06
51 *117:69 *173:12 0.000463811
52 *117:69 *173:44 0.000118081
53 *117:69 *338:26 8.34281e-06
54 *117:69 *338:30 0.000179509
55 *117:69 *371:26 0.00123422
56 *117:69 *584:56 0.000112123
57 *117:69 *589:14 0.000235335
58 *117:71 *122:89 0.000318899
59 *117:71 *173:44 0.000134147
60 *117:104 *11295:B1 0.000118469
61 *117:104 *11295:C1 8.23457e-05
62 *117:104 *11298:B1 1.01851e-05
63 *117:104 *11298:B2 0
64 *117:104 *11298:C1 5.10587e-05
65 *117:104 *11417:A 0.00134567
66 *117:104 *11614:A 0.000188393
67 *117:104 *118:61 0.00037311
68 *117:104 *122:89 0.000133128
69 *117:104 *122:93 0.00039566
70 *117:104 *170:16 7.39166e-05
71 *117:104 *170:63 0.000440115
72 *117:104 *170:76 0.00031843
73 *117:104 *170:89 0.000337606
74 *117:104 *170:102 0.000287141
75 *117:104 *170:106 5.63443e-05
76 *117:104 *173:44 4.07182e-05
77 *117:104 *173:63 6.18315e-05
78 *117:104 *349:12 0.000424048
79 *117:104 *448:16 0.00037411
80 *117:104 *608:12 6.72296e-05
81 *11211:A *117:10 9.96033e-05
82 *11211:A *117:12 0.000121019
83 *11397:A *117:69 0.000452552
84 *11484:A *117:12 4.77757e-05
*RES
1 *11211:X *117:4 1.6 
2 *117:4 *117:10 3.675 
3 *117:10 *117:12 5.625 
4 *117:12 *11214:A 19.955 
5 *117:12 *11250:A 1.6 
6 *117:10 *11212:B 11.045 
7 *117:4 *117:69 49.045 
8 *117:69 *117:71 3.21 
9 *117:71 *11285:A 1.6 
10 *117:71 *117:104 29.497 
11 *117:104 *11319:A2 3.8325 
12 *117:104 *11322:A2 32.0125 
*END

*D_NET *118 0.0304624
*CONN
*I *11244:A I *D sky130_fd_sc_hd__clkbuf_4
*I *11279:A I *D sky130_fd_sc_hd__clkbuf_4
*I *11322:B1 I *D sky130_fd_sc_hd__o221a_2
*I *11316:B1 I *D sky130_fd_sc_hd__o221a_2
*I *11319:B1 I *D sky130_fd_sc_hd__o221a_2
*I *11213:A I *D sky130_fd_sc_hd__clkbuf_8
*I *11212:Y O *D sky130_fd_sc_hd__nor2_2
*CAP
1 *11244:A 0
2 *11279:A 0
3 *11322:B1 0.000749407
4 *11316:B1 1.16791e-05
5 *11319:B1 9.92246e-05
6 *11213:A 0.00024966
7 *11212:Y 0.000126419
8 *118:104 0.0013571
9 *118:81 0.00309653
10 *118:61 0.00418757
11 *118:43 0.00291305
12 *118:14 0.00154938
13 *118:12 0.000299368
14 *11213:A *11396:A 7.84388e-05
15 *11213:A *11489:A 4.99619e-05
16 *11213:A *11562:A 1.83975e-05
17 *11213:A *122:56 1.6783e-05
18 *11213:A *580:24 0.000311481
19 *11213:A *584:34 0.000250893
20 *11316:B1 *11322:C1 2.72726e-05
21 *11316:B1 *173:129 4.78756e-05
22 *11319:B1 *11319:A1 0
23 *11319:B1 *11319:B2 0.000105335
24 *11319:B1 *11322:C1 4.02685e-05
25 *11319:B1 *122:93 1.76403e-05
26 *11322:B1 *11310:A1 0.000526305
27 *11322:B1 *11313:A2 1.12643e-05
28 *11322:B1 *11313:C1 5.82798e-05
29 *11322:B1 *11316:B2 8.41703e-06
30 *11322:B1 *11322:B2 1.7635e-05
31 *11322:B1 *11617:A 5.05716e-06
32 *11322:B1 *615:12 6.93523e-06
33 *118:12 *582:18 4.75959e-05
34 *118:14 *11396:A 0.000100889
35 *118:14 *122:56 3.98764e-05
36 *118:43 *122:56 0.00142458
37 *118:43 *371:26 0.000426304
38 *118:43 *404:18 7.06865e-05
39 *118:43 *584:34 0.000426304
40 *118:61 *716:DIODE 8.7152e-06
41 *118:61 *11417:A 0.000803745
42 *118:61 *122:56 0.00204324
43 *118:61 *122:58 0.000510747
44 *118:61 *165:12 8.69089e-05
45 *118:61 *165:20 0.000167111
46 *118:61 *170:63 0.0002001
47 *118:61 *173:12 0
48 *118:81 *11304:B2 8.30853e-06
49 *118:81 *11307:A2 1.88656e-05
50 *118:81 *11307:B2 0.00014258
51 *118:81 *11319:B2 0.000171241
52 *118:81 *11341:A 3.90349e-05
53 *118:81 *11471:A 0.00132556
54 *118:81 *11617:A 1.7635e-05
55 *118:81 *165:12 4.11281e-05
56 *118:81 *404:24 0.000747935
57 *118:81 *612:20 0.00042314
58 *118:104 *11310:A1 2.04591e-05
59 *118:104 *11316:A2 1.51915e-05
60 *118:104 *11316:B2 3.59531e-06
61 *118:104 *165:147 0.000747722
62 *11211:A *118:12 2.13417e-05
63 *11211:A *118:14 8.08091e-05
64 *11212:B *118:12 0.000118663
65 *11212:B *118:14 0.000237185
66 *11319:A2 *11319:B1 4.61701e-06
67 *11322:A2 *11319:B1 3.07667e-05
68 *11322:A2 *118:81 1.27288e-05
69 *11484:A *11213:A 5.20903e-05
70 *115:30 *118:81 0.00031499
71 *115:37 *118:81 3.63661e-05
72 *117:69 *118:61 0.00286291
73 *117:104 *118:61 0.00037311
*RES
1 *11212:Y *118:12 5.625 
2 *118:12 *118:14 4.44 
3 *118:14 *11213:A 9.51 
4 *118:14 *118:43 24.6 
5 *118:43 *118:61 36.2437 
6 *118:61 *118:81 44.83 
7 *118:81 *11319:B1 5.89875 
8 *118:81 *118:104 11.875 
9 *118:104 *11316:B1 4.04625 
10 *118:104 *11322:B1 6.37708 
11 *118:61 *11279:A 1.6 
12 *118:12 *11244:A 3.6 
*END

*D_NET *119 0.0264802
*CONN
*I *11249:A2 I *D sky130_fd_sc_hd__o221a_2
*I *11234:A2 I *D sky130_fd_sc_hd__o221a_1
*I *11243:A2 I *D sky130_fd_sc_hd__o221a_2
*I *11231:A2 I *D sky130_fd_sc_hd__o221a_1
*I *11240:A2 I *D sky130_fd_sc_hd__o221a_2
*I *11237:A2 I *D sky130_fd_sc_hd__o221a_2
*I *11228:A2 I *D sky130_fd_sc_hd__o221a_1
*I *11222:A2 I *D sky130_fd_sc_hd__o221a_1
*I *11225:A2 I *D sky130_fd_sc_hd__o221a_1
*I *11219:A2 I *D sky130_fd_sc_hd__o221a_1
*I *11214:X O *D sky130_fd_sc_hd__clkbuf_4
*CAP
1 *11249:A2 0
2 *11234:A2 0.00014364
3 *11243:A2 0
4 *11231:A2 0.000184982
5 *11240:A2 0.000158978
6 *11237:A2 0.000239767
7 *11228:A2 3.83127e-05
8 *11222:A2 0
9 *11225:A2 0
10 *11219:A2 0.0003444
11 *11214:X 0.000926426
12 *119:77 0.000324475
13 *119:48 0.000541296
14 *119:44 0.000276861
15 *119:42 0.00032806
16 *119:40 0.000520272
17 *119:38 0.000366259
18 *119:36 7.35331e-05
19 *119:34 0.000404959
20 *119:26 0.00236362
21 *119:16 0.00308058
22 *11219:A2 *735:DIODE 5.53249e-06
23 *11219:A2 *11219:C1 4.82863e-05
24 *11219:A2 *11225:B2 0.000329954
25 *11219:A2 *11607:A 5.83121e-06
26 *11219:A2 *227:27 0.000170485
27 *11228:A2 *11228:B2 0.000141599
28 *11228:A2 *230:27 7.45302e-05
29 *11231:A2 *745:DIODE 8.53113e-06
30 *11231:A2 *11231:B1 0
31 *11231:A2 *11231:B2 4.99619e-05
32 *11231:A2 *11348:A 6.28843e-05
33 *11231:A2 *201:54 0
34 *11231:A2 *201:126 0.000116158
35 *11231:A2 *231:21 0.000303559
36 *11234:A2 *11231:B2 0
37 *11234:A2 *11243:A1 0.000149545
38 *11234:A2 *231:21 8.09021e-06
39 *11234:A2 *625:20 4.66108e-05
40 *11237:A2 *11228:B2 1.71207e-05
41 *11237:A2 *11237:B1 2.5777e-05
42 *11237:A2 *123:43 3.57349e-05
43 *11237:A2 *123:49 4.66108e-05
44 *11237:A2 *135:22 2.49909e-05
45 *11237:A2 *216:29 0.000133547
46 *11237:A2 *230:27 0.000177662
47 *11240:A2 *11240:A1 0.000103185
48 *119:16 *123:14 0.00387977
49 *119:16 *148:16 0.000111285
50 *119:16 *201:20 0
51 *119:16 *201:22 0.00345614
52 *119:16 *201:48 0.000311068
53 *119:16 *633:10 0.000113797
54 *119:26 *11249:B2 9.50342e-06
55 *119:26 *201:48 0.00105546
56 *119:26 *575:30 0.00191551
57 *119:26 *595:16 0
58 *119:26 *600:16 3.63661e-05
59 *119:34 *11249:B1 6.03283e-05
60 *119:34 *123:16 3.75342e-05
61 *119:34 *123:18 0.000500083
62 *119:34 *627:14 0.000628509
63 *119:36 *123:18 6.90044e-05
64 *119:36 *627:14 6.69608e-06
65 *119:38 *123:18 2.75145e-05
66 *119:40 *11243:B1 1.12643e-05
67 *119:40 *123:18 5.91871e-05
68 *119:40 *123:22 7.57202e-05
69 *119:40 *123:26 0.00015639
70 *119:42 *11222:A1 4.82919e-05
71 *119:42 *123:26 0.00022786
72 *119:44 *11222:A1 0.000197628
73 *119:44 *11629:A 0.000187197
74 *119:48 *735:DIODE 8.65905e-05
75 *119:48 *11225:B1 5.4155e-06
76 *119:48 *11629:A 0.000454705
77 *119:48 *201:88 0.000298799
78 *11324:RESET_B *11231:A2 4.99619e-05
*RES
1 *11214:X *119:16 48.295 
2 *119:16 *119:26 35.43 
3 *119:26 *119:34 9.9 
4 *119:34 *119:36 1.14 
5 *119:36 *119:38 0.45 
6 *119:38 *119:40 3.21 
7 *119:40 *119:42 3.555 
8 *119:42 *119:44 2.52 
9 *119:44 *119:48 5.985 
10 *119:48 *11219:A2 12.74 
11 *119:48 *11225:A2 1.6 
12 *119:44 *11222:A2 1.6 
13 *119:42 *119:77 2.81 
14 *119:77 *11228:A2 5.235 
15 *119:77 *11237:A2 8.385 
16 *119:40 *11240:A2 7.745 
17 *119:38 *11231:A2 10.535 
18 *119:36 *11243:A2 1.6 
19 *119:34 *11234:A2 8.195 
20 *119:26 *11249:A2 1.6 
*END

*D_NET *120 0.0350923
*CONN
*I *11216:A0 I *D sky130_fd_sc_hd__mux2_2
*I *11215:X O *D sky130_fd_sc_hd__mux2_2
*CAP
1 *11216:A0 8.92947e-05
2 *11215:X 9.36289e-05
3 *120:10 0.00384125
4 *120:8 0.00384558
5 *11216:A0 *11216:S 4.66108e-05
6 *11216:A0 *143:80 8.247e-05
7 *11216:A0 *237:27 5.74791e-05
8 *120:8 *326:35 0.000118081
9 *120:10 *1163:DIODE 7.89689e-05
10 *120:10 *159:10 0.0117912
11 *120:10 *163:10 0.000395131
12 *120:10 *200:66 0
13 *120:10 *240:22 0.000996108
14 *120:10 *240:49 0.000175581
15 *120:10 *245:26 2.54523e-05
16 *120:10 *298:30 0.000616037
17 *120:10 *327:60 6.34101e-06
18 *120:10 *564:10 0.0069675
19 *11421:A *120:10 0.00144106
20 *3:25 *120:10 0.00225392
21 *111:10 *120:10 0.00217066
*RES
1 *11215:X *120:8 4.74 
2 *120:8 *120:10 158.46 
3 *120:10 *11216:A0 5.445 
*END

*D_NET *121 0.0312411
*CONN
*I *11219:B2 I *D sky130_fd_sc_hd__o221a_1
*I *11216:X O *D sky130_fd_sc_hd__mux2_2
*CAP
1 *11219:B2 0.000436482
2 *11216:X 4.77313e-05
3 *121:18 0.00238912
4 *121:16 0.00288669
5 *121:12 0.00268208
6 *121:8 0.00179576
7 *11219:B2 *11219:B1 9.50342e-06
8 *11219:B2 *11225:B2 0
9 *11219:B2 *205:29 0.000329556
10 *11219:B2 *227:27 0
11 *121:8 *143:80 8.40269e-05
12 *121:12 *129:8 0.00122595
13 *121:12 *130:10 0.00190643
14 *121:12 *242:41 0.00165691
15 *121:16 *11257:A2 0.000690869
16 *121:16 *11257:B1 0.000767952
17 *121:16 *129:8 9.6872e-05
18 *121:16 *140:134 0.000837197
19 *121:16 *145:41 0.000566662
20 *121:16 *145:112 0.000351986
21 *121:16 *145:123 0.000849384
22 *121:16 *148:24 0.000243358
23 *121:16 *148:97 0.000252701
24 *121:16 *148:108 1.01155e-05
25 *121:18 *125:18 0.000395688
26 *121:18 *129:12 0.00595872
27 *121:18 *137:16 0.000109101
28 *121:18 *205:29 0.000572416
29 *121:18 *229:42 0.000674971
30 *121:18 *231:19 0.000138316
31 *121:18 *235:19 0.00327458
*RES
1 *11216:X *121:8 4.395 
2 *121:8 *121:12 47.2125 
3 *121:12 *121:16 35.0075 
4 *121:16 *121:18 66.69 
5 *121:18 *11219:B2 15.395 
*END

*D_NET *122 0.0352267
*CONN
*I *11319:C1 I *D sky130_fd_sc_hd__o221a_2
*I *11322:C1 I *D sky130_fd_sc_hd__o221a_2
*I *11288:A I *D sky130_fd_sc_hd__buf_2
*I *11253:A I *D sky130_fd_sc_hd__clkbuf_4
*I *11218:A I *D sky130_fd_sc_hd__clkbuf_4
*I *11217:Y O *D sky130_fd_sc_hd__nor2_2
*CAP
1 *11319:C1 0
2 *11322:C1 0.00118254
3 *11288:A 2.60225e-05
4 *11253:A 6.21883e-05
5 *11218:A 0.00021043
6 *11217:Y 0.0011561
7 *122:93 0.00205525
8 *122:89 0.00137256
9 *122:58 0.000759594
10 *122:56 0.00150912
11 *122:29 0.00231427
12 *122:16 0.00234321
13 *11218:A *123:14 0
14 *11218:A *600:24 6.14776e-05
15 *11253:A *140:24 1.77709e-05
16 *11322:C1 *11310:A1 3.59531e-06
17 *11322:C1 *11310:B1 2.59353e-05
18 *11322:C1 *11310:B2 0
19 *11322:C1 *11313:A2 0.000123733
20 *11322:C1 *11313:C1 0.000162881
21 *11322:C1 *11316:A2 1.60083e-05
22 *11322:C1 *11319:A1 2.36616e-05
23 *11322:C1 *11319:B2 2.7441e-05
24 *11322:C1 *11330:A 0.000260533
25 *11322:C1 *11507:A 0
26 *11322:C1 *11617:A 2.48249e-05
27 *11322:C1 *173:125 0.000560837
28 *11322:C1 *173:129 0.000108784
29 *122:16 *11204:B 0.000308741
30 *122:16 *567:31 0
31 *122:16 *589:22 0.00265781
32 *122:16 *600:24 0.000179503
33 *122:16 *611:12 0.00265781
34 *122:29 *11284:A2 0.000465393
35 *122:29 *148:16 0.000368559
36 *122:56 *11284:A2 0.00034219
37 *122:56 *11503:A 0.000235998
38 *122:56 *11562:A 0.00012657
39 *122:56 *371:26 0.000497676
40 *122:56 *404:18 0
41 *122:56 *567:18 0
42 *122:56 *580:24 0.0011807
43 *122:56 *584:34 0.000388511
44 *122:58 *580:24 0.000869629
45 *122:89 *170:16 0.000114936
46 *122:89 *173:44 0.000350565
47 *122:89 *607:16 0
48 *122:89 *608:12 0
49 *122:93 *11319:A1 4.60584e-05
50 *122:93 *11319:B2 4.99619e-05
51 *122:93 *11469:A 0.000232403
52 *122:93 *349:12 0.00205275
53 *122:93 *448:16 0.0019586
54 *11201:A *122:16 0.000305992
55 *11211:A *11253:A 1.94256e-05
56 *11212:B *122:56 7.98512e-05
57 *11213:A *122:56 1.6783e-05
58 *11316:B1 *11322:C1 2.72726e-05
59 *11319:A2 *11322:C1 1.92979e-05
60 *11319:B1 *11322:C1 4.02685e-05
61 *11319:B1 *122:93 1.76403e-05
62 *11322:A2 *11322:C1 0.000202191
63 *11397:A *122:56 7.27003e-05
64 *117:69 *11288:A 8.52137e-06
65 *117:69 *122:58 4.9101e-05
66 *117:69 *122:89 8.34281e-06
67 *117:71 *122:89 0.000318899
68 *117:104 *122:89 0.000133128
69 *117:104 *122:93 0.00039566
70 *118:14 *122:56 3.98764e-05
71 *118:43 *122:56 0.00142458
72 *118:61 *122:56 0.00204324
73 *118:61 *122:58 0.000510747
*RES
1 *11217:Y *122:16 46.345 
2 *122:16 *11218:A 7.02 
3 *122:16 *122:29 15.215 
4 *122:29 *11253:A 6.725 
5 *122:29 *122:56 46.6525 
6 *122:56 *122:58 9.2475 
7 *122:58 *11288:A 1.96 
8 *122:58 *122:89 18.2 
9 *122:89 *122:93 34.62 
10 *122:93 *11322:C1 27.615 
11 *122:93 *11319:C1 1.6 
*END

*D_NET *123 0.0252956
*CONN
*I *11249:C1 I *D sky130_fd_sc_hd__o221a_2
*I *11234:C1 I *D sky130_fd_sc_hd__o221a_1
*I *11243:C1 I *D sky130_fd_sc_hd__o221a_2
*I *11231:C1 I *D sky130_fd_sc_hd__o221a_1
*I *11237:C1 I *D sky130_fd_sc_hd__o221a_2
*I *11219:C1 I *D sky130_fd_sc_hd__o221a_1
*I *11225:C1 I *D sky130_fd_sc_hd__o221a_1
*I *11222:C1 I *D sky130_fd_sc_hd__o221a_1
*I *11228:C1 I *D sky130_fd_sc_hd__o221a_1
*I *11240:C1 I *D sky130_fd_sc_hd__o221a_2
*I *11218:X O *D sky130_fd_sc_hd__clkbuf_4
*CAP
1 *11249:C1 2.08101e-05
2 *11234:C1 0.000127727
3 *11243:C1 0
4 *11231:C1 0.000178966
5 *11237:C1 0
6 *11219:C1 0.000166644
7 *11225:C1 2.92396e-05
8 *11222:C1 0
9 *11228:C1 0.000257724
10 *11240:C1 0.000152632
11 *11218:X 0.00132125
12 *123:75 0.000626987
13 *123:51 0.000291854
14 *123:49 0.00091138
15 *123:43 0.000585029
16 *123:26 0.000484781
17 *123:22 0.000404092
18 *123:20 5.26701e-05
19 *123:18 0.000679916
20 *123:16 0.00197146
21 *123:14 0.00274052
22 *11219:C1 *11219:B1 0.000113724
23 *11219:C1 *11225:B2 0.000113087
24 *11225:C1 *11219:B1 1.02348e-05
25 *11225:C1 *11225:B2 1.79722e-05
26 *11225:C1 *11607:A 0
27 *11228:C1 *201:79 0.000340856
28 *11231:C1 *745:DIODE 2.11084e-05
29 *11231:C1 *11231:B1 0.000112123
30 *11231:C1 *11240:B2 0.000227536
31 *11231:C1 *11629:A 2.97004e-06
32 *11231:C1 *201:54 8.92701e-05
33 *11231:C1 *201:126 0
34 *11231:C1 *201:132 2.97004e-06
35 *11234:C1 *11243:B2 0.000107608
36 *11234:C1 *201:132 0.000107608
37 *11240:C1 *742:DIODE 9.50342e-06
38 *11240:C1 *11632:A 1.83756e-05
39 *11240:C1 *201:71 8.65905e-05
40 *11240:C1 *230:27 0.000210151
41 *11249:C1 *11249:B1 0
42 *123:14 *148:16 0.000125284
43 *123:14 *600:24 0.000181383
44 *123:14 *628:12 0.00316878
45 *123:16 *11249:B1 0.000317377
46 *123:16 *11266:A1 0.00202925
47 *123:16 *11266:B1 3.74413e-05
48 *123:16 *11266:C1 0.000157276
49 *123:16 *145:68 0.000371888
50 *123:16 *145:74 0.000158066
51 *123:16 *382:47 5.88283e-05
52 *123:16 *628:8 5.89682e-05
53 *123:16 *628:12 7.10593e-06
54 *123:18 *11243:B1 1.12643e-05
55 *123:43 *230:27 0.000143695
56 *123:49 *11222:B2 3.17883e-05
57 *123:51 *11222:B2 1.23673e-05
58 *123:51 *201:79 5.18317e-06
59 *123:75 *11219:B1 8.65961e-05
60 *123:75 *201:88 0.000525698
61 *11218:A *123:14 0
62 *11219:A2 *11219:C1 4.82863e-05
63 *11237:A2 *123:43 3.57349e-05
64 *11237:A2 *123:49 4.66108e-05
65 *11324:RESET_B *11231:C1 4.82863e-05
66 *119:16 *123:14 0.00387977
67 *119:34 *123:16 3.75342e-05
68 *119:34 *123:18 0.000500083
69 *119:36 *123:18 6.90044e-05
70 *119:38 *123:18 2.75145e-05
71 *119:40 *123:18 5.91871e-05
72 *119:40 *123:22 7.57202e-05
73 *119:40 *123:26 0.00015639
74 *119:42 *123:26 0.00022786
*RES
1 *11218:X *123:14 49.235 
2 *123:14 *123:16 28.74 
3 *123:16 *123:18 10.11 
4 *123:18 *123:20 0.36 
5 *123:20 *123:22 0.795 
6 *123:22 *123:26 5.555 
7 *123:26 *11240:C1 6.795 
8 *123:26 *123:43 4.34 
9 *123:43 *123:49 8.315 
10 *123:49 *123:51 0.615 
11 *123:51 *11228:C1 8.865 
12 *123:51 *11222:C1 3.6 
13 *123:49 *123:75 9.625 
14 *123:75 *11225:C1 4.215 
15 *123:75 *11219:C1 7.725 
16 *123:43 *11237:C1 1.6 
17 *123:22 *11231:C1 10.235 
18 *123:20 *11243:C1 1.6 
19 *123:18 *11234:C1 8.135 
20 *123:16 *11249:C1 1.96 
*END

*D_NET *124 0.035357
*CONN
*I *11221:A0 I *D sky130_fd_sc_hd__mux2_2
*I *11220:X O *D sky130_fd_sc_hd__mux2_2
*CAP
1 *11221:A0 0.000119128
2 *11220:X 4.28024e-05
3 *124:10 0.0042853
4 *124:8 0.00420897
5 *11221:A0 *11221:S 8.63479e-05
6 *11221:A0 *125:12 1.41095e-05
7 *124:8 *1117:DIODE 1.1392e-05
8 *124:10 *128:10 0.0126198
9 *124:10 *130:10 0.000431748
10 *124:10 *151:18 0.0130938
11 *124:10 *295:28 0.000443512
*RES
1 *11220:X *124:8 4.05 
2 *124:8 *124:10 166.365 
3 *124:10 *11221:A0 5.43 
*END

*D_NET *125 0.0321539
*CONN
*I *11222:B2 I *D sky130_fd_sc_hd__o221a_1
*I *11221:X O *D sky130_fd_sc_hd__mux2_2
*CAP
1 *11222:B2 0.000805358
2 *11221:X 0.000667777
3 *125:18 0.00258269
4 *125:16 0.00177734
5 *125:14 0.00197541
6 *125:12 0.00264319
7 *11222:B2 *11228:B2 0
8 *11222:B2 *201:79 9.09788e-06
9 *11222:B2 *515:14 0
10 *125:12 *11221:S 4.66108e-05
11 *125:12 *11265:S 0.000225285
12 *125:12 *133:12 3.24638e-05
13 *125:12 *133:14 0
14 *125:12 *143:106 0.00010837
15 *125:12 *242:41 0.000191335
16 *125:12 *242:43 0.000153816
17 *125:12 *242:45 0.000153816
18 *125:12 *549:22 0.000503612
19 *125:12 *552:12 0.000997973
20 *125:14 *133:14 0.000566645
21 *125:14 *212:35 0.00279628
22 *125:14 *549:16 0.000548426
23 *125:14 *592:34 0.00470757
24 *125:14 *596:12 0
25 *125:18 *131:16 0.00439198
26 *125:18 *137:16 0.00365338
27 *125:18 *205:29 0.000484406
28 *125:18 *231:19 8.05167e-05
29 *11221:A0 *125:12 1.41095e-05
30 *112:10 *125:12 0.00158554
31 *112:10 *125:14 1.10631e-05
32 *121:18 *125:18 0.000395688
33 *123:49 *11222:B2 3.17883e-05
34 *123:51 *11222:B2 1.23673e-05
*RES
1 *11221:X *125:12 28.0125 
2 *125:12 *125:14 66.5325 
3 *125:14 *125:16 2 
4 *125:16 *125:18 54.27 
5 *125:18 *11222:B2 18.455 
*END

*D_NET *126 0.0386762
*CONN
*I *11224:A0 I *D sky130_fd_sc_hd__mux2_2
*I *11223:X O *D sky130_fd_sc_hd__mux2_2
*CAP
1 *11224:A0 0.000163006
2 *11223:X 0.000275901
3 *126:10 0.00475275
4 *126:8 0.00486565
5 *11224:A0 *927:DIODE 8.52883e-05
6 *11224:A0 *127:8 4.91081e-05
7 *11224:A0 *242:41 0.00018955
8 *11224:A0 *259:33 0.000250145
9 *11224:A0 *259:35 0.000147115
10 *126:8 *11223:A1 0.000198958
11 *126:8 *128:8 1.33285e-05
12 *126:8 *203:88 0.000157378
13 *126:10 *11233:A0 0.000587923
14 *126:10 *133:12 5.59959e-05
15 *126:10 *133:14 0.000505551
16 *126:10 *134:18 0.000217493
17 *126:10 *136:10 0.0134391
18 *126:10 *138:10 0.000301172
19 *126:10 *143:80 0.000107545
20 *126:10 *143:93 0.000189144
21 *126:10 *147:16 7.01359e-05
22 *126:10 *149:24 0.0109456
23 *126:10 *202:60 0.000155224
24 *126:10 *202:69 0.000725294
25 *126:10 *202:84 0.000145201
26 *126:10 *213:33 0
27 *126:10 *267:55 1.7635e-05
28 *126:10 *294:32 8.30853e-06
29 *126:10 *330:35 5.66369e-05
*RES
1 *11223:X *126:8 7.1925 
2 *126:8 *126:10 175.8 
3 *126:10 *11224:A0 8.19 
*END

*D_NET *127 0.0268937
*CONN
*I *11225:B2 I *D sky130_fd_sc_hd__o221a_1
*I *11224:X O *D sky130_fd_sc_hd__mux2_2
*CAP
1 *11225:B2 0.000351056
2 *11224:X 0.000153236
3 *127:14 0.00185154
4 *127:12 0.00150049
5 *127:10 0.00285985
6 *127:8 0.00301309
7 *11225:B2 *227:27 0.000150083
8 *127:8 *242:41 4.60061e-05
9 *127:10 *129:8 0.000333228
10 *127:10 *131:10 0
11 *127:10 *140:113 0.000348062
12 *127:10 *140:130 0.000154217
13 *127:10 *213:33 0.00401651
14 *127:14 *133:20 0.00488314
15 *127:14 *228:26 0.000713543
16 *127:14 *233:27 0.00414573
17 *127:14 *234:25 0.000187932
18 *127:14 *393:12 0.00111356
19 *11219:A2 *11225:B2 0.000329954
20 *11219:B2 *11225:B2 0
21 *11219:C1 *11225:B2 0.000113087
22 *11224:A0 *127:8 4.91081e-05
23 *11225:C1 *11225:B2 1.79722e-05
24 *3:23 *127:14 0.000562298
*RES
1 *11224:X *127:8 5.775 
2 *127:8 *127:10 64.875 
3 *127:10 *127:12 2 
4 *127:12 *127:14 62.205 
5 *127:14 *11225:B2 13.865 
*END

*D_NET *128 0.0337647
*CONN
*I *11227:A0 I *D sky130_fd_sc_hd__mux2_2
*I *11226:X O *D sky130_fd_sc_hd__mux2_2
*CAP
1 *11227:A0 7.82606e-05
2 *11226:X 5.07938e-05
3 *128:10 0.00507691
4 *128:8 0.00504945
5 *11227:A0 *202:49 6.51658e-05
6 *128:8 *11223:A1 8.41307e-05
7 *128:8 *203:88 0.000114652
8 *128:8 *323:71 4.77719e-05
9 *128:8 *323:73 0.000187286
10 *128:10 *11221:S 2.19463e-05
11 *128:10 *130:10 1.38867e-05
12 *128:10 *146:18 0.000938553
13 *128:10 *149:24 0
14 *128:10 *160:10 0.00287762
15 *128:10 *213:29 0.00501205
16 *128:10 *213:33 0.000111395
17 *128:10 *242:41 0.00127404
18 *128:10 *295:28 0.000127596
19 *124:10 *128:10 0.0126198
20 *126:8 *128:8 1.33285e-05
*RES
1 *11226:X *128:8 5.7075 
2 *128:8 *128:10 167.13 
3 *128:10 *11227:A0 4.74 
*END

*D_NET *129 0.0259461
*CONN
*I *11228:B2 I *D sky130_fd_sc_hd__o221a_1
*I *11227:X O *D sky130_fd_sc_hd__mux2_2
*CAP
1 *11228:B2 0.000737173
2 *11227:X 0
3 *129:12 0.0030134
4 *129:10 0.00227622
5 *129:8 0.00188432
6 *129:6 0.00188432
7 *11228:B2 *742:DIODE 4.18603e-06
8 *11228:B2 *216:29 0.000498224
9 *11228:B2 *230:27 2.63122e-05
10 *11228:B2 *515:14 0.000530476
11 *129:8 *11257:B1 5.79273e-05
12 *129:8 *11257:C1 0.000630975
13 *129:8 *148:24 0.000418153
14 *129:8 *148:97 0.000466212
15 *129:8 *148:108 0.000827172
16 *129:8 *160:10 0.00386198
17 *129:8 *213:33 0.000434366
18 *129:8 *242:41 0.000621197
19 *11222:B2 *11228:B2 0
20 *11228:A2 *11228:B2 0.000141599
21 *11237:A2 *11228:B2 1.71207e-05
22 *121:12 *129:8 0.00122595
23 *121:16 *129:8 9.6872e-05
24 *121:18 *129:12 0.00595872
25 *127:10 *129:8 0.000333228
*RES
1 *11227:X *129:6 3.6 
2 *129:6 *129:8 66.915 
3 *129:8 *129:10 2 
4 *129:10 *129:12 54.96 
5 *129:12 *11228:B2 22.025 
*END

*D_NET *130 0.0325172
*CONN
*I *11230:A0 I *D sky130_fd_sc_hd__mux2_2
*I *11229:X O *D sky130_fd_sc_hd__mux2_2
*CAP
1 *11230:A0 5.37224e-05
2 *11229:X 5.21021e-05
3 *130:10 0.00790906
4 *130:8 0.00790744
5 *11230:A0 *131:8 5.83121e-06
6 *11230:A0 *263:29 0.000122325
7 *130:8 *327:60 3.1835e-05
8 *130:10 *802:DIODE 0.000327974
9 *130:10 *11221:S 0.000310035
10 *130:10 *11256:S 0.00015046
11 *130:10 *143:132 0.000136884
12 *130:10 *143:141 0.000145519
13 *130:10 *143:160 0.000195661
14 *130:10 *151:18 0.0120478
15 *130:10 *202:47 0.00070274
16 *130:10 *242:41 2.74947e-05
17 *130:10 *266:21 1.93834e-05
18 *130:10 *268:39 1.88904e-05
19 *121:12 *130:10 0.00190643
20 *124:10 *130:10 0.000431748
21 *128:10 *130:10 1.38867e-05
*RES
1 *11229:X *130:8 4.395 
2 *130:8 *130:10 176.055 
3 *130:10 *11230:A0 4.74 
*END

*D_NET *131 0.0242044
*CONN
*I *11231:B2 I *D sky130_fd_sc_hd__o221a_1
*I *11230:X O *D sky130_fd_sc_hd__mux2_2
*CAP
1 *11231:B2 0.00132071
2 *11230:X 0.000238731
3 *131:16 0.00253826
4 *131:10 0.00358832
5 *131:8 0.00260949
6 *11231:B2 *745:DIODE 9.66021e-05
7 *11231:B2 *11231:A1 4.82863e-05
8 *11231:B2 *11243:A1 0
9 *11231:B2 *11513:A 0.00011379
10 *11231:B2 *11599:A 2.49909e-05
11 *11231:B2 *575:26 4.82919e-05
12 *11231:B2 *600:16 2.88369e-05
13 *131:8 *943:DIODE 1.77665e-05
14 *131:8 *263:29 0.000121257
15 *131:10 *133:14 0.00495398
16 *131:10 *140:113 0.000601546
17 *131:10 *140:130 0.00042598
18 *131:16 *11243:B2 0
19 *131:16 *11249:A1 0
20 *131:16 *11249:B2 6.37195e-05
21 *131:16 *11263:B2 0.00216003
22 *131:16 *205:29 0.000325682
23 *131:16 *232:35 5.34335e-05
24 *131:16 *596:14 8.41218e-05
25 *11230:A0 *131:8 5.83121e-06
26 *11231:A2 *11231:B2 4.99619e-05
27 *11234:A2 *11231:B2 0
28 *11324:RESET_B *11231:B2 0.000292759
29 *125:18 *131:16 0.00439198
30 *127:10 *131:10 0
*RES
1 *11230:X *131:8 7.155 
2 *131:8 *131:10 59.265 
3 *131:10 *131:16 45.505 
4 *131:16 *11231:B2 26.16 
*END

*D_NET *132 0.0367675
*CONN
*I *11233:A0 I *D sky130_fd_sc_hd__mux2_2
*I *11232:X O *D sky130_fd_sc_hd__mux2_2
*CAP
1 *11233:A0 0.000771024
2 *11232:X 6.26278e-05
3 *132:10 0.00401715
4 *132:8 0.00330875
5 *11233:A0 *11233:S 0.000264583
6 *11233:A0 *11605:A 8.40213e-05
7 *11233:A0 *134:18 0.0013589
8 *11233:A0 *143:80 0.000107545
9 *11233:A0 *143:93 0.000197453
10 *11233:A0 *147:16 0.000190715
11 *11233:A0 *202:69 2.97746e-05
12 *11233:A0 *202:84 0.00015178
13 *11233:A0 *213:33 6.74661e-05
14 *11233:A0 *264:35 0.000147488
15 *132:8 *223:22 8.35106e-05
16 *132:10 *11515:R_WB 5.98468e-05
17 *132:10 *134:8 0.00148066
18 *132:10 *142:10 0.0125888
19 *132:10 *146:10 0.0040152
20 *132:10 *153:24 0.00151713
21 *132:10 *330:35 0.000185727
22 *132:10 *552:16 0.00388751
23 *132:10 *552:24 0.00160193
24 *126:10 *11233:A0 0.000587923
*RES
1 *11232:X *132:8 4.395 
2 *132:8 *132:10 145.965 
3 *132:10 *11233:A0 31.27 
*END

*D_NET *133 0.0308925
*CONN
*I *11234:B2 I *D sky130_fd_sc_hd__o221a_1
*I *11233:X O *D sky130_fd_sc_hd__mux2_2
*CAP
1 *11234:B2 0.00016569
2 *11233:X 0.000518816
3 *133:20 0.00119007
4 *133:14 0.0027431
5 *133:12 0.00223753
6 *11234:B2 *11243:A1 0.000533644
7 *11234:B2 *231:21 0.000548062
8 *133:12 *947:DIODE 3.49355e-05
9 *133:12 *11233:S 0.000193113
10 *133:12 *138:10 0.000937011
11 *133:12 *549:22 0.000495607
12 *133:12 *552:12 0.000544268
13 *133:14 *140:113 0.000183831
14 *133:14 *549:22 3.60648e-06
15 *133:14 *592:34 0.00508343
16 *133:20 *227:27 0.000264698
17 *133:20 *234:25 0.0042173
18 *125:12 *133:12 3.24638e-05
19 *125:12 *133:14 0
20 *125:14 *133:14 0.000566645
21 *126:10 *133:12 5.59959e-05
22 *126:10 *133:14 0.000505551
23 *127:14 *133:20 0.00488314
24 *131:10 *133:14 0.00495398
*RES
1 *11233:X *133:12 20.0775 
2 *133:12 *133:14 71.3775 
3 *133:14 *133:20 48.955 
4 *133:20 *11234:B2 10.08 
*END

*D_NET *134 0.0358122
*CONN
*I *11236:A0 I *D sky130_fd_sc_hd__mux2_2
*I *11235:X O *D sky130_fd_sc_hd__mux2_2
*CAP
1 *11236:A0 1.40724e-05
2 *11235:X 0
3 *134:18 0.00206317
4 *134:16 0.0023467
5 *134:8 0.00252715
6 *134:6 0.00222955
7 *11236:A0 *751:DIODE 4.66108e-05
8 *11236:A0 *202:84 2.68526e-05
9 *134:8 *11226:A0 9.14049e-05
10 *134:8 *146:10 0.00463283
11 *134:8 *153:24 0.00139308
12 *134:8 *229:32 0.000241718
13 *134:8 *229:34 0.00717902
14 *134:8 *296:40 0.000513681
15 *134:8 *326:35 0.000202095
16 *134:8 *552:24 0.00113605
17 *134:16 *11515:R_WB 2.49909e-05
18 *134:18 *11236:A1 3.75754e-05
19 *134:18 *143:106 0.000879411
20 *134:18 *143:132 0.000212701
21 *134:18 *146:18 0.0044881
22 *134:18 *147:16 3.45117e-05
23 *134:18 *149:24 0.00198601
24 *134:18 *197:16 9.28614e-05
25 *134:18 *197:35 0.000173756
26 *134:18 *213:33 0.000181287
27 *11233:A0 *134:18 0.0013589
28 *126:10 *134:18 0.000217493
29 *132:10 *134:8 0.00148066
*RES
1 *11235:X *134:6 3.6 
2 *134:6 *134:8 97.77 
3 *134:8 *134:16 7.57 
4 *134:16 *134:18 71.505 
5 *134:18 *11236:A0 4.05 
*END

*D_NET *135 0.0281472
*CONN
*I *11237:B2 I *D sky130_fd_sc_hd__o221a_2
*I *11236:X O *D sky130_fd_sc_hd__mux2_2
*CAP
1 *11237:B2 0
2 *11236:X 0.00108809
3 *135:22 0.00111405
4 *135:10 0.0026207
5 *135:8 0.00259474
6 *135:8 *751:DIODE 1.90662e-05
7 *135:8 *265:63 8.66915e-05
8 *135:8 *265:65 4.79712e-05
9 *135:8 *265:67 5.16211e-05
10 *135:10 *11269:A1 0.000130199
11 *135:10 *137:10 0.0062918
12 *135:10 *139:18 0.00479529
13 *135:10 *156:10 0.000740339
14 *135:10 *365:46 0.000881561
15 *135:10 *367:42 4.74304e-05
16 *135:10 *369:41 0.000419251
17 *135:10 *549:44 0.000647694
18 *135:10 *549:62 0.000123242
19 *135:10 *588:18 5.10957e-05
20 *135:22 *11237:A1 0.000230802
21 *135:22 *11237:B1 0.000340209
22 *135:22 *11240:B2 0.000318901
23 *135:22 *11243:B2 0.00111294
24 *135:22 *227:27 0.000266358
25 *135:22 *233:27 0.000507017
26 *135:22 *234:25 0.00359517
27 *11237:A2 *135:22 2.49909e-05
*RES
1 *11236:X *135:8 17.85 
2 *135:8 *135:10 84.51 
3 *135:10 *135:22 49.08 
4 *135:22 *11237:B2 1.6 
*END

*D_NET *136 0.035238
*CONN
*I *11239:A0 I *D sky130_fd_sc_hd__mux2_2
*I *11238:X O *D sky130_fd_sc_hd__mux2_2
*CAP
1 *11239:A0 0
2 *11238:X 0.000251869
3 *136:10 0.00362546
4 *136:8 0.00387733
5 *136:8 *11238:A1 0.000105508
6 *136:8 *298:30 5.9964e-05
7 *136:10 *138:10 0.0138788
8 *126:10 *136:10 0.0134391
*RES
1 *11238:X *136:8 7.155 
2 *136:8 *136:10 160.755 
3 *136:10 *11239:A0 3.6 
*END

*D_NET *137 0.0279899
*CONN
*I *11240:B2 I *D sky130_fd_sc_hd__o221a_2
*I *11239:X O *D sky130_fd_sc_hd__mux2_2
*CAP
1 *11240:B2 0.000675058
2 *11239:X 0.000970084
3 *137:16 0.00116948
4 *137:10 0.00176832
5 *137:8 0.00224398
6 *11240:B2 *11240:A1 0.000929178
7 *11240:B2 *11240:B1 1.42171e-05
8 *11240:B2 *11243:B2 0
9 *11240:B2 *11632:A 5.13899e-05
10 *11240:B2 *201:69 0.000167351
11 *11240:B2 *201:132 0
12 *11240:B2 *231:21 0
13 *11240:B2 *233:27 5.71093e-06
14 *137:8 *962:DIODE 5.16211e-05
15 *137:8 *11515:BEN[7] 2.65814e-06
16 *137:8 *233:17 5.69803e-05
17 *137:8 *266:36 5.16211e-05
18 *137:8 *549:32 0.000128296
19 *137:10 *11269:A1 2.15594e-05
20 *137:10 *139:16 0.00148852
21 *137:10 *209:21 0.00132213
22 *137:10 *235:9 0.00126535
23 *137:10 *235:19 0.000998558
24 *137:10 *367:42 0.000237946
25 *137:16 *205:29 0.000383021
26 *137:16 *231:19 0.00338614
27 *11231:C1 *11240:B2 0.000227536
28 *121:18 *137:16 0.000109101
29 *125:18 *137:16 0.00365338
30 *135:10 *137:10 0.0062918
31 *135:22 *11240:B2 0.000318901
*RES
1 *11239:X *137:8 16.815 
2 *137:8 *137:10 70.995 
3 *137:10 *137:16 37.225 
4 *137:16 *11240:B2 21.105 
*END

*D_NET *138 0.037281
*CONN
*I *11242:A0 I *D sky130_fd_sc_hd__mux2_2
*I *11241:X O *D sky130_fd_sc_hd__mux2_2
*CAP
1 *11242:A0 0
2 *11241:X 0.000139901
3 *138:10 0.00363753
4 *138:8 0.00377743
5 *138:8 *11241:A1 6.14306e-05
6 *138:8 *299:22 0.000262696
7 *138:8 *331:80 0.000107205
8 *138:8 *331:82 0.000335065
9 *138:10 *142:10 0.0134324
10 *138:10 *265:63 3.79555e-05
11 *138:10 *267:55 1.88904e-05
12 *138:10 *294:32 0.000160651
13 *138:10 *330:35 5.66369e-05
14 *138:10 *552:12 0.000136297
15 *126:10 *138:10 0.000301172
16 *133:12 *138:10 0.000937011
17 *136:10 *138:10 0.0138788
*RES
1 *11241:X *138:8 7.845 
2 *138:8 *138:10 169.935 
3 *138:10 *11242:A0 3.6 
*END

*D_NET *139 0.0246749
*CONN
*I *11243:B2 I *D sky130_fd_sc_hd__o221a_2
*I *11242:X O *D sky130_fd_sc_hd__mux2_2
*CAP
1 *11243:B2 0.0013566
2 *11242:X 0.00140211
3 *139:18 0.00227315
4 *139:16 0.00231866
5 *11243:B2 *11249:A1 0.000376582
6 *11243:B2 *11249:B2 1.32843e-05
7 *11243:B2 *201:126 8.53113e-06
8 *11243:B2 *201:132 2.81797e-05
9 *11243:B2 *231:21 0.000844
10 *11243:B2 *233:27 0.000189975
11 *11243:B2 *234:25 5.062e-06
12 *11243:B2 *611:12 0.00163228
13 *139:16 *11515:DI[10] 0.000119756
14 *139:16 *11515:DI[8] 0.000186795
15 *139:16 *206:9 6.33103e-05
16 *139:16 *235:9 0.00149185
17 *139:16 *267:57 1.26248e-05
18 *139:16 *267:59 1.26248e-05
19 *139:16 *267:63 1.35854e-05
20 *139:16 *365:46 2.62017e-05
21 *139:16 *367:40 1.08758e-05
22 *139:18 *11266:B2 1.17309e-05
23 *139:18 *156:10 0.00476421
24 *139:18 *588:18 8.53113e-06
25 *11234:C1 *11243:B2 0.000107608
26 *11240:B2 *11243:B2 0
27 *131:16 *11243:B2 0
28 *135:10 *139:18 0.00479529
29 *135:22 *11243:B2 0.00111294
30 *137:10 *139:16 0.00148852
*RES
1 *11242:X *139:16 38.545 
2 *139:16 *139:18 54.165 
3 *139:18 *11243:B2 49.495 
*END

*D_NET *140 0.0345579
*CONN
*I *11278:B1 I *D sky130_fd_sc_hd__o221a_2
*I *11275:B1 I *D sky130_fd_sc_hd__o221a_2
*I *11257:B1 I *D sky130_fd_sc_hd__o221a_2
*I *11272:B1 I *D sky130_fd_sc_hd__o221a_2
*I *11260:B1 I *D sky130_fd_sc_hd__o221a_2
*I *11266:B1 I *D sky130_fd_sc_hd__o221a_2
*I *11249:B1 I *D sky130_fd_sc_hd__o221a_2
*I *11263:B1 I *D sky130_fd_sc_hd__o221a_2
*I *11269:B1 I *D sky130_fd_sc_hd__o221a_2
*I *11254:B1 I *D sky130_fd_sc_hd__o221a_2
*I *11244:X O *D sky130_fd_sc_hd__clkbuf_4
*CAP
1 *11278:B1 8.804e-05
2 *11275:B1 0.000104784
3 *11257:B1 0.00114973
4 *11272:B1 1.63658e-05
5 *11260:B1 0.00061679
6 *11266:B1 5.02601e-05
7 *11249:B1 0.000123853
8 *11263:B1 0
9 *11269:B1 2.72354e-05
10 *11254:B1 0.000383022
11 *11244:X 0.00114942
12 *140:134 0.00139958
13 *140:130 0.000672318
14 *140:113 0.0014867
15 *140:89 0.000268189
16 *140:76 0.000290404
17 *140:53 0.000347126
18 *140:36 0.00205456
19 *140:34 0.00355839
20 *140:24 0.00271201
21 *11249:B1 *11266:C1 8.35068e-05
22 *11249:B1 *627:14 7.88971e-05
23 *11249:B1 *628:8 0.000309285
24 *11254:B1 *11254:A1 0.000567056
25 *11254:B1 *11254:B2 8.97315e-06
26 *11254:B1 *147:38 0.000103184
27 *11254:B1 *595:16 0.000122801
28 *11257:B1 *11257:A1 2.39856e-05
29 *11257:B1 *11257:A2 0.000173399
30 *11257:B1 *11257:B2 4.60903e-05
31 *11257:B1 *11257:C1 0.000644625
32 *11257:B1 *596:12 0.000120789
33 *11260:B1 *11260:A1 2.37059e-05
34 *11260:B1 *11260:A2 7.91624e-05
35 *11260:B1 *11260:C1 0
36 *11260:B1 *597:10 0.000518878
37 *11266:B1 *11266:C1 8.58063e-05
38 *11266:B1 *628:8 0.000141677
39 *11269:B1 *11269:B2 5.13684e-05
40 *11269:B1 *11269:C1 2.8867e-05
41 *11269:B1 *598:12 6.74582e-06
42 *11272:B1 *11204:B 2.47827e-05
43 *11272:B1 *11272:B2 4.62224e-05
44 *11275:B1 *11275:A1 0.000193877
45 *11275:B1 *11275:A2 5.25592e-05
46 *11275:B1 *11275:C1 0.000179568
47 *11275:B1 *213:37 4.66108e-05
48 *11278:B1 *11278:A2 3.20155e-05
49 *11278:B1 *11278:B2 4.96965e-05
50 *11278:B1 *11278:C1 5.45194e-06
51 *11278:B1 *148:16 5.05066e-06
52 *11278:B1 *148:24 7.8505e-06
53 *11278:B1 *604:12 3.68344e-06
54 *140:24 *11278:A1 0.000325885
55 *140:24 *145:35 0.000511221
56 *140:24 *215:32 0
57 *140:24 *578:12 0.000848528
58 *140:24 *600:26 0.0014047
59 *140:34 *11217:A 0.000716818
60 *140:34 *11278:A1 0.000246718
61 *140:34 *145:41 0.000610155
62 *140:34 *148:24 0.000455142
63 *140:34 *581:12 0.00011579
64 *140:34 *597:10 0
65 *140:36 *11217:A 0.000111656
66 *140:36 *11254:A1 0.00198707
67 *140:36 *592:30 0.000492526
68 *140:53 *11263:A1 0
69 *140:53 *11269:B2 0.000284976
70 *140:53 *11269:C1 0.000102346
71 *140:76 *11263:A1 0.000115176
72 *140:76 *232:35 0.000457631
73 *140:76 *598:12 3.68537e-05
74 *140:76 *625:20 8.66613e-05
75 *140:89 *11263:B2 7.9642e-06
76 *140:89 *11324:CLK 1.90233e-05
77 *140:89 *11416:A 0.000169665
78 *140:89 *145:74 4.75575e-05
79 *140:89 *625:20 1.12643e-05
80 *140:113 *148:24 0
81 *140:113 *592:34 7.96762e-05
82 *140:130 *11275:C1 4.82919e-05
83 *140:130 *213:37 0.000156754
84 *140:134 *11257:C1 9.09788e-06
85 *140:134 *148:108 0.000814804
86 *11211:A *140:24 0.000109372
87 *11249:C1 *11249:B1 0
88 *11253:A *140:24 1.77709e-05
89 *119:34 *11249:B1 6.03283e-05
90 *121:16 *11257:B1 0.000767952
91 *121:16 *140:134 0.000837197
92 *123:16 *11249:B1 0.000317377
93 *123:16 *11266:B1 3.74413e-05
94 *127:10 *140:113 0.000348062
95 *127:10 *140:130 0.000154217
96 *129:8 *11257:B1 5.79273e-05
97 *131:10 *140:113 0.000601546
98 *131:10 *140:130 0.00042598
99 *133:14 *140:113 0.000183831
*RES
1 *11244:X *140:24 34.7284 
2 *140:24 *140:34 16.5866 
3 *140:34 *140:36 27.015 
4 *140:36 *11254:B1 9.3325 
5 *140:36 *140:53 5.42 
6 *140:53 *11269:B1 4.44 
7 *140:53 *140:76 7.76375 
8 *140:76 *11263:B1 1.6 
9 *140:76 *140:89 6.25375 
10 *140:89 *11249:B1 7.00375 
11 *140:89 *11266:B1 3.37375 
12 *140:34 *140:113 16.13 
13 *140:113 *11260:B1 11.4788 
14 *140:113 *140:130 10.07 
15 *140:130 *140:134 11.795 
16 *140:134 *11272:B1 4.04625 
17 *140:134 *11257:B1 23.3738 
18 *140:130 *11275:B1 4.51375 
19 *140:24 *11278:B1 5.5775 
*END

*D_NET *141 0.0419017
*CONN
*I *11261:S I *D sky130_fd_sc_hd__mux2_4
*I *11264:S I *D sky130_fd_sc_hd__mux2_2
*I *11267:S I *D sky130_fd_sc_hd__mux2_4
*I *11255:S I *D sky130_fd_sc_hd__mux2_2
*I *11251:S I *D sky130_fd_sc_hd__mux2_2
*I *11258:S I *D sky130_fd_sc_hd__mux2_2
*I *11270:S I *D sky130_fd_sc_hd__mux2_2
*I *11273:S I *D sky130_fd_sc_hd__mux2_2
*I *11276:S I *D sky130_fd_sc_hd__mux2_2
*I *11246:S I *D sky130_fd_sc_hd__mux2_2
*I *11245:X O *D sky130_fd_sc_hd__buf_4
*CAP
1 *11261:S 0.000351199
2 *11264:S 0
3 *11267:S 0.000603984
4 *11255:S 0
5 *11251:S 0.000232114
6 *11258:S 0
7 *11270:S 0
8 *11273:S 0.00059805
9 *11276:S 0
10 *11246:S 0.000231145
11 *11245:X 0.000410429
12 *141:121 0.00112223
13 *141:109 0.0011153
14 *141:100 0.00193324
15 *141:60 0.000735109
16 *141:53 0.000643521
17 *141:38 0.000830689
18 *141:34 0.000536575
19 *141:24 0.00157784
20 *141:14 0.00263292
21 *141:10 0.0040032
22 *141:8 0.00437033
23 *11246:S *1054:DIODE 0.000153816
24 *11246:S *558:129 0.000166346
25 *11246:S *630:66 0.000163019
26 *11251:S *228:12 0.000197428
27 *11261:S *153:24 0
28 *11267:S *11267:A0 0.00016569
29 *11267:S *11267:A1 0.000226413
30 *11273:S *1095:DIODE 9.37731e-05
31 *11273:S *159:8 8.23457e-05
32 *11273:S *161:8 0.00015639
33 *11273:S *163:8 0.000118081
34 *11273:S *200:66 0.000848228
35 *11273:S *298:22 0
36 *11273:S *298:30 0.000219588
37 *11273:S *300:22 7.21296e-06
38 *11273:S *301:31 2.39856e-05
39 *11273:S *308:54 6.00111e-05
40 *11273:S *309:57 0.000232581
41 *11273:S *309:59 0.000118081
42 *11273:S *332:31 0.00014398
43 *141:8 *203:8 0.000517413
44 *141:8 *203:10 1.12668e-05
45 *141:10 *203:10 0.00407621
46 *141:14 *558:141 0.000152813
47 *141:14 *631:68 0.000159677
48 *141:24 *738:DIODE 4.77757e-05
49 *141:24 *11515:DI[30] 4.93654e-05
50 *141:24 *394:60 0.000172676
51 *141:24 *463:36 0.000178943
52 *141:24 *483:44 0.000317277
53 *141:24 *558:129 0.000176448
54 *141:24 *558:141 0.000328397
55 *141:24 *629:58 0.000713005
56 *141:24 *629:72 0.000883885
57 *141:24 *629:74 4.63336e-05
58 *141:24 *631:68 0.00233481
59 *141:34 *394:60 0.000362615
60 *141:34 *463:36 0.000359785
61 *141:34 *629:30 4.77719e-05
62 *141:38 *558:129 0.000399628
63 *141:38 *630:66 0.000407472
64 *141:53 *1097:DIODE 0.000155601
65 *141:53 *1112:DIODE 8.53224e-05
66 *141:53 *203:38 8.247e-05
67 *141:53 *308:54 0.000290614
68 *141:53 *308:56 0.00014294
69 *141:53 *310:31 7.08076e-05
70 *141:60 *163:8 5.74791e-05
71 *141:60 *308:54 0.000339776
72 *141:100 *992:DIODE 4.77719e-05
73 *141:100 *11255:A0 0.000352714
74 *141:100 *149:22 0.000480853
75 *141:100 *303:41 6.47326e-05
76 *141:100 *306:42 0.00234403
77 *141:109 *992:DIODE 8.86759e-05
78 *141:109 *306:42 0.000156906
79 *141:121 *11264:A1 7.20612e-05
80 *141:121 *11267:A1 0.000105647
81 *141:121 *306:42 0.000114914
*RES
1 *11245:X *141:8 10.1725 
2 *141:8 *141:10 68.5875 
3 *141:10 *141:14 3.89 
4 *141:14 *141:24 36.925 
5 *141:24 *141:34 11.225 
6 *141:34 *141:38 6.695 
7 *141:38 *11246:S 8.355 
8 *141:38 *141:53 11.075 
9 *141:53 *11276:S 1.6 
10 *141:53 *141:60 3.21 
11 *141:60 *11273:S 22.175 
12 *141:60 *11270:S 1.6 
13 *141:34 *11258:S 1.6 
14 *141:24 *11251:S 7.155 
15 *141:14 *141:100 39.71 
16 *141:100 *11255:S 1.6 
17 *141:100 *141:109 5.295 
18 *141:109 *141:121 11.725 
19 *141:121 *11267:S 11.725 
20 *141:121 *11264:S 1.6 
21 *141:109 *11261:S 9.53 
*END

*D_NET *142 0.0402201
*CONN
*I *11248:A0 I *D sky130_fd_sc_hd__mux2_2
*I *11246:X O *D sky130_fd_sc_hd__mux2_2
*CAP
1 *11248:A0 0
2 *11246:X 7.34636e-05
3 *142:10 0.00396427
4 *142:8 0.00403773
5 *142:8 *332:39 0.000118081
6 *142:10 *146:10 1.80024e-05
7 *142:10 *153:24 0.00141184
8 *142:10 *203:38 3.47757e-05
9 *142:10 *203:44 4.50812e-05
10 *142:10 *224:34 8.65559e-05
11 *142:10 *269:28 0.000212378
12 *142:10 *280:20 0.000865417
13 *142:10 *294:20 0.00162863
14 *142:10 *294:32 0.000238664
15 *142:10 *330:35 0.000218928
16 *142:10 *552:12 0.00121979
17 *142:10 *552:16 2.54091e-05
18 *132:10 *142:10 0.0125888
19 *138:10 *142:10 0.0134324
*RES
1 *11246:X *142:8 4.74 
2 *142:8 *142:10 180.135 
3 *142:10 *11248:A0 3.6 
*END

*D_NET *143 0.054537
*CONN
*I *11256:S I *D sky130_fd_sc_hd__mux2_1
*I *11271:S I *D sky130_fd_sc_hd__mux2_1
*I *11268:S I *D sky130_fd_sc_hd__mux2_2
*I *11252:S I *D sky130_fd_sc_hd__mux2_1
*I *11259:S I *D sky130_fd_sc_hd__mux2_1
*I *11262:S I *D sky130_fd_sc_hd__mux2_2
*I *11265:S I *D sky130_fd_sc_hd__mux2_1
*I *11248:S I *D sky130_fd_sc_hd__mux2_2
*I *11274:S I *D sky130_fd_sc_hd__mux2_1
*I *11277:S I *D sky130_fd_sc_hd__mux2_1
*I *11247:X O *D sky130_fd_sc_hd__buf_4
*CAP
1 *11256:S 0.000267222
2 *11271:S 0.00018422
3 *11268:S 0.000722793
4 *11252:S 0
5 *11259:S 0.000150075
6 *11262:S 0.00012348
7 *11265:S 0.000316674
8 *11248:S 2.4637e-05
9 *11274:S 2.61242e-05
10 *11277:S 0.000139948
11 *11247:X 0.000582944
12 *143:160 0.000594171
13 *143:141 0.000986292
14 *143:132 0.000554589
15 *143:108 0.000273555
16 *143:106 0.00075416
17 *143:93 0.000699234
18 *143:80 0.000862457
19 *143:41 0.00167517
20 *143:20 0.00278855
21 *143:12 0.00317447
22 *143:10 0.00198225
23 *11248:S *268:43 4.66108e-05
24 *11256:S *239:87 4.41506e-05
25 *11256:S *239:89 0.000104482
26 *11259:S *1204:DIODE 8.23457e-05
27 *11259:S *152:12 2.49909e-05
28 *11259:S *240:53 5.77806e-05
29 *11262:S *152:12 0.000161961
30 *11262:S *240:53 4.1745e-05
31 *11262:S *240:59 8.94196e-05
32 *11265:S *242:45 1.91597e-05
33 *11265:S *242:47 6.33103e-05
34 *11265:S *242:49 0.00010163
35 *11268:S *11268:A1 0.000104209
36 *11268:S *243:21 4.66108e-05
37 *11271:S *11271:A0 4.66108e-05
38 *11271:S *160:8 0.000118081
39 *11271:S *244:54 1.34503e-05
40 *11271:S *244:56 8.39495e-05
41 *11271:S *244:58 3.64998e-06
42 *11274:S *245:50 4.66108e-05
43 *11277:S *164:12 4.6368e-06
44 *11277:S *246:106 0.000181249
45 *11277:S *246:108 4.66108e-05
46 *143:10 *11341:A 0
47 *143:10 *11343:A 0.000208187
48 *143:10 *172:28 0.000468894
49 *143:10 *220:30 0.000347802
50 *143:10 *391:20 0.000143244
51 *143:12 *226:30 0.0105756
52 *143:12 *229:42 0.0107203
53 *143:12 *603:12 8.23329e-05
54 *143:20 *164:12 7.30866e-05
55 *143:20 *214:22 0.00149031
56 *143:20 *222:28 0
57 *143:20 *241:53 0.000744148
58 *143:20 *246:73 0
59 *143:20 *246:106 4.66108e-05
60 *143:20 *597:10 0.000345041
61 *143:41 *11202:C 0.000177899
62 *143:41 *239:69 0.000709753
63 *143:41 *239:77 0.00149359
64 *143:41 *242:31 0.00134961
65 *143:41 *245:28 2.07184e-05
66 *143:41 *245:34 0.000116853
67 *143:41 *246:84 0.000197305
68 *143:41 *246:90 2.92496e-05
69 *143:41 *259:29 0.000328575
70 *143:80 *751:DIODE 4.66108e-05
71 *143:80 *11216:S 0.000107024
72 *143:80 *202:84 0.000163209
73 *143:80 *202:93 8.32202e-05
74 *143:80 *240:22 0.000140628
75 *143:80 *245:26 0.000127579
76 *143:80 *245:28 0.000228916
77 *143:80 *264:29 5.83121e-06
78 *143:106 *213:33 0.000879411
79 *143:132 *802:DIODE 9.60582e-07
80 *143:132 *213:33 0.000219591
81 *11216:A0 *143:80 8.247e-05
82 *11233:A0 *143:80 0.000107545
83 *11233:A0 *143:93 0.000197453
84 *3:25 *143:41 0.000154286
85 *111:10 *143:41 0.000954033
86 *111:10 *143:80 0.000486931
87 *115:30 *143:10 3.09164e-05
88 *121:8 *143:80 8.40269e-05
89 *125:12 *11265:S 0.000225285
90 *125:12 *143:106 0.00010837
91 *126:10 *143:80 0.000107545
92 *126:10 *143:93 0.000189144
93 *130:10 *11256:S 0.00015046
94 *130:10 *143:132 0.000136884
95 *130:10 *143:141 0.000145519
96 *130:10 *143:160 0.000195661
97 *134:18 *143:106 0.000879411
98 *134:18 *143:132 0.000212701
*RES
1 *11247:X *143:10 19.22 
2 *143:10 *143:12 97.395 
3 *143:12 *143:20 47.785 
4 *143:20 *11277:S 4.135 
5 *143:20 *143:41 37.895 
6 *143:41 *11274:S 4.05 
7 *143:41 *143:80 25.25 
8 *143:80 *11248:S 4.05 
9 *143:80 *143:93 4.4 
10 *143:93 *11265:S 6.88 
11 *143:93 *143:106 13.7 
12 *143:106 *143:108 2 
13 *143:108 *11262:S 4.465 
14 *143:108 *11259:S 4.12 
15 *143:106 *143:132 10.81 
16 *143:132 *11252:S 3.6 
17 *143:132 *143:141 1.89 
18 *143:141 *11268:S 13.26 
19 *143:141 *143:160 2.4 
20 *143:160 *11271:S 6.81 
21 *143:160 *11256:S 8.01 
*END

*D_NET *144 0.0260442
*CONN
*I *11249:B2 I *D sky130_fd_sc_hd__o221a_2
*I *11248:X O *D sky130_fd_sc_hd__mux2_2
*CAP
1 *11249:B2 0.00119152
2 *11248:X 0.000779067
3 *144:10 0.00259308
4 *144:8 0.00218062
5 *11249:B2 *11249:A1 0.000616118
6 *11249:B2 *11263:A1 0.00174453
7 *11249:B2 *11263:B2 0.000175453
8 *11249:B2 *11269:B2 0.000157343
9 *11249:B2 *232:35 0.00125161
10 *11249:B2 *595:16 0
11 *144:8 *981:DIODE 3.75937e-05
12 *144:8 *156:8 2.34707e-05
13 *144:8 *268:45 3.75937e-05
14 *144:8 *372:28 0.000111585
15 *144:10 *147:18 0.00628128
16 *144:10 *158:12 0.00750492
17 *144:10 *197:18 2.15594e-05
18 *144:10 *209:21 0.0012298
19 *144:10 *354:10 2.05661e-05
20 *11243:B2 *11249:B2 1.32843e-05
21 *119:26 *11249:B2 9.50342e-06
22 *131:16 *11249:B2 6.37195e-05
*RES
1 *11248:X *144:8 14.055 
2 *144:8 *144:10 85.02 
3 *144:10 *11249:B2 42.745 
*END

*D_NET *145 0.0358031
*CONN
*I *11278:A2 I *D sky130_fd_sc_hd__o221a_2
*I *11257:A2 I *D sky130_fd_sc_hd__o221a_2
*I *11272:A2 I *D sky130_fd_sc_hd__o221a_2
*I *11275:A2 I *D sky130_fd_sc_hd__o221a_2
*I *11269:A2 I *D sky130_fd_sc_hd__o221a_2
*I *11266:A2 I *D sky130_fd_sc_hd__o221a_2
*I *11254:A2 I *D sky130_fd_sc_hd__o221a_2
*I *11263:A2 I *D sky130_fd_sc_hd__o221a_2
*I *11260:A2 I *D sky130_fd_sc_hd__o221a_2
*I *11284:A2 I *D sky130_fd_sc_hd__o221a_2
*I *11250:X O *D sky130_fd_sc_hd__clkbuf_4
*CAP
1 *11278:A2 0.00014918
2 *11257:A2 0.000910461
3 *11272:A2 4.46096e-05
4 *11275:A2 0.000147789
5 *11269:A2 0
6 *11266:A2 1.78776e-05
7 *11254:A2 0.000255761
8 *11263:A2 0
9 *11260:A2 0.000148205
10 *11284:A2 0.000302857
11 *11250:X 7.37621e-05
12 *145:123 0.00155055
13 *145:112 0.000985645
14 *145:74 0.000430701
15 *145:68 0.00055674
16 *145:60 0.00271741
17 *145:45 0.00284527
18 *145:41 0.00286396
19 *145:35 0.00436782
20 *145:8 0.00231725
21 *11254:A2 *11254:B2 9.03508e-06
22 *11254:A2 *11263:B2 0.00036943
23 *11254:A2 *11324:CLK 0.000388523
24 *11254:A2 *147:38 0.000189569
25 *11257:A2 *11257:A1 0.000226967
26 *11257:A2 *11257:B2 7.00889e-06
27 *11257:A2 *11257:C1 0.00091384
28 *11257:A2 *596:12 3.96653e-05
29 *11260:A2 *11260:A1 4.66742e-05
30 *11260:A2 *597:10 0.000153816
31 *11266:A2 *11266:B2 5.06699e-05
32 *11266:A2 *611:10 5.06699e-05
33 *11272:A2 *11204:B 4.66108e-05
34 *11272:A2 *11272:A1 4.14666e-06
35 *11272:A2 *11272:B2 5.83121e-06
36 *11272:A2 *212:35 1.19928e-05
37 *11275:A2 *11275:A1 3.06618e-05
38 *11275:A2 *11275:C1 0.000118081
39 *11278:A2 *11278:A1 4.14666e-06
40 *11278:A2 *11278:B2 1.41833e-05
41 *11278:A2 *604:12 1.61388e-05
42 *11284:A2 *11284:A1 4.74157e-05
43 *11284:A2 *11284:B1 5.92928e-05
44 *11284:A2 *11284:B2 4.82863e-05
45 *11284:A2 *11284:C1 0.000697244
46 *11284:A2 *148:16 0.000177849
47 *145:8 *575:42 9.14049e-05
48 *145:35 *11278:A1 0.000312896
49 *145:35 *575:42 0.000257017
50 *145:35 *578:12 0.000131658
51 *145:41 *11278:A1 0.000209227
52 *145:41 *148:24 0.000204577
53 *145:41 *214:26 0.000109836
54 *145:41 *221:26 0.000148862
55 *145:41 *223:28 0.000142646
56 *145:41 *225:30 0.000233806
57 *145:41 *228:26 0.000206122
58 *145:41 *393:16 0.000259167
59 *145:41 *602:14 0.000125484
60 *145:45 *597:10 0.000732112
61 *145:60 *11269:A1 0.00104711
62 *145:60 *11635:A 0.000481115
63 *145:60 *229:40 0.000581956
64 *145:60 *232:35 0.000142669
65 *145:60 *581:10 0.00012476
66 *145:60 *592:28 0
67 *145:60 *592:34 0
68 *145:60 *596:12 9.68709e-05
69 *145:68 *11269:B2 3.12375e-05
70 *145:68 *598:12 6.59891e-05
71 *145:74 *11263:B2 8.7152e-06
72 *145:74 *11324:CLK 0.000107608
73 *11257:B1 *11257:A2 0.000173399
74 *11260:B1 *11260:A2 7.91624e-05
75 *11275:B1 *11275:A2 5.25592e-05
76 *11278:B1 *11278:A2 3.20155e-05
77 *3:23 *145:41 0.000234212
78 *121:16 *11257:A2 0.000690869
79 *121:16 *145:41 0.000566662
80 *121:16 *145:112 0.000351986
81 *121:16 *145:123 0.000849384
82 *122:29 *11284:A2 0.000465393
83 *122:56 *11284:A2 0.00034219
84 *123:16 *145:68 0.000371888
85 *123:16 *145:74 0.000158066
86 *140:24 *145:35 0.000511221
87 *140:34 *145:41 0.000610155
88 *140:89 *145:74 4.75575e-05
*RES
1 *11250:X *145:8 4.98 
2 *145:8 *11284:A2 14.52 
3 *145:8 *145:35 27.4216 
4 *145:35 *145:41 17.3517 
5 *145:41 *145:45 9.005 
6 *145:45 *11260:A2 4.465 
7 *145:45 *145:60 45.085 
8 *145:60 *145:68 9.19 
9 *145:68 *145:74 4.865 
10 *145:74 *11263:A2 3.6 
11 *145:74 *11254:A2 10.485 
12 *145:68 *11266:A2 6.215 
13 *145:60 *11269:A2 1.6 
14 *145:41 *145:112 4.185 
15 *145:112 *11275:A2 6.12 
16 *145:112 *145:123 10.05 
17 *145:123 *11272:A2 4.41 
18 *145:123 *11257:A2 21.99 
19 *145:35 *11278:A2 6.2975 
*END

*D_NET *146 0.0368791
*CONN
*I *1203:DIODE I *D sky130_fd_sc_hd__diode_2
*I *11252:A0 I *D sky130_fd_sc_hd__mux2_1
*I *11251:X O *D sky130_fd_sc_hd__mux2_2
*CAP
1 *1203:DIODE 0.000141081
2 *11252:A0 0
3 *11251:X 0.000176167
4 *146:22 0.000241853
5 *146:18 0.00316026
6 *146:16 0.00333179
7 *146:10 0.0020645
8 *146:8 0.00196837
9 *1203:DIODE *238:103 0.000225285
10 *1203:DIODE *238:105 3.57349e-05
11 *146:8 *990:DIODE 4.66108e-05
12 *146:8 *1074:DIODE 4.66108e-05
13 *146:8 *296:40 0.00033249
14 *146:10 *153:24 0.00120746
15 *146:10 *272:21 1.75583e-05
16 *146:10 *294:20 0.00268143
17 *146:10 *296:40 0.001904
18 *146:10 *302:64 4.90071e-05
19 *146:18 *11515:CLKin 0.00014608
20 *146:18 *149:24 0.000760932
21 *146:18 *197:35 0.000736542
22 *146:18 *213:29 0.002721
23 *146:18 *213:33 0.000600962
24 *146:22 *238:105 0.000190712
25 *128:10 *146:18 0.000938553
26 *132:10 *146:10 0.0040152
27 *134:8 *146:10 0.00463283
28 *134:18 *146:18 0.0044881
29 *142:10 *146:10 1.80024e-05
*RES
1 *11251:X *146:8 6.81 
2 *146:8 *146:10 78.39 
3 *146:10 *146:16 7.21 
4 *146:16 *146:18 97.77 
5 *146:18 *146:22 3.83 
6 *146:22 *11252:A0 1.6 
7 *146:22 *1203:DIODE 4.12 
*END

*D_NET *147 0.0310475
*CONN
*I *11254:B2 I *D sky130_fd_sc_hd__o221a_2
*I *11252:X O *D sky130_fd_sc_hd__mux2_1
*CAP
1 *11254:B2 1.19939e-05
2 *11252:X 0.00104984
3 *147:38 0.00108566
4 *147:18 0.00249554
5 *147:16 0.00247172
6 *147:16 *746:DIODE 0.000134266
7 *147:16 *11515:BEN[4] 0.000161961
8 *147:16 *11605:A 0.000460383
9 *147:16 *238:105 0.000157386
10 *147:18 *155:16 0.00111444
11 *147:18 *158:12 9.39947e-05
12 *147:18 *354:10 0.00755907
13 *147:38 *11254:A1 0.00229032
14 *147:38 *11266:B2 0.0017791
15 *147:38 *11515:BEN[14] 1.35854e-05
16 *147:38 *11515:DI[15] 0.000107107
17 *147:38 *209:21 5.83121e-06
18 *147:38 *210:11 3.29337e-05
19 *147:38 *558:10 0.0011462
20 *147:38 *558:23 8.77562e-05
21 *147:38 *558:35 0.000250723
22 *147:38 *590:14 0.0016503
23 *11233:A0 *147:16 0.000190715
24 *11254:A2 *11254:B2 9.03508e-06
25 *11254:A2 *147:38 0.000189569
26 *11254:B1 *11254:B2 8.97315e-06
27 *11254:B1 *147:38 0.000103184
28 *126:10 *147:16 7.01359e-05
29 *134:18 *147:16 3.45117e-05
30 *144:10 *147:18 0.00628128
*RES
1 *11252:X *147:16 22.48 
2 *147:16 *147:18 85.275 
3 *147:18 *147:38 49.8413 
4 *147:38 *11254:B2 1.97125 
*END

*D_NET *148 0.0335282
*CONN
*I *11284:C1 I *D sky130_fd_sc_hd__o221a_2
*I *11278:C1 I *D sky130_fd_sc_hd__o221a_2
*I *11257:C1 I *D sky130_fd_sc_hd__o221a_2
*I *11272:C1 I *D sky130_fd_sc_hd__o221a_2
*I *11275:C1 I *D sky130_fd_sc_hd__o221a_2
*I *11260:C1 I *D sky130_fd_sc_hd__o221a_2
*I *11269:C1 I *D sky130_fd_sc_hd__o221a_2
*I *11263:C1 I *D sky130_fd_sc_hd__o221a_2
*I *11266:C1 I *D sky130_fd_sc_hd__o221a_2
*I *11254:C1 I *D sky130_fd_sc_hd__o221a_2
*I *11253:X O *D sky130_fd_sc_hd__clkbuf_4
*CAP
1 *11284:C1 0.000177792
2 *11278:C1 3.42021e-05
3 *11257:C1 0.00107037
4 *11272:C1 0
5 *11275:C1 8.64144e-05
6 *11260:C1 0.000176282
7 *11269:C1 9.29934e-05
8 *11263:C1 0
9 *11266:C1 9.93985e-05
10 *11254:C1 0.000223056
11 *11253:X 0
12 *148:108 0.00132196
13 *148:97 0.000508878
14 *148:57 0.000177179
15 *148:40 0.000700145
16 *148:38 0.00226822
17 *148:28 0.00311493
18 *148:24 0.00287257
19 *148:16 0.00284906
20 *148:4 0.00145368
21 *11254:C1 *11249:A1 4.41854e-05
22 *11254:C1 *11263:B2 0
23 *11254:C1 *515:14 7.60761e-05
24 *11254:C1 *595:16 0
25 *11257:C1 *11257:B2 1.34594e-05
26 *11260:C1 *11260:A1 0.000153816
27 *11266:C1 *11416:A 0.000149487
28 *11266:C1 *595:16 0.000150776
29 *11269:C1 *11263:A1 2.54692e-05
30 *11269:C1 *579:10 0.000179329
31 *11284:C1 *11284:A1 0.000159134
32 *11284:C1 *11284:B2 0
33 *11284:C1 *567:18 0.000201117
34 *148:16 *201:22 0.000374727
35 *148:16 *567:18 0.000688753
36 *148:16 *604:12 0.000209243
37 *148:24 *11217:A 0.000455383
38 *148:24 *214:26 0.000626681
39 *148:38 *11204:C 9.19821e-05
40 *148:38 *210:11 0.00120611
41 *148:38 *232:23 0.000639101
42 *148:38 *233:19 0.000157826
43 *148:38 *515:16 0.00016327
44 *148:38 *558:10 0.00161895
45 *148:40 *515:14 2.14725e-05
46 *148:40 *515:16 0.000256984
47 *148:57 *11263:B2 1.56908e-05
48 *148:57 *11416:A 0.000197467
49 *148:57 *595:16 0.000231524
50 *11249:B1 *11266:C1 8.35068e-05
51 *11257:A2 *11257:C1 0.00091384
52 *11257:B1 *11257:C1 0.000644625
53 *11260:B1 *11260:C1 0
54 *11266:B1 *11266:C1 8.58063e-05
55 *11269:B1 *11269:C1 2.8867e-05
56 *11275:A2 *11275:C1 0.000118081
57 *11275:B1 *11275:C1 0.000179568
58 *11278:B1 *11278:C1 5.45194e-06
59 *11278:B1 *148:16 5.05066e-06
60 *11278:B1 *148:24 7.8505e-06
61 *11284:A2 *11284:C1 0.000697244
62 *11284:A2 *148:16 0.000177849
63 *119:16 *148:16 0.000111285
64 *121:16 *148:24 0.000243358
65 *121:16 *148:97 0.000252701
66 *121:16 *148:108 1.01155e-05
67 *122:29 *148:16 0.000368559
68 *123:14 *148:16 0.000125284
69 *123:16 *11266:C1 0.000157276
70 *129:8 *11257:C1 0.000630975
71 *129:8 *148:24 0.000418153
72 *129:8 *148:97 0.000466212
73 *129:8 *148:108 0.000827172
74 *140:34 *148:24 0.000455142
75 *140:53 *11269:C1 0.000102346
76 *140:113 *148:24 0
77 *140:130 *11275:C1 4.82919e-05
78 *140:134 *11257:C1 9.09788e-06
79 *140:134 *148:108 0.000814804
80 *145:41 *148:24 0.000204577
*RES
1 *11253:X *148:4 1.6 
2 *148:4 *148:16 31.33 
3 *148:16 *148:24 35.33 
4 *148:24 *148:28 13.49 
5 *148:28 *148:38 37.225 
6 *148:38 *148:40 4.935 
7 *148:40 *11254:C1 8.81 
8 *148:40 *148:57 4.91 
9 *148:57 *11266:C1 6.975 
10 *148:57 *11263:C1 3.6 
11 *148:38 *11269:C1 8.51 
12 *148:28 *11260:C1 4.72 
13 *148:24 *148:97 5.715 
14 *148:97 *11275:C1 5.775 
15 *148:97 *148:108 10.05 
16 *148:108 *11272:C1 3.6 
17 *148:108 *11257:C1 22.08 
18 *148:16 *11278:C1 2.30125 
19 *148:4 *11284:C1 8.635 
*END

*D_NET *149 0.0474936
*CONN
*I *11256:A0 I *D sky130_fd_sc_hd__mux2_1
*I *11255:X O *D sky130_fd_sc_hd__mux2_2
*CAP
1 *11256:A0 0
2 *11255:X 0.00661181
3 *149:24 0.00470345
4 *149:22 0.0113153
5 *149:22 *153:24 0.00506327
6 *149:22 *229:28 0.000128231
7 *149:22 *270:18 0.000295846
8 *149:22 *272:21 0.000443944
9 *149:22 *297:20 0.000295846
10 *149:22 *297:36 0.000114677
11 *149:22 *306:42 0.00030933
12 *149:22 *387:80 0
13 *149:22 *485:86 0.000671843
14 *149:24 *11229:S 7.2883e-05
15 *149:24 *11515:CLKin 0.000265226
16 *149:24 *197:16 9.42795e-05
17 *149:24 *197:35 0.00152407
18 *149:24 *203:69 9.97038e-05
19 *149:24 *269:28 0.000736388
20 *149:24 *294:32 0.000170541
21 *149:24 *295:28 0
22 *149:24 *328:27 0.000403673
23 *126:10 *149:24 0.0109456
24 *128:10 *149:24 0
25 *134:18 *149:24 0.00198601
26 *141:100 *149:22 0.000480853
27 *146:18 *149:24 0.000760932
*RES
1 *11255:X *149:22 22.3296 
2 *149:22 *149:24 143.542 
3 *149:24 *11256:A0 3.6 
*END

*D_NET *150 0.0161818
*CONN
*I *11257:B2 I *D sky130_fd_sc_hd__o221a_2
*I *11256:X O *D sky130_fd_sc_hd__mux2_1
*CAP
1 *11257:B2 2.90834e-05
2 *11256:X 0.0007904
3 *150:14 0.00150417
4 *150:12 0.00226549
5 *150:12 *783:DIODE 0.00015639
6 *150:12 *801:DIODE 0.000107602
7 *150:12 *152:12 0.000128444
8 *150:12 *201:167 0.000614618
9 *150:12 *239:91 0.000118081
10 *150:12 *239:93 0.00015639
11 *150:12 *239:95 0.000153816
12 *150:12 *376:28 5.84826e-05
13 *150:12 *383:58 0.000399998
14 *150:14 *809:DIODE 7.23533e-05
15 *150:14 *954:DIODE 0.000158976
16 *150:14 *152:12 0
17 *150:14 *152:14 0.0038072
18 *150:14 *200:22 0.000143503
19 *150:14 *201:167 0.00526648
20 *150:14 *242:66 0.000183738
21 *11257:A2 *11257:B2 7.00889e-06
22 *11257:B1 *11257:B2 4.60903e-05
23 *11257:C1 *11257:B2 1.34594e-05
*RES
1 *11256:X *150:12 23.6475 
2 *150:12 *150:14 60.6075 
3 *150:14 *11257:B2 4.41 
*END

*D_NET *151 0.0384699
*CONN
*I *1204:DIODE I *D sky130_fd_sc_hd__diode_2
*I *11259:A0 I *D sky130_fd_sc_hd__mux2_1
*I *11258:X O *D sky130_fd_sc_hd__mux2_2
*CAP
1 *1204:DIODE 0.000136123
2 *11259:A0 0
3 *11258:X 0.000865769
4 *151:20 0.000136123
5 *151:18 0.00408383
6 *151:16 0.0049496
7 *1204:DIODE *240:51 0.000120789
8 *1204:DIODE *240:53 2.75145e-05
9 *151:16 *269:28 0.000511001
10 *151:16 *280:20 0.000531088
11 *151:16 *300:26 0.000208816
12 *151:16 *304:61 4.79712e-05
13 *151:16 *304:63 0.000114839
14 *151:18 *11273:A1 0.000122548
15 *151:18 *277:40 0.000593097
16 *151:18 *291:22 0.00079677
17 *151:18 *295:28 0
18 *11259:S *1204:DIODE 8.23457e-05
19 *124:10 *151:18 0.0130938
20 *130:10 *151:18 0.0120478
*RES
1 *11258:X *151:16 21.97 
2 *151:16 *151:18 166.875 
3 *151:18 *151:20 2 
4 *151:20 *11259:A0 1.6 
5 *151:20 *1204:DIODE 4.12 
*END

*D_NET *152 0.0197147
*CONN
*I *11260:B2 I *D sky130_fd_sc_hd__o221a_2
*I *11259:X O *D sky130_fd_sc_hd__mux2_1
*CAP
1 *11260:B2 0
2 *11259:X 0.00160295
3 *152:14 0.00148057
4 *152:12 0.00308352
5 *152:12 *801:DIODE 5.27785e-05
6 *152:12 *809:DIODE 2.66935e-05
7 *152:12 *954:DIODE 6.14503e-05
8 *152:12 *154:8 0.000411679
9 *152:12 *240:59 5.43506e-05
10 *152:12 *242:66 7.16268e-05
11 *152:12 *383:50 3.02513e-05
12 *152:12 *383:58 0.00189806
13 *152:14 *971:DIODE 0.000185398
14 *152:14 *972:DIODE 7.23602e-05
15 *152:14 *11515:DI[14] 0.000111216
16 *152:14 *201:167 0.000868701
17 *152:14 *234:19 0.00512328
18 *152:14 *378:79 0.000250082
19 *152:14 *383:50 0.000166977
20 *152:14 *549:32 4.01548e-05
21 *11259:S *152:12 2.49909e-05
22 *11262:S *152:12 0.000161961
23 *150:12 *152:12 0.000128444
24 *150:14 *152:12 0
25 *150:14 *152:14 0.0038072
*RES
1 *11259:X *152:12 35.7225 
2 *152:12 *152:14 66.5325 
3 *152:14 *11260:B2 3.6 
*END

*D_NET *153 0.0579472
*CONN
*I *11262:A0 I *D sky130_fd_sc_hd__mux2_2
*I *11261:X O *D sky130_fd_sc_hd__mux2_4
*CAP
1 *11262:A0 0
2 *11261:X 0.0176614
3 *153:24 0.0176614
4 *153:24 *11261:A1 0.000682149
5 *153:24 *200:22 0.00191
6 *153:24 *203:24 0.000160673
7 *153:24 *203:59 0.000111402
8 *153:24 *212:23 0.000122559
9 *153:24 *229:32 0.000104583
10 *153:24 *229:34 0.00151027
11 *153:24 *277:26 0.000143244
12 *153:24 *294:20 0.000153926
13 *153:24 *295:20 0.000219453
14 *153:24 *296:40 0.000158482
15 *153:24 *330:35 0.00362994
16 *153:24 *376:28 7.70373e-06
17 *153:24 *380:28 3.92756e-05
18 *153:24 *485:86 0
19 *153:24 *491:44 0
20 *153:24 *552:16 0.000590698
21 *153:24 *552:24 0.000290658
22 *153:24 *555:8 0.00179574
23 *11205:A *153:24 0.000400791
24 *11261:S *153:24 0
25 *132:10 *153:24 0.00151713
26 *134:8 *153:24 0.00139308
27 *142:10 *153:24 0.00141184
28 *146:10 *153:24 0.00120746
29 *149:22 *153:24 0.00506327
*RES
1 *11261:X *153:24 49.9811 
2 *153:24 *11262:A0 3.6 
*END

*D_NET *154 0.0272477
*CONN
*I *11263:B2 I *D sky130_fd_sc_hd__o221a_2
*I *11262:X O *D sky130_fd_sc_hd__mux2_2
*CAP
1 *11263:B2 0.000990039
2 *11262:X 0.000473459
3 *154:10 0.0027708
4 *154:8 0.00225422
5 *11263:B2 *11269:B2 0.000870505
6 *11263:B2 *11324:CLK 4.42192e-05
7 *11263:B2 *11416:A 0.000100356
8 *11263:B2 *232:35 5.57428e-05
9 *11263:B2 *611:10 0
10 *154:8 *790:DIODE 5.85534e-05
11 *154:8 *11605:A 0
12 *154:8 *232:7 0
13 *154:8 *240:59 6.36139e-05
14 *154:10 *209:21 0.000446532
15 *154:10 *354:10 0.00775391
16 *154:10 *590:14 0.00821677
17 *11249:B2 *11263:B2 0.000175453
18 *11254:A2 *11263:B2 0.00036943
19 *11254:C1 *11263:B2 0
20 *131:16 *11263:B2 0.00216003
21 *140:89 *11263:B2 7.9642e-06
22 *145:74 *11263:B2 8.7152e-06
23 *148:57 *11263:B2 1.56908e-05
24 *152:12 *154:8 0.000411679
*RES
1 *11262:X *154:8 11.64 
2 *154:8 *154:10 96.24 
3 *154:10 *11263:B2 37.93 
*END

*D_NET *155 0.0553167
*CONN
*I *11265:A0 I *D sky130_fd_sc_hd__mux2_1
*I *11264:X O *D sky130_fd_sc_hd__mux2_2
*CAP
1 *11265:A0 0.000445881
2 *11264:X 0.000299045
3 *155:16 0.00403473
4 *155:14 0.00508026
5 *155:10 0.00179046
6 *11265:A0 *156:8 8.45215e-05
7 *11265:A0 *233:17 7.83396e-05
8 *11265:A0 *242:53 1.1392e-05
9 *11265:A0 *549:78 0
10 *155:14 *157:12 0.00441214
11 *155:16 *157:16 0.0171985
12 *155:16 *158:12 0.00139956
13 *155:16 *197:18 0.00169815
14 *155:16 *354:10 0.000171313
15 *155:16 *376:48 7.21296e-06
16 *155:16 *387:66 0.014288
17 *155:16 *391:88 0.00320269
18 *147:18 *155:16 0.00111444
*RES
1 *11264:X *155:10 10.805 
2 *155:10 *155:14 42.125 
3 *155:14 *155:16 210.225 
4 *155:16 *11265:A0 10.26 
*END

*D_NET *156 0.0248612
*CONN
*I *11266:B2 I *D sky130_fd_sc_hd__o221a_2
*I *11265:X O *D sky130_fd_sc_hd__mux2_1
*CAP
1 *11266:B2 0.00132021
2 *11265:X 0.000298512
3 *156:10 0.00282427
4 *156:8 0.00180257
5 *11266:B2 *11324:CLK 0.000275483
6 *11266:B2 *197:18 0.00025351
7 *11266:B2 *588:18 0.000307674
8 *11266:B2 *611:10 0.000242826
9 *156:8 *233:17 0.0003708
10 *156:8 *372:28 0.000478005
11 *156:10 *197:18 0.00012752
12 *156:10 *231:13 0.00746181
13 *156:10 *365:46 0.000881561
14 *156:10 *369:41 0.000762405
15 *11265:A0 *156:8 8.45215e-05
16 *11266:A2 *11266:B2 5.06699e-05
17 *135:10 *156:10 0.000740339
18 *139:18 *11266:B2 1.17309e-05
19 *139:18 *156:10 0.00476421
20 *144:8 *156:8 2.34707e-05
21 *147:38 *11266:B2 0.0017791
*RES
1 *11265:X *156:8 10.26 
2 *156:8 *156:10 86.9325 
3 *156:10 *11266:B2 34.9075 
*END

*D_NET *157 0.0502376
*CONN
*I *11268:A0 I *D sky130_fd_sc_hd__mux2_2
*I *11267:X O *D sky130_fd_sc_hd__mux2_4
*CAP
1 *11268:A0 0.000390272
2 *11267:X 0.000353135
3 *157:16 0.00392824
4 *157:14 0.00353797
5 *157:12 0.00230042
6 *157:10 0.00265355
7 *11268:A0 *158:10 0.000305944
8 *157:16 *740:DIODE 9.16314e-05
9 *157:16 *229:28 0.00143908
10 *157:16 *354:10 0.00410182
11 *157:16 *376:48 0.00632086
12 *157:16 *391:88 0.00271625
13 *157:16 *555:41 0.000487809
14 *155:14 *157:12 0.00441214
15 *155:16 *157:16 0.0171985
*RES
1 *11267:X *157:10 11.57 
2 *157:10 *157:12 53.925 
3 *157:12 *157:14 2 
4 *157:14 *157:16 193.65 
5 *157:16 *11268:A0 9.915 
*END

*D_NET *158 0.026999
*CONN
*I *11269:B2 I *D sky130_fd_sc_hd__o221a_2
*I *11268:X O *D sky130_fd_sc_hd__mux2_2
*CAP
1 *11269:B2 0.000904148
2 *11268:X 0.000320095
3 *158:12 0.00261607
4 *158:10 0.00203202
5 *11269:B2 *11263:A1 0
6 *11269:B2 *232:35 0.00121498
7 *158:10 *746:DIODE 0
8 *158:10 *376:46 6.33103e-05
9 *158:10 *380:28 7.45953e-05
10 *158:12 *197:18 0.00907389
11 *11249:B2 *11269:B2 0.000157343
12 *11263:B2 *11269:B2 0.000870505
13 *11268:A0 *158:10 0.000305944
14 *11269:B1 *11269:B2 5.13684e-05
15 *140:53 *11269:B2 0.000284976
16 *144:10 *158:12 0.00750492
17 *145:68 *11269:B2 3.12375e-05
18 *147:18 *158:12 9.39947e-05
19 *155:16 *158:12 0.00139956
*RES
1 *11268:X *158:10 9.93 
2 *158:10 *158:12 102.36 
3 *158:12 *11269:B2 31.21 
*END

*D_NET *159 0.0360367
*CONN
*I *11271:A0 I *D sky130_fd_sc_hd__mux2_1
*I *11270:X O *D sky130_fd_sc_hd__mux2_2
*CAP
1 *11271:A0 1.4661e-05
2 *11270:X 6.52939e-05
3 *159:10 0.0035125
4 *159:8 0.00356313
5 *11271:A0 *244:54 7.00889e-06
6 *11271:A0 *244:56 2.75229e-05
7 *159:10 *163:10 0.013884
8 *159:10 *298:22 0.000277076
9 *159:10 *298:30 0.00099316
10 *11271:S *11271:A0 4.66108e-05
11 *11273:S *159:8 8.23457e-05
12 *3:25 *159:10 0.00177225
13 *120:10 *159:10 0.0117912
*RES
1 *11270:X *159:8 4.395 
2 *159:8 *159:10 160.755 
3 *159:10 *11271:A0 4.05 
*END

*D_NET *160 0.0186874
*CONN
*I *11272:B2 I *D sky130_fd_sc_hd__o221a_2
*I *11271:X O *D sky130_fd_sc_hd__mux2_1
*CAP
1 *11272:B2 6.66117e-05
2 *11271:X 0.000207026
3 *160:10 0.00211269
4 *160:8 0.0022531
5 *11272:B2 *11204:B 4.65682e-05
6 *11272:B2 *212:35 0.00018955
7 *160:8 *244:58 4.36694e-05
8 *160:10 *213:33 0.00681583
9 *160:10 *242:41 4.26286e-05
10 *11271:S *160:8 0.000118081
11 *11272:A2 *11272:B2 5.83121e-06
12 *11272:B1 *11272:B2 4.62224e-05
13 *128:10 *160:10 0.00287762
14 *129:8 *160:10 0.00386198
*RES
1 *11271:X *160:8 6.465 
2 *160:8 *160:10 81.96 
3 *160:10 *11272:B2 5.43 
*END

*D_NET *161 0.0379003
*CONN
*I *11274:A0 I *D sky130_fd_sc_hd__mux2_1
*I *11273:X O *D sky130_fd_sc_hd__mux2_2
*CAP
1 *11274:A0 2.38793e-05
2 *11273:X 9.03357e-05
3 *161:10 0.0104847
4 *161:8 0.0105511
5 *11274:A0 *162:8 5.83121e-06
6 *11274:A0 *245:59 4.66108e-05
7 *161:10 *163:10 0.0155399
8 *11273:S *161:8 0.00015639
9 *3:25 *161:10 0.00100151
*RES
1 *11273:X *161:8 5.085 
2 *161:8 *161:10 180.135 
3 *161:10 *11274:A0 4.05 
*END

*D_NET *162 0.0123649
*CONN
*I *11275:B2 I *D sky130_fd_sc_hd__o221a_2
*I *11274:X O *D sky130_fd_sc_hd__mux2_1
*CAP
1 *11275:B2 0
2 *11274:X 0.000104988
3 *162:10 0.0037416
4 *162:8 0.00384659
5 *162:8 *245:59 3.59784e-05
6 *162:10 *163:10 0.0028888
7 *162:10 *240:22 0.000214784
8 *162:10 *589:26 0.00051069
9 *162:10 *602:12 0.000838857
10 *11274:A0 *162:8 5.83121e-06
11 *3:25 *162:10 0.000176741
*RES
1 *11274:X *162:8 4.74 
2 *162:8 *162:10 62.58 
3 *162:10 *11275:B2 3.6 
*END

*D_NET *163 0.0502706
*CONN
*I *11277:A0 I *D sky130_fd_sc_hd__mux2_1
*I *11276:X O *D sky130_fd_sc_hd__mux2_2
*CAP
1 *11277:A0 0
2 *11276:X 0.000185189
3 *163:10 0.00495478
4 *163:8 0.00513997
5 *163:10 *998:DIODE 0.000243555
6 *163:10 *240:22 0.00446219
7 *163:10 *240:49 0.000167617
8 *11273:S *163:8 0.000118081
9 *3:25 *163:10 0.00223391
10 *120:10 *163:10 0.000395131
11 *141:60 *163:8 5.74791e-05
12 *159:10 *163:10 0.013884
13 *161:10 *163:10 0.0155399
14 *162:10 *163:10 0.0028888
*RES
1 *11276:X *163:8 5.775 
2 *163:8 *163:10 223.23 
3 *163:10 *11277:A0 3.6 
*END

*D_NET *164 0.0108025
*CONN
*I *11278:B2 I *D sky130_fd_sc_hd__o221a_2
*I *11277:X O *D sky130_fd_sc_hd__mux2_1
*CAP
1 *11278:B2 0.000763036
2 *11277:X 0.00159602
3 *164:12 0.00235906
4 *11278:B2 *596:14 0.00159457
5 *11278:B2 *604:12 7.41352e-06
6 *11278:B2 *611:12 0.000518573
7 *164:12 *222:28 0.00338148
8 *164:12 *224:36 2.50049e-05
9 *164:12 *563:38 8.4828e-05
10 *164:12 *597:10 0.000330933
11 *11277:S *164:12 4.6368e-06
12 *11278:A2 *11278:B2 1.41833e-05
13 *11278:B1 *11278:B2 4.96965e-05
14 *143:20 *164:12 7.30866e-05
*RES
1 *11277:X *164:12 48.935 
2 *164:12 *11278:B2 25.7712 
*END

*D_NET *165 0.0259082
*CONN
*I *11304:B1 I *D sky130_fd_sc_hd__o221a_2
*I *11310:B1 I *D sky130_fd_sc_hd__o221a_2
*I *11313:B1 I *D sky130_fd_sc_hd__o221a_2
*I *11307:B1 I *D sky130_fd_sc_hd__o221a_2
*I *11301:B1 I *D sky130_fd_sc_hd__o221a_2
*I *11298:B1 I *D sky130_fd_sc_hd__o221a_2
*I *11295:B1 I *D sky130_fd_sc_hd__o221a_2
*I *11292:B1 I *D sky130_fd_sc_hd__o221a_2
*I *11289:B1 I *D sky130_fd_sc_hd__o221a_2
*I *11284:B1 I *D sky130_fd_sc_hd__o221a_2
*I *11279:X O *D sky130_fd_sc_hd__clkbuf_4
*CAP
1 *11304:B1 1.97812e-05
2 *11310:B1 6.9121e-05
3 *11313:B1 0.000692912
4 *11307:B1 3.48968e-05
5 *11301:B1 0
6 *11298:B1 4.34643e-05
7 *11295:B1 0.000100264
8 *11292:B1 2.64696e-05
9 *11289:B1 2.14552e-05
10 *11284:B1 0.00097672
11 *11279:X 0
12 *165:147 0.00112111
13 *165:134 0.000777706
14 *165:130 0.000666871
15 *165:111 0.00056349
16 *165:84 0.000774901
17 *165:22 0.00117115
18 *165:20 0.00050858
19 *165:12 0.000860304
20 *165:4 0.000882208
21 *11284:B1 *11284:A1 1.12643e-05
22 *11284:B1 *11284:B2 0.00161206
23 *11284:B1 *11289:A1 0.000174684
24 *11284:B1 *338:30 0.00154674
25 *11284:B1 *371:42 0.000112123
26 *11284:B1 *567:18 3.9442e-05
27 *11284:B1 *584:56 0.000967948
28 *11284:B1 *605:6 0.0015449
29 *11284:B1 *607:16 8.85061e-05
30 *11292:B1 *11289:A2 1.60072e-05
31 *11292:B1 *11292:A1 4.78756e-05
32 *11292:B1 *11292:A2 8.51446e-06
33 *11292:B1 *11292:C1 5.46726e-06
34 *11295:B1 *11295:B2 2.6332e-05
35 *11295:B1 *170:48 0.000107782
36 *11295:B1 *170:63 4.77757e-05
37 *11295:B1 *173:63 2.97675e-05
38 *11295:B1 *219:34 0.000138901
39 *11298:B1 *11298:A2 3.16707e-06
40 *11298:B1 *11298:B2 1.5431e-05
41 *11298:B1 *11298:C1 5.10587e-05
42 *11298:B1 *11417:A 1.85115e-05
43 *11298:B1 *173:76 1.85115e-05
44 *11304:B1 *11304:C1 5.1775e-06
45 *11307:B1 *11307:B2 9.03508e-06
46 *11307:B1 *173:125 1.21339e-05
47 *11310:B1 *11310:C1 9.03508e-06
48 *11310:B1 *11313:A2 3.89884e-06
49 *11310:B1 *11313:C1 4.36917e-05
50 *11310:B1 *504:12 4.66474e-05
51 *11313:B1 *11313:A2 0.000331121
52 *11313:B1 *11313:C1 6.65725e-05
53 *11313:B1 *170:127 1.88656e-05
54 *11313:B1 *225:36 0
55 *11313:B1 *504:12 0.000105725
56 *11313:B1 *615:12 0.000840288
57 *11313:B1 *617:14 2.45812e-05
58 *11313:B1 *619:6 0.000162311
59 *11313:B1 *620:10 8.30853e-06
60 *165:12 *716:DIODE 2.07679e-05
61 *165:12 *11341:A 0
62 *165:12 *172:28 9.23681e-05
63 *165:12 *219:34 0
64 *165:20 *11292:B2 3.59531e-06
65 *165:20 *11417:A 3.98779e-05
66 *165:20 *172:28 0.000826002
67 *165:20 *584:56 0.000290633
68 *165:22 *11289:A2 1.61831e-05
69 *165:22 *11292:A1 0.000201503
70 *165:22 *11292:C1 0.000796325
71 *165:22 *172:28 0.000106805
72 *165:22 *338:30 0.000414887
73 *165:22 *607:16 3.74533e-05
74 *165:84 *173:63 0.000612588
75 *165:84 *173:76 3.66286e-05
76 *165:111 *11298:A2 1.88656e-05
77 *165:111 *11417:A 0.00024987
78 *165:111 *170:76 0.000126737
79 *165:111 *173:76 0.000775585
80 *165:111 *173:97 7.10708e-05
81 *165:130 *720:DIODE 0.000201503
82 *165:130 *11304:A1 0.000107923
83 *165:130 *173:97 0.000337476
84 *165:130 *173:110 4.37637e-05
85 *165:130 *610:24 0.000179219
86 *165:130 *612:20 6.1357e-05
87 *165:134 *11304:A1 0.000151519
88 *165:134 *173:110 0.000304743
89 *165:134 *173:125 1.78715e-05
90 *165:134 *613:12 4.82919e-05
91 *165:147 *11307:A1 0.000156758
92 *165:147 *11307:B2 4.81127e-05
93 *165:147 *11310:A1 6.38806e-05
94 *165:147 *11313:C1 3.66286e-05
95 *165:147 *173:125 8.29102e-05
96 *165:147 *173:129 0.000351268
97 *165:147 *224:48 8.43255e-05
98 *11284:A2 *11284:B1 5.92928e-05
99 *11322:A2 *11313:B1 4.55864e-06
100 *11322:C1 *11310:B1 2.59353e-05
101 *117:104 *11295:B1 0.000118469
102 *117:104 *11298:B1 1.01851e-05
103 *118:61 *165:12 8.69089e-05
104 *118:61 *165:20 0.000167111
105 *118:81 *165:12 4.11281e-05
106 *118:104 *165:147 0.000747722
*RES
1 *11279:X *165:4 1.6 
2 *165:4 *165:12 5.5899 
3 *165:12 *165:20 4.2491 
4 *165:20 *165:22 8.38125 
5 *165:22 *11284:B1 48.6375 
6 *165:22 *11289:B1 1.96 
7 *165:20 *11292:B1 2.40625 
8 *165:12 *11295:B1 7.00625 
9 *165:4 *165:84 5.97 
10 *165:84 *11298:B1 6.785 
11 *165:84 *165:111 12.8763 
12 *165:111 *11301:B1 1.6 
13 *165:111 *165:130 8.6025 
14 *165:130 *165:134 7.02375 
15 *165:134 *11307:B1 2.32375 
16 *165:134 *165:147 12.455 
17 *165:147 *11313:B1 25.3738 
18 *165:147 *11310:B1 4.78875 
19 *165:130 *11304:B1 1.96 
*END

*D_NET *166 0.0279992
*CONN
*I *11302:S I *D sky130_fd_sc_hd__mux2_4
*I *11311:S I *D sky130_fd_sc_hd__mux2_4
*I *11308:S I *D sky130_fd_sc_hd__mux2_4
*I *11305:S I *D sky130_fd_sc_hd__mux2_4
*I *11299:S I *D sky130_fd_sc_hd__mux2_4
*I *11296:S I *D sky130_fd_sc_hd__mux2_4
*I *11293:S I *D sky130_fd_sc_hd__mux2_4
*I *11290:S I *D sky130_fd_sc_hd__mux2_4
*I *11281:S I *D sky130_fd_sc_hd__mux2_4
*I *11286:S I *D sky130_fd_sc_hd__mux2_4
*I *11280:X O *D sky130_fd_sc_hd__clkbuf_8
*CAP
1 *11302:S 3.91363e-05
2 *11311:S 0.000762368
3 *11308:S 1.65753e-05
4 *11305:S 3.39064e-05
5 *11299:S 2.08101e-05
6 *11296:S 1.88809e-05
7 *11293:S 3.88178e-05
8 *11290:S 0.000207627
9 *11281:S 0.000835407
10 *11286:S 0
11 *11280:X 0.000389065
12 *166:127 0.00137067
13 *166:114 0.00142366
14 *166:102 0.0018513
15 *166:87 0.00153828
16 *166:66 0.000725247
17 *166:28 0.00113982
18 *166:20 0.00109348
19 *166:16 0.00120874
20 *166:10 0.00118059
21 *11281:S *1005:DIODE 2.30292e-05
22 *11281:S *11281:A0 0.00111447
23 *11281:S *11281:A1 9.03508e-06
24 *11281:S *11286:A1 0.00108568
25 *11281:S *279:29 8.97042e-05
26 *11281:S *292:37 0.000505272
27 *11281:S *292:39 4.36241e-05
28 *11290:S *11290:A1 4.77719e-05
29 *11293:S *11293:A1 4.69951e-06
30 *11293:S *176:50 0
31 *11296:S *1017:DIODE 5.4155e-06
32 *11302:S *11302:A1 5.18317e-06
33 *11302:S *180:52 0
34 *11305:S *287:45 1.39097e-05
35 *11311:S *11308:A0 0.000283172
36 *11311:S *11311:A0 4.46754e-05
37 *11311:S *11311:A1 0.000310364
38 *11311:S *186:8 0.000277092
39 *166:10 *1016:DIODE 6.29646e-05
40 *166:10 *176:75 2.92496e-05
41 *166:10 *315:35 0
42 *166:16 *176:50 0.000256479
43 *166:16 *176:57 9.07338e-05
44 *166:16 *176:64 9.21168e-05
45 *166:16 *176:75 0.000102728
46 *166:16 *284:31 1.61831e-05
47 *166:16 *284:45 1.91597e-05
48 *166:20 *176:6 0.000207263
49 *166:20 *176:8 6.77501e-05
50 *166:20 *176:50 9.00635e-05
51 *166:20 *284:31 1.61831e-05
52 *166:20 *306:40 0.000233992
53 *166:28 *11286:A0 0.000949206
54 *166:28 *11286:A1 3.72409e-05
55 *166:28 *292:37 1.23707e-05
56 *166:28 *292:39 0.00106528
57 *166:28 *306:36 0
58 *166:66 *1017:DIODE 4.47209e-05
59 *166:66 *284:45 2.0514e-05
60 *166:66 *284:52 0.000313852
61 *166:87 *1017:DIODE 0.000334157
62 *166:87 *11296:A0 0.000364564
63 *166:87 *11299:A0 7.60965e-05
64 *166:87 *178:6 0.000312735
65 *166:87 *178:17 8.95485e-06
66 *166:87 *178:24 0.000172042
67 *166:87 *178:33 0.000278481
68 *166:102 *11299:A0 0.000109902
69 *166:102 *178:33 0.000150751
70 *166:102 *180:6 4.77374e-05
71 *166:102 *306:22 0.00136296
72 *166:102 *313:47 0.000143637
73 *166:114 *11302:A0 0
74 *166:114 *180:52 0
75 *166:114 *313:47 0.000203796
76 *166:127 *1027:DIODE 0.000344837
77 *166:127 *1028:DIODE 1.4399e-05
78 *166:127 *11308:A0 7.27003e-05
79 *166:127 *11308:A1 0.00020663
80 *166:127 *184:15 0.000386511
81 *166:127 *184:22 0.000163199
82 *166:127 *287:45 2.83649e-05
83 *166:127 *314:29 0.000106915
84 *11280:A *166:10 0
85 *3:35 *11281:S 0.000416602
86 *3:35 *166:28 0.000116624
87 *113:36 *11290:S 4.77719e-05
88 *113:59 *166:114 0.00104326
*RES
1 *11280:X *166:10 12.08 
2 *166:10 *166:16 8.505 
3 *166:16 *166:20 10.04 
4 *166:20 *166:28 13.76 
5 *166:28 *11286:S 1.6 
6 *166:28 *11281:S 24.265 
7 *166:20 *11290:S 6.96 
8 *166:16 *11293:S 2.215 
9 *166:10 *166:66 3.9 
10 *166:66 *11296:S 1.96 
11 *166:66 *166:87 16.75 
12 *166:87 *11299:S 1.96 
13 *166:87 *166:102 17.405 
14 *166:102 *166:114 19.965 
15 *166:114 *11305:S 2.215 
16 *166:114 *166:127 13.155 
17 *166:127 *11308:S 1.96 
18 *166:127 *11311:S 15.175 
19 *166:102 *11302:S 4.215 
*END

*D_NET *167 0.0535498
*CONN
*I *1225:DIODE I *D sky130_fd_sc_hd__diode_2
*I *667:DIODE I *D sky130_fd_sc_hd__diode_2
*I *744:DIODE I *D sky130_fd_sc_hd__diode_2
*I *722:DIODE I *D sky130_fd_sc_hd__diode_2
*I *700:DIODE I *D sky130_fd_sc_hd__diode_2
*I *678:DIODE I *D sky130_fd_sc_hd__diode_2
*I *656:DIODE I *D sky130_fd_sc_hd__diode_2
*I *645:DIODE I *D sky130_fd_sc_hd__diode_2
*I *11283:A0 I *D sky130_fd_sc_hd__mux2_1
*I *689:DIODE I *D sky130_fd_sc_hd__diode_2
*I *711:DIODE I *D sky130_fd_sc_hd__diode_2
*I *733:DIODE I *D sky130_fd_sc_hd__diode_2
*I *1199:DIODE I *D sky130_fd_sc_hd__diode_2
*I *866:DIODE I *D sky130_fd_sc_hd__diode_2
*I *644:DIODE I *D sky130_fd_sc_hd__diode_2
*I *755:DIODE I *D sky130_fd_sc_hd__diode_2
*I *977:DIODE I *D sky130_fd_sc_hd__diode_2
*I *1088:DIODE I *D sky130_fd_sc_hd__diode_2
*I *1214:DIODE I *D sky130_fd_sc_hd__diode_2
*I *1236:DIODE I *D sky130_fd_sc_hd__diode_2
*I *11281:X O *D sky130_fd_sc_hd__mux2_4
*CAP
1 *1225:DIODE 0
2 *667:DIODE 0
3 *744:DIODE 3.31414e-05
4 *722:DIODE 0
5 *700:DIODE 0
6 *678:DIODE 0
7 *656:DIODE 0
8 *645:DIODE 0
9 *11283:A0 0
10 *689:DIODE 0
11 *711:DIODE 0
12 *733:DIODE 0
13 *1199:DIODE 0
14 *866:DIODE 0
15 *644:DIODE 0
16 *755:DIODE 0
17 *977:DIODE 0
18 *1088:DIODE 0
19 *1214:DIODE 0
20 *1236:DIODE 0.000121649
21 *11281:X 2.85538e-05
22 *167:166 0.000238137
23 *167:149 0.000306693
24 *167:142 0.000200953
25 *167:135 0.00019851
26 *167:128 0.000285016
27 *167:121 0.000644612
28 *167:107 0.000560549
29 *167:100 0.000200953
30 *167:93 0.000206547
31 *167:86 0.00206445
32 *167:76 0.020943
33 *167:74 0.0191686
34 *167:64 0.000282699
35 *167:57 0.00031473
36 *167:50 0.000309951
37 *167:43 0.000456662
38 *167:14 0.00022358
39 *167:12 0.000203863
40 *167:10 0.000205843
41 *167:8 0.000286862
42 *167:6 0.000573062
43 *744:DIODE *11283:S 0.000159741
44 *744:DIODE *559:12 0.000158072
45 *1236:DIODE *292:37 5.85534e-05
46 *167:6 *292:37 3.13354e-05
47 *167:8 *292:37 0.000111283
48 *167:10 *292:37 6.71438e-05
49 *167:12 *292:37 6.96579e-05
50 *167:14 *292:37 6.96579e-05
51 *167:43 *292:37 0.000560919
52 *167:43 *330:35 0.000107586
53 *167:50 *292:37 0.000164874
54 *167:57 *292:37 0.000353504
55 *167:64 *292:37 0.00016031
56 *167:74 *312:23 0.000124571
57 *167:74 *330:35 0.000398204
58 *167:76 *396:20 0
59 *167:76 *396:78 0
60 *167:86 *219:34 0.000369073
61 *167:86 *394:18 7.33639e-05
62 *167:86 *396:20 0
63 *167:86 *581:12 0.000125388
64 *167:86 *600:26 0.000261107
65 *167:93 *583:26 0.000159325
66 *167:100 *583:26 0.000160302
67 *167:107 *583:26 0.000159321
68 *167:121 *11298:B2 2.97897e-05
69 *167:121 *11449:A 0.000382758
70 *167:121 *11614:A 1.88218e-05
71 *167:121 *169:24 0.000114275
72 *167:128 *583:26 0.000269551
73 *167:135 *583:26 0.000160302
74 *167:142 *583:26 0.000160302
75 *167:149 *583:26 0.000159321
76 *167:166 *11334:A 5.81987e-05
77 *167:166 *202:18 2.06083e-05
78 *167:166 *247:43 9.62215e-05
79 *167:166 *583:26 8.38605e-05
80 *115:16 *167:121 3.38341e-05
*RES
1 *11281:X *167:6 2.215 
2 *167:6 *167:8 2.52 
3 *167:8 *167:10 1.485 
4 *167:10 *167:12 1.485 
5 *167:12 *167:14 1.485 
6 *167:14 *1236:DIODE 3.085 
7 *167:14 *1214:DIODE 1.6 
8 *167:12 *1088:DIODE 1.6 
9 *167:10 *977:DIODE 1.6 
10 *167:8 *755:DIODE 1.6 
11 *167:6 *167:43 5.28 
12 *167:43 *644:DIODE 1.6 
13 *167:43 *167:50 1.485 
14 *167:50 *866:DIODE 1.6 
15 *167:50 *167:57 3.21 
16 *167:57 *1199:DIODE 1.6 
17 *167:57 *167:64 1.485 
18 *167:64 *167:74 4.84403 
19 *167:74 *167:76 51.8041 
20 *167:76 *167:86 10.548 
21 *167:86 *733:DIODE 1.6 
22 *167:86 *167:93 1.485 
23 *167:93 *711:DIODE 1.6 
24 *167:93 *167:100 1.485 
25 *167:100 *689:DIODE 1.6 
26 *167:100 *167:107 1.485 
27 *167:107 *167:121 14.33 
28 *167:121 *11283:A0 1.6 
29 *167:121 *167:128 2.52 
30 *167:128 *645:DIODE 1.6 
31 *167:128 *167:135 1.485 
32 *167:135 *656:DIODE 1.6 
33 *167:135 *167:142 1.485 
34 *167:142 *678:DIODE 1.6 
35 *167:142 *167:149 1.485 
36 *167:149 *700:DIODE 1.6 
37 *167:149 *167:166 7.585 
38 *167:166 *722:DIODE 1.6 
39 *167:166 *744:DIODE 3.085 
40 *167:107 *667:DIODE 1.6 
41 *167:64 *1225:DIODE 1.6 
*END

*D_NET *168 0.0552692
*CONN
*I *11309:S I *D sky130_fd_sc_hd__mux2_2
*I *11312:S I *D sky130_fd_sc_hd__mux2_2
*I *11306:S I *D sky130_fd_sc_hd__mux2_2
*I *11303:S I *D sky130_fd_sc_hd__mux2_1
*I *11297:S I *D sky130_fd_sc_hd__mux2_1
*I *11294:S I *D sky130_fd_sc_hd__mux2_1
*I *11291:S I *D sky130_fd_sc_hd__mux2_1
*I *11287:S I *D sky130_fd_sc_hd__mux2_1
*I *11283:S I *D sky130_fd_sc_hd__mux2_1
*I *11300:S I *D sky130_fd_sc_hd__mux2_1
*I *11282:X O *D sky130_fd_sc_hd__buf_4
*CAP
1 *11309:S 0.000257014
2 *11312:S 5.17294e-05
3 *11306:S 6.61814e-05
4 *11303:S 0
5 *11297:S 0
6 *11294:S 0
7 *11291:S 0
8 *11287:S 0
9 *11283:S 0.000632027
10 *11300:S 0
11 *11282:X 0
12 *168:114 0.00143342
13 *168:103 0.00233609
14 *168:101 0.00114523
15 *168:99 0.0017766
16 *168:97 0.00218691
17 *168:86 0.0016705
18 *168:33 0.000875674
19 *168:31 0.000488549
20 *168:29 0.000489697
21 *168:27 0.000859746
22 *168:12 0.000873083
23 *168:4 0.00151832
24 *11283:S *872:DIODE 0.000164874
25 *11283:S *11329:A 0.00167521
26 *11283:S *171:100 4.82919e-05
27 *11283:S *171:107 0.000160729
28 *11283:S *171:116 0.000273353
29 *11283:S *171:123 4.11718e-05
30 *11283:S *177:6 0.000531524
31 *11283:S *223:32 0.000358257
32 *11283:S *228:32 0
33 *11283:S *247:43 0.000724714
34 *11283:S *247:59 3.6355e-05
35 *11283:S *247:61 0.000149347
36 *11283:S *372:18 0.00015835
37 *11283:S *559:12 0.000431157
38 *11283:S *583:26 0.000157771
39 *11306:S *184:86 0.000118081
40 *11309:S *918:DIODE 1.19928e-05
41 *11309:S *11309:A0 5.83121e-06
42 *11309:S *11454:A 0.000190931
43 *11309:S *256:23 2.8185e-05
44 *11312:S *11312:A0 4.82919e-05
45 *11312:S *11312:A1 4.66108e-05
46 *11312:S *372:71 3.96653e-05
47 *168:12 *897:DIODE 6.6641e-05
48 *168:12 *1230:DIODE 0.000178675
49 *168:12 *178:91 0.000175411
50 *168:12 *178:97 3.09164e-05
51 *168:12 *178:113 0.000235573
52 *168:12 *191:22 0.000568247
53 *168:27 *897:DIODE 0.000126725
54 *168:27 *178:62 1.53053e-05
55 *168:27 *178:91 0.000284209
56 *168:27 *251:43 0.000915537
57 *168:29 *11294:A1 1.60203e-05
58 *168:29 *176:108 0.000162299
59 *168:29 *176:115 8.93909e-05
60 *168:29 *176:122 8.80056e-05
61 *168:29 *176:133 4.21518e-05
62 *168:29 *178:62 0.000123592
63 *168:29 *179:14 0.000763031
64 *168:29 *251:43 0.000176472
65 *168:31 *11291:A1 0.000933016
66 *168:31 *11294:A0 8.49205e-05
67 *168:31 *11294:A1 2.30292e-05
68 *168:31 *174:104 8.34281e-06
69 *168:31 *176:108 2.75229e-05
70 *168:31 *177:6 0.000831437
71 *168:33 *933:DIODE 0.000207221
72 *168:33 *11291:A1 4.99619e-05
73 *168:33 *171:123 0.000184795
74 *168:33 *171:130 9.2741e-05
75 *168:33 *171:137 9.74276e-05
76 *168:33 *177:6 0.0010483
77 *168:86 *11303:A1 8.65905e-05
78 *168:86 *11351:A 0
79 *168:86 *11395:A 0
80 *168:86 *182:98 5.0298e-05
81 *168:86 *182:105 4.67415e-05
82 *168:86 *182:112 4.94611e-05
83 *168:86 *182:119 0.000130009
84 *168:86 *182:128 8.02918e-05
85 *168:86 *182:135 2.30292e-05
86 *168:86 *183:14 0
87 *168:86 *191:22 4.60584e-05
88 *168:86 *252:29 7.9642e-06
89 *168:86 *378:16 4.72538e-05
90 *168:99 *185:14 3.77938e-05
91 *168:99 *187:42 0.00650075
92 *168:99 *195:14 4.30926e-05
93 *168:103 *675:DIODE 9.34171e-06
94 *168:103 *185:10 0.00456917
95 *168:103 *193:8 5.58628e-05
96 *168:103 *482:24 0.00107582
97 *168:114 *985:DIODE 0.000105841
98 *168:114 *986:DIODE 3.86607e-05
99 *168:114 *11318:A0 8.05768e-05
100 *168:114 *11454:A 0.00045022
101 *168:114 *193:8 3.61426e-05
102 *168:114 *266:83 0.00036366
103 *168:114 *482:24 0.000327146
104 *168:114 *569:16 0
105 *744:DIODE *11283:S 0.000159741
106 *11321:S *168:114 0.00176128
107 *115:43 *168:86 8.53113e-06
108 *115:67 *168:99 0.0044236
109 *115:71 *168:103 0.00474301
110 *115:71 *168:114 0.000202886
*RES
1 *11282:X *168:4 1.6 
2 *168:4 *168:12 10.04 
3 *168:12 *11300:S 3.6 
4 *168:12 *168:27 15.185 
5 *168:27 *168:29 9.765 
6 *168:29 *168:31 10.11 
7 *168:31 *168:33 9.765 
8 *168:33 *11283:S 33.11 
9 *168:33 *11287:S 1.6 
10 *168:31 *11291:S 1.6 
11 *168:29 *11294:S 1.6 
12 *168:27 *11297:S 1.6 
13 *168:4 *168:86 26.37 
14 *168:86 *11303:S 3.6 
15 *168:86 *168:97 8.735 
16 *168:97 *168:99 66 
17 *168:99 *168:101 2 
18 *168:101 *168:103 54.675 
19 *168:103 *11306:S 4.74 
20 *168:103 *168:114 30.705 
21 *168:114 *11312:S 4.74 
22 *168:114 *11309:S 8.67 
*END

*D_NET *169 0.015159
*CONN
*I *11284:B2 I *D sky130_fd_sc_hd__o221a_2
*I *11283:X O *D sky130_fd_sc_hd__mux2_1
*CAP
1 *11284:B2 0.000641262
2 *11283:X 0.00164277
3 *169:24 0.00228403
4 *11284:B2 *11284:A1 0.000114234
5 *11284:B2 *371:42 0.00236627
6 *11284:B2 *404:22 0.00393949
7 *11284:B2 *605:6 1.33285e-05
8 *169:24 *11341:A 8.63095e-05
9 *169:24 *583:26 0.000302791
10 *11284:A2 *11284:B2 4.82863e-05
11 *11284:B1 *11284:B2 0.00161206
12 *11284:C1 *11284:B2 0
13 *115:16 *169:24 0.0019939
14 *167:121 *169:24 0.000114275
*RES
1 *11283:X *169:24 33.315 
2 *169:24 *11284:B2 39.43 
*END

*D_NET *170 0.0186207
*CONN
*I *11307:A2 I *D sky130_fd_sc_hd__o221a_2
*I *11313:A2 I *D sky130_fd_sc_hd__o221a_2
*I *11310:A2 I *D sky130_fd_sc_hd__o221a_2
*I *11316:A2 I *D sky130_fd_sc_hd__o221a_2
*I *11304:A2 I *D sky130_fd_sc_hd__o221a_2
*I *11301:A2 I *D sky130_fd_sc_hd__o221a_2
*I *11298:A2 I *D sky130_fd_sc_hd__o221a_2
*I *11295:A2 I *D sky130_fd_sc_hd__o221a_2
*I *11292:A2 I *D sky130_fd_sc_hd__o221a_2
*I *11289:A2 I *D sky130_fd_sc_hd__o221a_2
*I *11285:X O *D sky130_fd_sc_hd__buf_2
*CAP
1 *11307:A2 8.22147e-06
2 *11313:A2 0.000384612
3 *11310:A2 0
4 *11316:A2 7.7291e-05
5 *11304:A2 2.16971e-05
6 *11301:A2 1.02023e-05
7 *11298:A2 8.13887e-06
8 *11295:A2 0
9 *11292:A2 3.93301e-05
10 *11289:A2 0.000757527
11 *11285:X 0.000213114
12 *170:127 0.000612628
13 *170:106 0.00106563
14 *170:102 0.00115925
15 *170:89 0.00121136
16 *170:76 0.00143752
17 *170:63 0.0011045
18 *170:48 0.000852627
19 *170:18 0.000962516
20 *170:16 0.000763403
21 *11289:A2 *11289:B2 9.50342e-06
22 *11289:A2 *11292:A1 1.02867e-05
23 *11289:A2 *11292:C1 6.85694e-05
24 *11289:A2 *173:12 0
25 *11289:A2 *217:32 0
26 *11289:A2 *584:56 0
27 *11289:A2 *607:16 0.000833228
28 *11292:A2 *11292:A1 2.85362e-05
29 *11292:A2 *11292:C1 4.21451e-07
30 *11298:A2 *11298:B2 8.7152e-06
31 *11301:A2 *11301:B2 8.7152e-06
32 *11301:A2 *173:97 1.88656e-05
33 *11304:A2 *11304:A1 1.88656e-05
34 *11313:A2 *11304:B2 0.000831916
35 *11313:A2 *11310:A1 4.82919e-05
36 *11313:A2 *11313:C1 5.39909e-05
37 *11313:A2 *11322:A1 4.92229e-05
38 *11313:A2 *183:14 9.53428e-06
39 *11313:A2 *615:12 0.000111796
40 *11316:A2 *11316:A1 3.59531e-06
41 *11316:A2 *11316:B2 8.7152e-06
42 *11316:A2 *173:129 2.91399e-05
43 *11316:A2 *617:14 6.16226e-06
44 *170:16 *11417:A 1.88602e-05
45 *170:16 *584:56 1.7635e-05
46 *170:16 *608:12 2.76204e-05
47 *170:18 *11292:A1 2.66586e-05
48 *170:18 *11471:A 4.66108e-05
49 *170:18 *338:30 2.8585e-06
50 *170:18 *608:12 8.73389e-06
51 *170:48 *716:DIODE 0
52 *170:48 *11295:B2 0.000127723
53 *170:48 *11471:A 0.000452547
54 *170:63 *11614:A 7.96104e-06
55 *170:63 *173:63 0.000715291
56 *170:63 *609:16 4.77719e-05
57 *170:76 *11417:A 0.000109729
58 *170:76 *173:76 0.000126737
59 *170:76 *610:24 0.000131876
60 *170:89 *11617:A 0
61 *170:89 *380:18 0
62 *170:102 *11307:A1 0.000404832
63 *170:102 *11617:A 0
64 *170:106 *11307:A1 0.000115368
65 *170:106 *11310:A1 0.000215854
66 *170:106 *11617:A 0
67 *170:127 *11310:A1 0.000402322
68 *170:127 *11310:B2 8.7152e-06
69 *170:127 *504:12 3.51809e-05
70 *11292:B1 *11289:A2 1.60072e-05
71 *11292:B1 *11292:A2 8.51446e-06
72 *11295:B1 *170:48 0.000107782
73 *11295:B1 *170:63 4.77757e-05
74 *11298:B1 *11298:A2 3.16707e-06
75 *11310:B1 *11313:A2 3.89884e-06
76 *11313:B1 *11313:A2 0.000331121
77 *11313:B1 *170:127 1.88656e-05
78 *11322:A2 *11307:A2 9.58678e-06
79 *11322:B1 *11313:A2 1.12643e-05
80 *11322:C1 *11313:A2 0.000123733
81 *11322:C1 *11316:A2 1.60083e-05
82 *117:104 *170:16 7.39166e-05
83 *117:104 *170:63 0.000440115
84 *117:104 *170:76 0.00031843
85 *117:104 *170:89 0.000337606
86 *117:104 *170:102 0.000287141
87 *117:104 *170:106 5.63443e-05
88 *118:61 *170:63 0.0002001
89 *118:81 *11307:A2 1.88656e-05
90 *118:104 *11316:A2 1.51915e-05
91 *122:89 *170:16 0.000114936
92 *165:22 *11289:A2 1.61831e-05
93 *165:111 *11298:A2 1.88656e-05
94 *165:111 *170:76 0.000126737
*RES
1 *11285:X *170:16 9.185 
2 *170:16 *170:18 2.1525 
3 *170:18 *11289:A2 16.0025 
4 *170:18 *11292:A2 2.6425 
5 *170:16 *170:48 9.88 
6 *170:48 *11295:A2 1.6 
7 *170:48 *170:63 10.9316 
8 *170:63 *11298:A2 4.3325 
9 *170:63 *170:76 1.2616 
10 *170:76 *11301:A2 4.3325 
11 *170:76 *170:89 1.31987 
12 *170:89 *11304:A2 4.3325 
13 *170:89 *170:102 1.14507 
14 *170:102 *170:106 1.444 
15 *170:106 *11316:A2 5.375 
16 *170:106 *170:127 4.0599 
17 *170:127 *11310:A2 1.6 
18 *170:127 *11313:A2 13.36 
19 *170:102 *11307:A2 4.3325 
*END

*D_NET *171 0.0641876
*CONN
*I *833:DIODE I *D sky130_fd_sc_hd__diode_2
*I *933:DIODE I *D sky130_fd_sc_hd__diode_2
*I *900:DIODE I *D sky130_fd_sc_hd__diode_2
*I *878:DIODE I *D sky130_fd_sc_hd__diode_2
*I *855:DIODE I *D sky130_fd_sc_hd__diode_2
*I *11287:A0 I *D sky130_fd_sc_hd__mux2_1
*I *844:DIODE I *D sky130_fd_sc_hd__diode_2
*I *867:DIODE I *D sky130_fd_sc_hd__diode_2
*I *889:DIODE I *D sky130_fd_sc_hd__diode_2
*I *911:DIODE I *D sky130_fd_sc_hd__diode_2
*I *922:DIODE I *D sky130_fd_sc_hd__diode_2
*I *811:DIODE I *D sky130_fd_sc_hd__diode_2
*I *789:DIODE I *D sky130_fd_sc_hd__diode_2
*I *778:DIODE I *D sky130_fd_sc_hd__diode_2
*I *756:DIODE I *D sky130_fd_sc_hd__diode_2
*I *767:DIODE I *D sky130_fd_sc_hd__diode_2
*I *800:DIODE I *D sky130_fd_sc_hd__diode_2
*I *822:DIODE I *D sky130_fd_sc_hd__diode_2
*I *11286:X O *D sky130_fd_sc_hd__mux2_4
*CAP
1 *833:DIODE 0
2 *933:DIODE 0.000338265
3 *900:DIODE 0
4 *878:DIODE 0
5 *855:DIODE 0
6 *11287:A0 0
7 *844:DIODE 0
8 *867:DIODE 0
9 *889:DIODE 0
10 *911:DIODE 0
11 *922:DIODE 0
12 *811:DIODE 0
13 *789:DIODE 0
14 *778:DIODE 0
15 *756:DIODE 0
16 *767:DIODE 0
17 *800:DIODE 0
18 *822:DIODE 0.000101612
19 *11286:X 3.52519e-05
20 *171:137 0.000412873
21 *171:130 0.000156966
22 *171:123 0.000323614
23 *171:116 0.000345335
24 *171:107 0.0001303
25 *171:100 7.23047e-05
26 *171:93 0.000123474
27 *171:86 0.000113478
28 *171:79 0.00118162
29 *171:69 0.0250711
30 *171:67 0.0243927
31 *171:57 0.000565969
32 *171:50 0.000197551
33 *171:43 0.000206812
34 *171:36 0.000613595
35 *171:12 0.000267537
36 *171:10 0.00026699
37 *171:8 0.00018617
38 *171:6 0.000625906
39 *822:DIODE *292:37 0.000164874
40 *933:DIODE *11291:A1 0.000794198
41 *933:DIODE *174:83 0.00038343
42 *933:DIODE *174:90 0.000159697
43 *933:DIODE *174:97 0.000158532
44 *933:DIODE *174:104 0.00015817
45 *171:6 *292:37 4.34332e-05
46 *171:8 *292:37 9.43385e-05
47 *171:10 *292:37 0.000159048
48 *171:12 *292:37 0.000279787
49 *171:36 *292:37 2.86967e-05
50 *171:36 *292:39 0.000737761
51 *171:36 *330:35 0.000158587
52 *171:43 *292:39 0.000153816
53 *171:50 *292:39 0.000160314
54 *171:57 *292:39 0.00016031
55 *171:67 *11327:A 0.000157246
56 *171:67 *313:47 2.49056e-05
57 *171:67 *330:35 0.00139264
58 *171:69 *202:18 0
59 *171:69 *380:18 0
60 *171:69 *483:18 0
61 *171:79 *202:18 0
62 *171:79 *222:40 8.28979e-05
63 *171:79 *247:27 8.14854e-05
64 *171:79 *478:18 1.13099e-05
65 *171:86 *172:28 0.000159697
66 *171:86 *177:6 9.00151e-05
67 *171:93 *172:28 0.000334289
68 *171:93 *177:6 0.000198444
69 *171:100 *172:28 0.000144621
70 *171:100 *177:6 5.74791e-05
71 *171:107 *172:28 0.000149072
72 *171:116 *172:28 0.000111559
73 *11283:S *171:100 4.82919e-05
74 *11283:S *171:107 0.000160729
75 *11283:S *171:116 0.000273353
76 *11283:S *171:123 4.11718e-05
77 *3:35 *171:67 0.000561741
78 *168:33 *933:DIODE 0.000207221
79 *168:33 *171:123 0.000184795
80 *168:33 *171:130 9.2741e-05
81 *168:33 *171:137 9.74276e-05
*RES
1 *11286:X *171:6 2.215 
2 *171:6 *171:8 1.14 
3 *171:8 *171:10 1.485 
4 *171:10 *171:12 2.52 
5 *171:12 *822:DIODE 3.085 
6 *171:12 *800:DIODE 1.6 
7 *171:10 *767:DIODE 1.6 
8 *171:8 *756:DIODE 1.6 
9 *171:6 *171:36 7.35 
10 *171:36 *778:DIODE 1.6 
11 *171:36 *171:43 1.485 
12 *171:43 *789:DIODE 1.6 
13 *171:43 *171:50 1.485 
14 *171:50 *811:DIODE 1.6 
15 *171:50 *171:57 1.485 
16 *171:57 *171:67 5.33897 
17 *171:67 *171:69 51.8041 
18 *171:69 *171:79 5.5213 
19 *171:79 *922:DIODE 1.6 
20 *171:79 *171:86 1.485 
21 *171:86 *911:DIODE 1.6 
22 *171:86 *171:93 3.21 
23 *171:93 *889:DIODE 1.6 
24 *171:93 *171:100 1.485 
25 *171:100 *867:DIODE 1.6 
26 *171:100 *171:107 1.485 
27 *171:107 *844:DIODE 1.6 
28 *171:107 *171:116 2.88 
29 *171:116 *11287:A0 1.6 
30 *171:116 *171:123 3.9 
31 *171:123 *855:DIODE 1.6 
32 *171:123 *171:130 1.485 
33 *171:130 *878:DIODE 1.6 
34 *171:130 *171:137 1.485 
35 *171:137 *900:DIODE 1.6 
36 *171:137 *933:DIODE 12.4 
37 *171:57 *833:DIODE 1.6 
*END

*D_NET *172 0.0133017
*CONN
*I *11289:B2 I *D sky130_fd_sc_hd__o221a_2
*I *11287:X O *D sky130_fd_sc_hd__mux2_1
*CAP
1 *11289:B2 4.18741e-05
2 *11287:X 0.00374202
3 *172:28 0.00378389
4 *11289:B2 *173:12 4.18603e-06
5 *11289:B2 *217:32 0
6 *172:28 *718:DIODE 8.53113e-06
7 *172:28 *11341:A 0.000951338
8 *172:28 *177:6 0.00028782
9 *172:28 *219:34 1.98775e-05
10 *172:28 *220:30 0.000562982
11 *172:28 *338:30 0.000127447
12 *172:28 *371:46 0.000726114
13 *172:28 *584:56 0.00048812
14 *172:28 *605:6 0.000100056
15 *11289:A2 *11289:B2 9.50342e-06
16 *115:30 *172:28 5.46877e-05
17 *143:10 *172:28 0.000468894
18 *165:12 *172:28 9.23681e-05
19 *165:20 *172:28 0.000826002
20 *165:22 *172:28 0.000106805
21 *171:86 *172:28 0.000159697
22 *171:93 *172:28 0.000334289
23 *171:100 *172:28 0.000144621
24 *171:107 *172:28 0.000149072
25 *171:116 *172:28 0.000111559
*RES
1 *11287:X *172:28 49.8073 
2 *172:28 *11289:B2 4.5875 
*END

*D_NET *173 0.0179513
*CONN
*I *11316:C1 I *D sky130_fd_sc_hd__o221a_2
*I *11313:C1 I *D sky130_fd_sc_hd__o221a_2
*I *11310:C1 I *D sky130_fd_sc_hd__o221a_2
*I *11307:C1 I *D sky130_fd_sc_hd__o221a_2
*I *11304:C1 I *D sky130_fd_sc_hd__o221a_2
*I *11301:C1 I *D sky130_fd_sc_hd__o221a_2
*I *11298:C1 I *D sky130_fd_sc_hd__o221a_2
*I *11295:C1 I *D sky130_fd_sc_hd__o221a_2
*I *11292:C1 I *D sky130_fd_sc_hd__o221a_2
*I *11289:C1 I *D sky130_fd_sc_hd__o221a_2
*I *11288:X O *D sky130_fd_sc_hd__buf_2
*CAP
1 *11316:C1 0
2 *11313:C1 0.000726751
3 *11310:C1 1.99436e-05
4 *11307:C1 0
5 *11304:C1 1.55087e-05
6 *11301:C1 5.20336e-05
7 *11298:C1 1.66287e-05
8 *11295:C1 6.79848e-05
9 *11292:C1 0.000151379
10 *11289:C1 0
11 *11288:X 0
12 *173:129 0.000834196
13 *173:125 0.00049072
14 *173:110 0.000772416
15 *173:97 0.000796363
16 *173:76 0.000616162
17 *173:63 0.000678602
18 *173:44 0.0011561
19 *173:12 0.000644345
20 *173:4 0.00107158
21 *11292:C1 *607:16 0.000685034
22 *11301:C1 *11301:B2 1.07655e-05
23 *11313:C1 *11310:A1 4.82919e-05
24 *11313:C1 *11313:A1 0
25 *11313:C1 *11313:B2 4.18603e-06
26 *11313:C1 *11322:B2 3.59531e-06
27 *11313:C1 *11432:A 1.32974e-05
28 *11313:C1 *11617:A 9.82856e-06
29 *11313:C1 *229:71 0.000308669
30 *11313:C1 *615:12 0.000122699
31 *173:63 *11295:B2 1.34556e-05
32 *173:63 *11417:A 8.73389e-06
33 *173:63 *609:16 4.77719e-05
34 *173:76 *11417:A 4.82824e-05
35 *173:76 *610:24 0.000541861
36 *173:97 *720:DIODE 0.000199833
37 *173:97 *11301:B2 2.35349e-05
38 *173:97 *11615:A 0
39 *173:97 *221:32 2.92496e-05
40 *173:97 *610:24 0.000191521
41 *173:110 *725:DIODE 8.65905e-05
42 *173:110 *11304:A1 4.82919e-05
43 *173:125 *11307:A1 5.84698e-05
44 *173:125 *11307:B2 4.8891e-05
45 *173:125 *11310:A1 0.000120655
46 *173:125 *224:48 0.000153816
47 *173:125 *614:16 4.66108e-05
48 *11289:A2 *11292:C1 6.85694e-05
49 *11289:A2 *173:12 0
50 *11289:B2 *173:12 4.18603e-06
51 *11292:A2 *11292:C1 4.21451e-07
52 *11292:B1 *11292:C1 5.46726e-06
53 *11295:B1 *173:63 2.97675e-05
54 *11298:B1 *11298:C1 5.10587e-05
55 *11298:B1 *173:76 1.85115e-05
56 *11301:A2 *173:97 1.88656e-05
57 *11304:B1 *11304:C1 5.1775e-06
58 *11307:B1 *173:125 1.21339e-05
59 *11310:B1 *11310:C1 9.03508e-06
60 *11310:B1 *11313:C1 4.36917e-05
61 *11313:A2 *11313:C1 5.39909e-05
62 *11313:B1 *11313:C1 6.65725e-05
63 *11316:A2 *173:129 2.91399e-05
64 *11316:B1 *173:129 4.78756e-05
65 *11322:B1 *11313:C1 5.82798e-05
66 *11322:C1 *11313:C1 0.000162881
67 *11322:C1 *173:125 0.000560837
68 *11322:C1 *173:129 0.000108784
69 *117:69 *173:12 0.000463811
70 *117:69 *173:44 0.000118081
71 *117:71 *173:44 0.000134147
72 *117:104 *11295:C1 8.23457e-05
73 *117:104 *11298:C1 5.10587e-05
74 *117:104 *173:44 4.07182e-05
75 *117:104 *173:63 6.18315e-05
76 *118:61 *173:12 0
77 *122:89 *173:44 0.000350565
78 *165:22 *11292:C1 0.000796325
79 *165:84 *173:63 0.000612588
80 *165:84 *173:76 3.66286e-05
81 *165:111 *173:76 0.000775585
82 *165:111 *173:97 7.10708e-05
83 *165:130 *173:97 0.000337476
84 *165:130 *173:110 4.37637e-05
85 *165:134 *173:110 0.000304743
86 *165:134 *173:125 1.78715e-05
87 *165:147 *11313:C1 3.66286e-05
88 *165:147 *173:125 8.29102e-05
89 *165:147 *173:129 0.000351268
90 *170:63 *173:63 0.000715291
91 *170:76 *173:76 0.000126737
*RES
1 *11288:X *173:4 1.6 
2 *173:4 *173:12 10.9 
3 *173:12 *11289:C1 1.6 
4 *173:12 *11292:C1 9.73 
5 *173:4 *173:44 8.85 
6 *173:44 *11295:C1 3.01 
7 *173:44 *173:63 12.075 
8 *173:63 *11298:C1 6.215 
9 *173:63 *173:76 7.35 
10 *173:76 *11301:C1 6.215 
11 *173:76 *173:97 12.67 
12 *173:97 *11304:C1 1.96 
13 *173:97 *173:110 7.125 
14 *173:110 *11307:C1 1.6 
15 *173:110 *173:125 9.135 
16 *173:125 *173:129 3.57 
17 *173:129 *11310:C1 1.96 
18 *173:129 *11313:C1 12.3068 
19 *173:125 *11316:C1 1.6 
*END

*D_NET *174 0.0661477
*CONN
*I *1022:DIODE I *D sky130_fd_sc_hd__diode_2
*I *11291:A0 I *D sky130_fd_sc_hd__mux2_1
*I *1089:DIODE I *D sky130_fd_sc_hd__diode_2
*I *1077:DIODE I *D sky130_fd_sc_hd__diode_2
*I *1066:DIODE I *D sky130_fd_sc_hd__diode_2
*I *1111:DIODE I *D sky130_fd_sc_hd__diode_2
*I *1100:DIODE I *D sky130_fd_sc_hd__diode_2
*I *1055:DIODE I *D sky130_fd_sc_hd__diode_2
*I *1044:DIODE I *D sky130_fd_sc_hd__diode_2
*I *1033:DIODE I *D sky130_fd_sc_hd__diode_2
*I *1000:DIODE I *D sky130_fd_sc_hd__diode_2
*I *978:DIODE I *D sky130_fd_sc_hd__diode_2
*I *966:DIODE I *D sky130_fd_sc_hd__diode_2
*I *955:DIODE I *D sky130_fd_sc_hd__diode_2
*I *944:DIODE I *D sky130_fd_sc_hd__diode_2
*I *989:DIODE I *D sky130_fd_sc_hd__diode_2
*I *1011:DIODE I *D sky130_fd_sc_hd__diode_2
*I *11290:X O *D sky130_fd_sc_hd__mux2_4
*CAP
1 *1022:DIODE 0
2 *11291:A0 0
3 *1089:DIODE 0.000418111
4 *1077:DIODE 7.21779e-05
5 *1066:DIODE 0
6 *1111:DIODE 0
7 *1100:DIODE 8.27445e-05
8 *1055:DIODE 0
9 *1044:DIODE 0
10 *1033:DIODE 0
11 *1000:DIODE 0
12 *978:DIODE 0
13 *966:DIODE 0
14 *955:DIODE 0
15 *944:DIODE 0
16 *989:DIODE 0
17 *1011:DIODE 0.000108438
18 *11290:X 3.37164e-05
19 *174:126 7.21779e-05
20 *174:112 0.000218621
21 *174:108 0.000313328
22 *174:104 0.000985956
23 *174:97 0.000494503
24 *174:90 0.000205465
25 *174:83 0.000377231
26 *174:77 0.00189306
27 *174:69 0.0157919
28 *174:67 0.0152477
29 *174:57 0.00117798
30 *174:50 0.000205238
31 *174:43 0.00019928
32 *174:36 0.000198082
33 *174:29 0.000480221
34 *174:10 0.000392728
35 *174:8 0.000372804
36 *174:6 0.000503411
37 *1011:DIODE *11290:A1 6.96579e-05
38 *1077:DIODE *559:12 0.0001249
39 *1089:DIODE *11294:A1 0.000648912
40 *1100:DIODE *11316:B2 7.60965e-05
41 *174:6 *11290:A1 9.13949e-06
42 *174:8 *11290:A1 4.49945e-05
43 *174:10 *11290:A1 0.000147262
44 *174:29 *11290:A0 0.000167545
45 *174:29 *11290:A1 0.000151109
46 *174:36 *11290:A0 9.91257e-05
47 *174:43 *11290:A0 9.91257e-05
48 *174:50 *11290:A0 9.70724e-05
49 *174:57 *1016:DIODE 4.66108e-05
50 *174:57 *11290:A0 6.77417e-05
51 *174:67 *1016:DIODE 0.000178805
52 *174:67 *11293:A0 0.00016709
53 *174:67 *313:47 0.000541524
54 *174:67 *314:29 0.00201057
55 *174:69 *372:18 0.00815615
56 *174:69 *376:18 0
57 *174:69 *474:46 0.00160534
58 *174:69 *476:30 0.0103173
59 *174:77 *887:DIODE 1.32824e-05
60 *174:77 *11310:B2 3.01119e-05
61 *174:77 *369:18 1.8608e-05
62 *174:77 *472:18 1.86045e-05
63 *174:77 *474:46 3.59337e-05
64 *174:77 *476:30 5.98541e-05
65 *174:83 *887:DIODE 1.94892e-05
66 *174:83 *11310:B2 5.33085e-05
67 *174:104 *11291:A1 0.000110259
68 *174:104 *11294:A0 2.0514e-05
69 *174:104 *11294:A1 0.000163199
70 *174:108 *11313:B2 0
71 *174:108 *11505:A 5.72004e-05
72 *174:108 *461:18 0
73 *174:112 *11313:B2 0
74 *933:DIODE *174:83 0.00038343
75 *933:DIODE *174:90 0.000159697
76 *933:DIODE *174:97 0.000158532
77 *933:DIODE *174:104 0.00015817
78 *113:36 *174:29 8.12896e-06
79 *168:31 *174:104 8.34281e-06
*RES
1 *11290:X *174:6 2.215 
2 *174:6 *174:8 1.14 
3 *174:8 *174:10 3.555 
4 *174:10 *1011:DIODE 3.085 
5 *174:10 *989:DIODE 1.6 
6 *174:8 *944:DIODE 1.6 
7 *174:6 *174:29 5.28 
8 *174:29 *955:DIODE 1.6 
9 *174:29 *174:36 1.485 
10 *174:36 *966:DIODE 1.6 
11 *174:36 *174:43 1.485 
12 *174:43 *978:DIODE 1.6 
13 *174:43 *174:50 1.485 
14 *174:50 *1000:DIODE 1.6 
15 *174:50 *174:57 1.485 
16 *174:57 *174:67 6.56257 
17 *174:67 *174:69 52.5793 
18 *174:69 *174:77 3.59397 
19 *174:77 *174:83 6.17 
20 *174:83 *1033:DIODE 1.6 
21 *174:83 *174:90 1.485 
22 *174:90 *1044:DIODE 1.6 
23 *174:90 *174:97 1.485 
24 *174:97 *1055:DIODE 1.6 
25 *174:97 *174:104 5.28 
26 *174:104 *174:108 5.165 
27 *174:108 *174:112 3.89 
28 *174:112 *1100:DIODE 2.74 
29 *174:112 *1111:DIODE 1.6 
30 *174:108 *174:126 2 
31 *174:126 *1066:DIODE 1.6 
32 *174:126 *1077:DIODE 3.085 
33 *174:104 *1089:DIODE 7.57 
34 *174:77 *11291:A0 3.6 
35 *174:57 *1022:DIODE 1.6 
*END

*D_NET *175 0.00947715
*CONN
*I *11292:B2 I *D sky130_fd_sc_hd__o221a_2
*I *11291:X O *D sky130_fd_sc_hd__mux2_1
*CAP
1 *11292:B2 0.000780438
2 *11291:X 0.000145721
3 *175:14 0.00266869
4 *175:10 0.00203397
5 *11292:B2 *11292:A1 8.68767e-06
6 *11292:B2 *218:32 0
7 *175:10 *11310:B2 3.56353e-05
8 *175:10 *226:34 0.000113591
9 *175:10 *504:12 0.000114575
10 *175:14 *193:12 0.000458211
11 *175:14 *223:28 0.00128195
12 *175:14 *225:30 6.51361e-06
13 *175:14 *228:26 5.87768e-05
14 *175:14 *602:14 0.00159398
15 *175:14 *611:12 0.000172807
16 *165:20 *11292:B2 3.59531e-06
*RES
1 *11291:X *175:10 9.275 
2 *175:10 *175:14 49.37 
3 *175:14 *11292:B2 14.67 
*END

*D_NET *176 0.0577943
*CONN
*I *1177:DIODE I *D sky130_fd_sc_hd__diode_2
*I *1210:DIODE I *D sky130_fd_sc_hd__diode_2
*I *1211:DIODE I *D sky130_fd_sc_hd__diode_2
*I *1209:DIODE I *D sky130_fd_sc_hd__diode_2
*I *1208:DIODE I *D sky130_fd_sc_hd__diode_2
*I *1212:DIODE I *D sky130_fd_sc_hd__diode_2
*I *1207:DIODE I *D sky130_fd_sc_hd__diode_2
*I *1206:DIODE I *D sky130_fd_sc_hd__diode_2
*I *1205:DIODE I *D sky130_fd_sc_hd__diode_2
*I *11294:A0 I *D sky130_fd_sc_hd__mux2_1
*I *1155:DIODE I *D sky130_fd_sc_hd__diode_2
*I *1133:DIODE I *D sky130_fd_sc_hd__diode_2
*I *1122:DIODE I *D sky130_fd_sc_hd__diode_2
*I *1144:DIODE I *D sky130_fd_sc_hd__diode_2
*I *1166:DIODE I *D sky130_fd_sc_hd__diode_2
*I *1188:DIODE I *D sky130_fd_sc_hd__diode_2
*I *1200:DIODE I *D sky130_fd_sc_hd__diode_2
*I *11293:X O *D sky130_fd_sc_hd__mux2_4
*CAP
1 *1177:DIODE 0
2 *1210:DIODE 0
3 *1211:DIODE 0.000248692
4 *1209:DIODE 0
5 *1208:DIODE 0.000204541
6 *1212:DIODE 0
7 *1207:DIODE 0
8 *1206:DIODE 0
9 *1205:DIODE 0
10 *11294:A0 4.73848e-05
11 *1155:DIODE 0
12 *1133:DIODE 0
13 *1122:DIODE 0
14 *1144:DIODE 0
15 *1166:DIODE 0
16 *1188:DIODE 0
17 *1200:DIODE 2.80251e-05
18 *11293:X 0
19 *176:164 0.00152346
20 *176:141 0.000451592
21 *176:135 0.000334688
22 *176:133 0.00154447
23 *176:122 0.000289072
24 *176:115 0.000213184
25 *176:108 0.000321854
26 *176:93 0.000334873
27 *176:85 0.0157174
28 *176:83 0.0167417
29 *176:75 0.00131083
30 *176:64 0.000236926
31 *176:57 4.578e-05
32 *176:50 0.000251237
33 *176:10 4.78147e-05
34 *176:8 4.44687e-05
35 *176:6 7.36795e-05
36 *176:4 0.000276612
37 *1200:DIODE *284:31 0.000159697
38 *1200:DIODE *306:40 0.000159697
39 *1208:DIODE *11316:B2 0.000184234
40 *1211:DIODE *897:DIODE 7.23602e-05
41 *1211:DIODE *252:31 0.000265276
42 *11294:A0 *11294:A1 4.99619e-05
43 *11294:A0 *11313:B2 4.13171e-05
44 *11294:A0 *179:14 3.79962e-05
45 *176:6 *284:31 0.000356395
46 *176:8 *284:31 0.000164874
47 *176:8 *306:40 3.66286e-05
48 *176:10 *284:31 0.000163568
49 *176:10 *306:40 0.000152151
50 *176:50 *11293:A0 2.08249e-05
51 *176:50 *11293:A1 1.06688e-05
52 *176:50 *284:31 0.000167449
53 *176:50 *284:45 0.000243551
54 *176:57 *284:45 0.000163568
55 *176:64 *284:45 0.000164874
56 *176:75 *1016:DIODE 0
57 *176:75 *284:45 0.000163199
58 *176:83 *312:23 0.00119709
59 *176:83 *330:35 0.003934
60 *176:85 *11313:B2 0.000105649
61 *176:85 *461:18 0.00180262
62 *176:85 *463:18 0.00559517
63 *176:93 *11313:B2 6.17113e-06
64 *176:93 *179:14 7.96104e-06
65 *176:93 *249:29 4.03905e-05
66 *176:133 *894:DIODE 3.18219e-05
67 *176:133 *251:43 3.18137e-05
68 *176:133 *461:18 0
69 *176:135 *894:DIODE 1.82476e-05
70 *176:135 *11434:A 0.000143266
71 *176:141 *11316:B2 0.000114433
72 *176:141 *11434:A 0.000178232
73 *176:164 *11434:A 6.97202e-05
74 *11293:S *176:50 0
75 *166:10 *176:75 2.92496e-05
76 *166:16 *176:50 0.000256479
77 *166:16 *176:57 9.07338e-05
78 *166:16 *176:64 9.21168e-05
79 *166:16 *176:75 0.000102728
80 *166:20 *176:6 0.000207263
81 *166:20 *176:8 6.77501e-05
82 *166:20 *176:50 9.00635e-05
83 *168:29 *176:108 0.000162299
84 *168:29 *176:115 8.93909e-05
85 *168:29 *176:122 8.80056e-05
86 *168:29 *176:133 4.21518e-05
87 *168:31 *11294:A0 8.49205e-05
88 *168:31 *176:108 2.75229e-05
89 *174:104 *11294:A0 2.0514e-05
*RES
1 *11293:X *176:4 1.6 
2 *176:4 *176:6 3.21 
3 *176:6 *176:8 1.485 
4 *176:8 *176:10 1.485 
5 *176:10 *1200:DIODE 3.085 
6 *176:10 *1188:DIODE 1.6 
7 *176:8 *1166:DIODE 1.6 
8 *176:6 *1144:DIODE 1.6 
9 *176:4 *176:50 10.42 
10 *176:50 *1122:DIODE 1.6 
11 *176:50 *176:57 1.485 
12 *176:57 *1133:DIODE 1.6 
13 *176:57 *176:64 1.485 
14 *176:64 *1155:DIODE 1.6 
15 *176:64 *176:75 6.14 
16 *176:75 *176:83 8.1463 
17 *176:83 *176:85 51.6319 
18 *176:85 *176:93 1.3579 
19 *176:93 *11294:A0 5.265 
20 *176:93 *176:108 4.865 
21 *176:108 *1205:DIODE 1.6 
22 *176:108 *176:115 1.485 
23 *176:115 *1206:DIODE 1.6 
24 *176:115 *176:122 1.485 
25 *176:122 *1207:DIODE 1.6 
26 *176:122 *176:133 4.94 
27 *176:133 *176:135 2.145 
28 *176:135 *176:141 5.975 
29 *176:141 *1212:DIODE 1.6 
30 *176:141 *1208:DIODE 4.465 
31 *176:135 *1209:DIODE 3.6 
32 *176:133 *176:164 15.56 
33 *176:164 *1211:DIODE 8.99 
34 *176:164 *1210:DIODE 1.6 
35 *176:75 *1177:DIODE 3.6 
*END

*D_NET *177 0.01222
*CONN
*I *11295:B2 I *D sky130_fd_sc_hd__o221a_2
*I *11294:X O *D sky130_fd_sc_hd__mux2_1
*CAP
1 *11295:B2 0.000776779
2 *11294:X 0
3 *177:6 0.00340016
4 *177:4 0.00262338
5 *11295:B2 *219:34 0.00048595
6 *11295:B2 *394:18 0.000123409
7 *177:6 *11287:A1 0.000827069
8 *177:6 *11341:A 0.00047388
9 *177:6 *249:42 0.000296787
10 *11283:S *177:6 0.000531524
11 *11295:B1 *11295:B2 2.6332e-05
12 *168:31 *177:6 0.000831437
13 *168:33 *177:6 0.0010483
14 *170:48 *11295:B2 0.000127723
15 *171:86 *177:6 9.00151e-05
16 *171:93 *177:6 0.000198444
17 *171:100 *177:6 5.74791e-05
18 *172:28 *177:6 0.00028782
19 *173:63 *11295:B2 1.34556e-05
*RES
1 *11294:X *177:4 1.6 
2 *177:4 *177:6 50.82 
3 *177:6 *11295:B2 17.0938 
*END

*D_NET *178 0.0600368
*CONN
*I *1221:DIODE I *D sky130_fd_sc_hd__diode_2
*I *1218:DIODE I *D sky130_fd_sc_hd__diode_2
*I *1220:DIODE I *D sky130_fd_sc_hd__diode_2
*I *1217:DIODE I *D sky130_fd_sc_hd__diode_2
*I *1219:DIODE I *D sky130_fd_sc_hd__diode_2
*I *1222:DIODE I *D sky130_fd_sc_hd__diode_2
*I *1226:DIODE I *D sky130_fd_sc_hd__diode_2
*I *1228:DIODE I *D sky130_fd_sc_hd__diode_2
*I *1230:DIODE I *D sky130_fd_sc_hd__diode_2
*I *1229:DIODE I *D sky130_fd_sc_hd__diode_2
*I *1232:DIODE I *D sky130_fd_sc_hd__diode_2
*I *1231:DIODE I *D sky130_fd_sc_hd__diode_2
*I *1227:DIODE I *D sky130_fd_sc_hd__diode_2
*I *1224:DIODE I *D sky130_fd_sc_hd__diode_2
*I *1223:DIODE I *D sky130_fd_sc_hd__diode_2
*I *11297:A0 I *D sky130_fd_sc_hd__mux2_1
*I *1216:DIODE I *D sky130_fd_sc_hd__diode_2
*I *1215:DIODE I *D sky130_fd_sc_hd__diode_2
*I *1213:DIODE I *D sky130_fd_sc_hd__diode_2
*I *11296:X O *D sky130_fd_sc_hd__mux2_4
*CAP
1 *1221:DIODE 0.000283234
2 *1218:DIODE 0
3 *1220:DIODE 0.000305852
4 *1217:DIODE 0
5 *1219:DIODE 0
6 *1222:DIODE 0.000102546
7 *1226:DIODE 0
8 *1228:DIODE 0
9 *1230:DIODE 0.000104646
10 *1229:DIODE 0
11 *1232:DIODE 2.2418e-05
12 *1231:DIODE 0
13 *1227:DIODE 0
14 *1224:DIODE 0
15 *1223:DIODE 0
16 *11297:A0 0
17 *1216:DIODE 0
18 *1215:DIODE 0
19 *1213:DIODE 0
20 *11296:X 8.39809e-05
21 *178:160 0.000305852
22 *178:158 0.00043773
23 *178:139 0.000294528
24 *178:137 0.000191982
25 *178:113 0.000228018
26 *178:97 0.000179587
27 *178:91 0.000550818
28 *178:87 0.000345151
29 *178:80 0.000243708
30 *178:76 0.000196888
31 *178:69 5.72815e-05
32 *178:62 0.000112902
33 *178:55 0.00238796
34 *178:45 0.0173041
35 *178:43 0.0153558
36 *178:35 0.000501555
37 *178:33 0.000564665
38 *178:24 0.000389594
39 *178:17 0.000279519
40 *178:6 0.000238569
41 *1221:DIODE *11296:A0 0
42 *1221:DIODE *285:30 0
43 *1222:DIODE *292:39 0.000163293
44 *1232:DIODE *614:18 0.000163199
45 *178:6 *1017:DIODE 0.000384205
46 *178:17 *1017:DIODE 0.000106331
47 *178:24 *1017:DIODE 3.64998e-06
48 *178:35 *306:36 2.79861e-05
49 *178:43 *292:39 0.000113638
50 *178:43 *313:47 0.000205367
51 *178:43 *330:35 0.000857158
52 *178:45 *369:18 0.0069648
53 *178:45 *467:18 0.00172496
54 *178:45 *472:18 0.00248122
55 *178:55 *187:42 0.000423271
56 *178:55 *189:14 0.000228141
57 *178:55 *195:14 0.000248901
58 *178:55 *229:42 0.000132057
59 *178:55 *247:23 0.000351372
60 *178:55 *251:43 0
61 *178:55 *389:18 0.000219862
62 *178:62 *11297:A1 0.000343847
63 *178:62 *251:43 0.000230793
64 *178:69 *11297:A1 0.000148178
65 *178:69 *251:43 0.000159054
66 *178:76 *11297:A1 0.000113605
67 *178:76 *251:43 0.000162775
68 *178:80 *11297:A1 0.000161467
69 *178:80 *251:43 1.05984e-05
70 *178:87 *11297:A1 0.00012438
71 *178:91 *181:18 0
72 *178:91 *387:18 0
73 *178:97 *897:DIODE 0
74 *178:97 *614:18 0.0001249
75 *178:113 *191:22 2.0514e-05
76 *178:139 *292:39 0.000315625
77 *178:158 *11299:A1 0
78 *178:158 *306:36 7.99093e-06
79 *115:37 *1232:DIODE 0.000151541
80 *115:37 *178:97 0.00012657
81 *166:87 *178:6 0.000312735
82 *166:87 *178:17 8.95485e-06
83 *166:87 *178:24 0.000172042
84 *166:87 *178:33 0.000278481
85 *166:102 *178:33 0.000150751
86 *168:12 *1230:DIODE 0.000178675
87 *168:12 *178:91 0.000175411
88 *168:12 *178:97 3.09164e-05
89 *168:12 *178:113 0.000235573
90 *168:27 *178:62 1.53053e-05
91 *168:27 *178:91 0.000284209
92 *168:29 *178:62 0.000123592
*RES
1 *11296:X *178:6 5.155 
2 *178:6 *1213:DIODE 1.6 
3 *178:6 *178:17 2.205 
4 *178:17 *1215:DIODE 1.6 
5 *178:17 *178:24 1.83 
6 *178:24 *1216:DIODE 1.6 
7 *178:24 *178:33 5.9 
8 *178:33 *178:35 2.145 
9 *178:35 *178:43 2.52323 
10 *178:43 *178:45 50.5983 
11 *178:45 *178:55 14.6424 
12 *178:55 *11297:A0 1.6 
13 *178:55 *178:62 3.555 
14 *178:62 *1223:DIODE 1.6 
15 *178:62 *178:69 1.485 
16 *178:69 *1224:DIODE 1.6 
17 *178:69 *178:76 1.485 
18 *178:76 *178:80 2.445 
19 *178:80 *1227:DIODE 1.6 
20 *178:80 *178:87 1.14 
21 *178:87 *178:91 7.46 
22 *178:91 *178:97 5.285 
23 *178:97 *1231:DIODE 1.6 
24 *178:97 *1232:DIODE 3.085 
25 *178:91 *178:113 4.52 
26 *178:113 *1229:DIODE 1.6 
27 *178:113 *1230:DIODE 3.43 
28 *178:87 *1228:DIODE 1.6 
29 *178:76 *1226:DIODE 1.6 
30 *178:35 *178:137 2 
31 *178:137 *178:139 2.865 
32 *178:139 *1222:DIODE 3.085 
33 *178:139 *1219:DIODE 1.6 
34 *178:137 *1217:DIODE 1.6 
35 *178:33 *178:158 2.145 
36 *178:158 *178:160 2 
37 *178:160 *1220:DIODE 4.81 
38 *178:160 *1218:DIODE 1.6 
39 *178:158 *1221:DIODE 7.23 
*END

*D_NET *179 0.0147607
*CONN
*I *11298:B2 I *D sky130_fd_sc_hd__o221a_2
*I *11297:X O *D sky130_fd_sc_hd__mux2_1
*CAP
1 *11298:B2 0.000732416
2 *11297:X 0.000262255
3 *179:18 0.00388296
4 *179:14 0.0034128
5 *11298:B2 *11298:A1 8.01373e-05
6 *11298:B2 *11614:A 0
7 *11298:B2 *385:16 0.000124864
8 *11298:B2 *485:16 0.000116158
9 *179:14 *11294:A1 0.000727285
10 *179:18 *225:30 0.00432026
11 *179:18 *504:14 0.000238651
12 *11294:A0 *179:14 3.79962e-05
13 *11298:A2 *11298:B2 8.7152e-06
14 *11298:B1 *11298:B2 1.5431e-05
15 *117:104 *11298:B2 0
16 *167:121 *11298:B2 2.97897e-05
17 *168:29 *179:14 0.000763031
18 *176:93 *179:14 7.96104e-06
*RES
1 *11297:X *179:14 14.855 
2 *179:14 *179:18 45.575 
3 *179:18 *11298:B2 15.435 
*END

*D_NET *180 0.0534248
*CONN
*I *1242:DIODE I *D sky130_fd_sc_hd__diode_2
*I *1241:DIODE I *D sky130_fd_sc_hd__diode_2
*I *1240:DIODE I *D sky130_fd_sc_hd__diode_2
*I *648:DIODE I *D sky130_fd_sc_hd__diode_2
*I *649:DIODE I *D sky130_fd_sc_hd__diode_2
*I *647:DIODE I *D sky130_fd_sc_hd__diode_2
*I *646:DIODE I *D sky130_fd_sc_hd__diode_2
*I *1246:DIODE I *D sky130_fd_sc_hd__diode_2
*I *1244:DIODE I *D sky130_fd_sc_hd__diode_2
*I *11300:A0 I *D sky130_fd_sc_hd__mux2_1
*I *1243:DIODE I *D sky130_fd_sc_hd__diode_2
*I *1245:DIODE I *D sky130_fd_sc_hd__diode_2
*I *650:DIODE I *D sky130_fd_sc_hd__diode_2
*I *1239:DIODE I *D sky130_fd_sc_hd__diode_2
*I *1238:DIODE I *D sky130_fd_sc_hd__diode_2
*I *1237:DIODE I *D sky130_fd_sc_hd__diode_2
*I *1235:DIODE I *D sky130_fd_sc_hd__diode_2
*I *1234:DIODE I *D sky130_fd_sc_hd__diode_2
*I *1233:DIODE I *D sky130_fd_sc_hd__diode_2
*I *11299:X O *D sky130_fd_sc_hd__mux2_4
*CAP
1 *1242:DIODE 0.000107352
2 *1241:DIODE 0
3 *1240:DIODE 0
4 *648:DIODE 0
5 *649:DIODE 9.65581e-05
6 *647:DIODE 0
7 *646:DIODE 0
8 *1246:DIODE 0
9 *1244:DIODE 0
10 *11300:A0 0
11 *1243:DIODE 0
12 *1245:DIODE 0
13 *650:DIODE 0.000119259
14 *1239:DIODE 0
15 *1238:DIODE 0
16 *1237:DIODE 0
17 *1235:DIODE 0
18 *1234:DIODE 0
19 *1233:DIODE 0
20 *11299:X 3.09847e-05
21 *180:163 0.000214414
22 *180:135 0.000223995
23 *180:128 0.000263938
24 *180:121 0.000278232
25 *180:114 0.000397399
26 *180:107 0.000580558
27 *180:88 0.000446554
28 *180:81 0.000375719
29 *180:72 0.000438273
30 *180:62 0.0174214
31 *180:60 0.0181795
32 *180:52 0.00101122
33 *180:50 0.00036202
34 *180:41 8.52456e-05
35 *180:34 3.6993e-05
36 *180:27 3.6993e-05
37 *180:20 3.99864e-05
38 *180:13 6.49532e-05
39 *180:6 7.44481e-05
40 *649:DIODE *253:33 1.24292e-05
41 *650:DIODE *901:DIODE 4.61791e-05
42 *180:6 *11299:A0 0.00016031
43 *180:6 *306:22 8.41307e-05
44 *180:13 *11299:A0 0.000153816
45 *180:13 *306:22 0.00014294
46 *180:20 *11299:A0 0.000163204
47 *180:20 *306:22 0.000152328
48 *180:27 *11299:A0 0.000164874
49 *180:27 *306:22 0.000153217
50 *180:34 *11299:A0 0.000164874
51 *180:34 *306:22 0.000153217
52 *180:41 *11299:A0 0.000164874
53 *180:41 *306:22 0.000153217
54 *180:50 *1019:DIODE 2.16917e-05
55 *180:50 *11299:A0 4.99619e-05
56 *180:50 *285:43 2.05056e-05
57 *180:50 *306:22 0.000225586
58 *180:52 *1021:DIODE 0
59 *180:60 *292:39 0.000500849
60 *180:60 *313:47 0.000531289
61 *180:60 *330:35 0.00213794
62 *180:62 *383:18 0.0013225
63 *180:62 *383:28 0.00028423
64 *180:62 *387:18 8.7705e-05
65 *180:62 *387:28 0.000255422
66 *180:62 *389:18 0.004579
67 *180:72 *894:DIODE 0
68 *180:81 *901:DIODE 7.58705e-05
69 *180:88 *901:DIODE 4.09349e-05
70 *180:107 *901:DIODE 0.000169091
71 *180:107 *181:18 4.55864e-06
72 *180:107 *253:33 1.12618e-05
73 *180:114 *901:DIODE 1.87038e-05
74 *180:114 *253:33 2.51168e-05
75 *180:121 *253:33 1.40787e-05
76 *180:128 *253:33 1.48328e-05
77 *180:135 *253:33 1.63363e-05
78 *180:163 *1021:DIODE 0
79 *180:163 *11299:A0 0
80 *180:163 *317:31 0
81 *11302:S *180:52 0
82 *113:59 *180:60 0.000214038
83 *166:102 *180:6 4.77374e-05
84 *166:114 *180:52 0
*RES
1 *11299:X *180:6 3.085 
2 *180:6 *1233:DIODE 1.6 
3 *180:6 *180:13 1.485 
4 *180:13 *1234:DIODE 1.6 
5 *180:13 *180:20 1.485 
6 *180:20 *1235:DIODE 1.6 
7 *180:20 *180:27 1.485 
8 *180:27 *1237:DIODE 1.6 
9 *180:27 *180:34 1.485 
10 *180:34 *1238:DIODE 1.6 
11 *180:34 *180:41 1.485 
12 *180:41 *1239:DIODE 1.6 
13 *180:41 *180:50 4.175 
14 *180:50 *180:52 2.655 
15 *180:52 *180:60 4.44603 
16 *180:60 *180:62 52.4932 
17 *180:62 *180:72 3.29963 
18 *180:72 *650:DIODE 3.085 
19 *180:72 *180:81 2.865 
20 *180:81 *1245:DIODE 1.6 
21 *180:81 *180:88 1.485 
22 *180:88 *1243:DIODE 1.6 
23 *180:88 *180:107 8.56 
24 *180:107 *11300:A0 1.6 
25 *180:107 *180:114 2.865 
26 *180:114 *1244:DIODE 1.6 
27 *180:114 *180:121 1.485 
28 *180:121 *1246:DIODE 1.6 
29 *180:121 *180:128 1.485 
30 *180:128 *646:DIODE 1.6 
31 *180:128 *180:135 1.485 
32 *180:135 *647:DIODE 1.6 
33 *180:135 *649:DIODE 2.74 
34 *180:72 *648:DIODE 1.6 
35 *180:52 *1240:DIODE 3.6 
36 *180:50 *180:163 3.635 
37 *180:163 *1241:DIODE 1.6 
38 *180:163 *1242:DIODE 2.74 
*END

*D_NET *181 0.0131768
*CONN
*I *11301:B2 I *D sky130_fd_sc_hd__o221a_2
*I *11300:X O *D sky130_fd_sc_hd__mux2_1
*CAP
1 *11301:B2 0.00232403
2 *11300:X 0.00083717
3 *181:18 0.0031612
4 *11301:B2 *11417:A 2.88519e-05
5 *11301:B2 *11471:A 5.21046e-05
6 *11301:B2 *202:18 2.59981e-05
7 *11301:B2 *221:32 5.72573e-05
8 *11301:B2 *226:51 0.000568034
9 *11301:B2 *371:46 0.00257331
10 *11301:B2 *614:16 1.46744e-05
11 *181:18 *894:DIODE 0.000241483
12 *181:18 *11316:B2 0.00103599
13 *181:18 *11432:A 0.00182004
14 *181:18 *191:22 0.000290483
15 *181:18 *229:46 9.03138e-05
16 *181:18 *612:20 8.30853e-06
17 *11301:A2 *11301:B2 8.7152e-06
18 *11301:C1 *11301:B2 1.07655e-05
19 *173:97 *11301:B2 2.35349e-05
20 *178:91 *181:18 0
21 *180:107 *181:18 4.55864e-06
*RES
1 *11300:X *181:18 34.8 
2 *181:18 *11301:B2 37.94 
*END

*D_NET *182 0.0491466
*CONN
*I *669:DIODE I *D sky130_fd_sc_hd__diode_2
*I *666:DIODE I *D sky130_fd_sc_hd__diode_2
*I *664:DIODE I *D sky130_fd_sc_hd__diode_2
*I *662:DIODE I *D sky130_fd_sc_hd__diode_2
*I *11303:A0 I *D sky130_fd_sc_hd__mux2_1
*I *661:DIODE I *D sky130_fd_sc_hd__diode_2
*I *663:DIODE I *D sky130_fd_sc_hd__diode_2
*I *665:DIODE I *D sky130_fd_sc_hd__diode_2
*I *668:DIODE I *D sky130_fd_sc_hd__diode_2
*I *670:DIODE I *D sky130_fd_sc_hd__diode_2
*I *660:DIODE I *D sky130_fd_sc_hd__diode_2
*I *659:DIODE I *D sky130_fd_sc_hd__diode_2
*I *658:DIODE I *D sky130_fd_sc_hd__diode_2
*I *657:DIODE I *D sky130_fd_sc_hd__diode_2
*I *655:DIODE I *D sky130_fd_sc_hd__diode_2
*I *654:DIODE I *D sky130_fd_sc_hd__diode_2
*I *653:DIODE I *D sky130_fd_sc_hd__diode_2
*I *652:DIODE I *D sky130_fd_sc_hd__diode_2
*I *651:DIODE I *D sky130_fd_sc_hd__diode_2
*I *11302:X O *D sky130_fd_sc_hd__mux2_4
*CAP
1 *669:DIODE 5.61813e-05
2 *666:DIODE 0
3 *664:DIODE 0
4 *662:DIODE 0
5 *11303:A0 0
6 *661:DIODE 0
7 *663:DIODE 0
8 *665:DIODE 0
9 *668:DIODE 0
10 *670:DIODE 0
11 *660:DIODE 0
12 *659:DIODE 0
13 *658:DIODE 0
14 *657:DIODE 0
15 *655:DIODE 0
16 *654:DIODE 0
17 *653:DIODE 0
18 *652:DIODE 0
19 *651:DIODE 0
20 *11302:X 1.91744e-05
21 *182:149 0.000112363
22 *182:142 0.000194159
23 *182:135 0.000240543
24 *182:128 0.000375114
25 *182:119 0.000537822
26 *182:112 0.000376688
27 *182:105 0.000224315
28 *182:98 0.000228474
29 *182:91 0.000288219
30 *182:81 0.0193579
31 *182:79 0.0196458
32 *182:62 0.000491098
33 *182:55 5.64697e-05
34 *182:48 5.17454e-05
35 *182:41 5.25951e-05
36 *182:34 4.52807e-05
37 *182:27 3.6993e-05
38 *182:20 3.6993e-05
39 *182:13 3.6993e-05
40 *182:6 3.76709e-05
41 *669:DIODE *11303:A1 0.000153217
42 *182:6 *11302:A0 0.000164874
43 *182:6 *306:22 0.000164874
44 *182:13 *11302:A0 0.000164874
45 *182:13 *306:22 0.000153217
46 *182:20 *11302:A0 0.000164874
47 *182:20 *306:22 0.000153217
48 *182:27 *11302:A0 0.000164874
49 *182:27 *306:22 0.000153217
50 *182:34 *11302:A0 0.000164874
51 *182:34 *306:22 0.000153217
52 *182:41 *11302:A0 0.000160213
53 *182:41 *306:22 0.000148555
54 *182:48 *1023:DIODE 3.04704e-05
55 *182:48 *11302:A0 8.64421e-05
56 *182:48 *306:22 0.00015005
57 *182:55 *1023:DIODE 6.90417e-05
58 *182:55 *306:22 0.000152943
59 *182:62 *1023:DIODE 6.6925e-05
60 *182:62 *306:22 0.000151541
61 *182:79 *1023:DIODE 1.56428e-05
62 *182:79 *1032:DIODE 0.000143637
63 *182:79 *184:36 1.88904e-05
64 *182:79 *306:22 3.74161e-05
65 *182:79 *313:47 0.00123097
66 *182:79 *314:29 0.000374599
67 *182:81 *378:16 0
68 *182:81 *378:59 0
69 *182:91 *249:29 0.000320434
70 *182:91 *251:29 0.000582204
71 *182:135 *11303:A1 0.00023682
72 *182:142 *11303:A1 0.00037881
73 *182:149 *11303:A1 0.000153217
74 *168:86 *182:98 5.0298e-05
75 *168:86 *182:105 4.67415e-05
76 *168:86 *182:112 4.94611e-05
77 *168:86 *182:119 0.000130009
78 *168:86 *182:128 8.02918e-05
79 *168:86 *182:135 2.30292e-05
*RES
1 *11302:X *182:6 3.085 
2 *182:6 *651:DIODE 1.6 
3 *182:6 *182:13 1.485 
4 *182:13 *652:DIODE 1.6 
5 *182:13 *182:20 1.485 
6 *182:20 *653:DIODE 1.6 
7 *182:20 *182:27 1.485 
8 *182:27 *654:DIODE 1.6 
9 *182:27 *182:34 1.485 
10 *182:34 *655:DIODE 1.6 
11 *182:34 *182:41 1.485 
12 *182:41 *657:DIODE 1.6 
13 *182:41 *182:48 1.485 
14 *182:48 *658:DIODE 1.6 
15 *182:48 *182:55 1.485 
16 *182:55 *659:DIODE 1.6 
17 *182:55 *182:62 1.485 
18 *182:62 *660:DIODE 1.6 
19 *182:62 *182:79 5.61417 
20 *182:79 *182:81 52.2348 
21 *182:81 *182:91 4.11537 
22 *182:91 *670:DIODE 1.6 
23 *182:91 *182:98 1.485 
24 *182:98 *668:DIODE 1.6 
25 *182:98 *182:105 1.485 
26 *182:105 *665:DIODE 1.6 
27 *182:105 *182:112 1.485 
28 *182:112 *663:DIODE 1.6 
29 *182:112 *182:119 3.555 
30 *182:119 *661:DIODE 1.6 
31 *182:119 *182:128 3.735 
32 *182:128 *11303:A0 1.6 
33 *182:128 *182:135 2.52 
34 *182:135 *662:DIODE 1.6 
35 *182:135 *182:142 3.555 
36 *182:142 *664:DIODE 1.6 
37 *182:142 *182:149 1.485 
38 *182:149 *666:DIODE 1.6 
39 *182:149 *669:DIODE 3.085 
*END

*D_NET *183 0.0146028
*CONN
*I *11304:B2 I *D sky130_fd_sc_hd__o221a_2
*I *11303:X O *D sky130_fd_sc_hd__mux2_1
*CAP
1 *11304:B2 0.00223909
2 *11303:X 0.00251307
3 *183:14 0.00475216
4 *11304:B2 *11304:A1 5.18317e-06
5 *11304:B2 *11322:B2 3.45117e-05
6 *11304:B2 *11617:A 3.67779e-05
7 *11304:B2 *612:20 0.00215927
8 *11304:B2 *615:12 1.12578e-05
9 *183:14 *741:DIODE 0.000162775
10 *183:14 *615:12 0.00105156
11 *183:14 *615:16 0.000787365
12 *11313:A2 *11304:B2 0.000831916
13 *11313:A2 *183:14 9.53428e-06
14 *118:81 *11304:B2 8.30853e-06
15 *168:86 *183:14 0
*RES
1 *11303:X *183:14 49.505 
2 *183:14 *11304:B2 40.005 
*END

*D_NET *184 0.0816603
*CONN
*I *673:DIODE I *D sky130_fd_sc_hd__diode_2
*I *676:DIODE I *D sky130_fd_sc_hd__diode_2
*I *674:DIODE I *D sky130_fd_sc_hd__diode_2
*I *11306:A0 I *D sky130_fd_sc_hd__mux2_2
*I *675:DIODE I *D sky130_fd_sc_hd__diode_2
*I *671:DIODE I *D sky130_fd_sc_hd__diode_2
*I *672:DIODE I *D sky130_fd_sc_hd__diode_2
*I *11305:X O *D sky130_fd_sc_hd__mux2_4
*CAP
1 *673:DIODE 0
2 *676:DIODE 7.09195e-05
3 *674:DIODE 0
4 *11306:A0 0
5 *675:DIODE 0.000204268
6 *671:DIODE 0
7 *672:DIODE 0.000108691
8 *11305:X 3.71096e-05
9 *184:86 0.000217073
10 *184:77 0.000193592
11 *184:62 0.00107924
12 *184:56 0.00141001
13 *184:42 0.00411408
14 *184:40 0.0035316
15 *184:38 0.0051345
16 *184:36 0.00686258
17 *184:22 0.00182628
18 *184:15 0.000474649
19 *184:6 0.000522261
20 *672:DIODE *287:45 6.82309e-05
21 *675:DIODE *765:DIODE 4.77719e-05
22 *675:DIODE *185:10 0.000248247
23 *675:DIODE *193:8 0.000269668
24 *675:DIODE *363:38 5.74791e-05
25 *676:DIODE *11306:A1 0.000145961
26 *184:15 *287:45 7.61456e-05
27 *184:36 *11317:A0 8.7152e-06
28 *184:36 *188:10 1.72766e-05
29 *184:36 *306:22 0.00229902
30 *184:36 *313:47 0.000321076
31 *184:36 *324:30 1.88602e-05
32 *184:38 *11320:A0 6.25897e-05
33 *184:38 *194:8 0.000248165
34 *184:38 *194:12 0.00150704
35 *184:38 *324:30 0.000261942
36 *184:38 *325:36 0.000776025
37 *184:42 *11318:A0 0.00337051
38 *184:42 *186:12 0.0181134
39 *184:42 *188:16 0.0175626
40 *184:56 *11309:A0 0.000632116
41 *184:56 *11318:A0 0.000377286
42 *184:56 *11321:A0 0.00105606
43 *184:56 *11450:A 5.83121e-06
44 *184:56 *195:10 0.000306213
45 *184:56 *355:22 0.00010787
46 *184:56 *537:16 0.00162529
47 *184:56 *560:16 0.000268985
48 *184:56 *571:34 1.19928e-05
49 *184:62 *185:8 5.0495e-05
50 *184:62 *187:38 0.000365206
51 *184:62 *189:10 1.17738e-05
52 *184:62 *195:10 1.92353e-05
53 *184:62 *238:11 0.000100659
54 *184:62 *238:22 5.69601e-06
55 *184:62 *355:22 2.97746e-05
56 *184:62 *570:26 0.00122369
57 *184:62 *571:16 0.00154835
58 *184:77 *185:8 3.57349e-05
59 *184:86 *11306:A1 0.000190539
60 *11306:S *184:86 0.000118081
61 *11320:S *184:38 0.00172389
62 *166:127 *184:15 0.000386511
63 *166:127 *184:22 0.000163199
64 *168:103 *675:DIODE 9.34171e-06
65 *182:79 *184:36 1.88904e-05
*RES
1 *11305:X *184:6 2.215 
2 *184:6 *672:DIODE 3.085 
3 *184:6 *184:15 5.28 
4 *184:15 *671:DIODE 1.6 
5 *184:15 *184:22 1.485 
6 *184:22 *184:36 32.165 
7 *184:36 *184:38 67.38 
8 *184:38 *184:40 2 
9 *184:40 *184:42 204.105 
10 *184:42 *184:56 34.34 
11 *184:56 *184:62 26.945 
12 *184:62 *675:DIODE 10.25 
13 *184:62 *184:77 0.795 
14 *184:77 *11306:A0 1.6 
15 *184:77 *184:86 2.88 
16 *184:86 *674:DIODE 1.6 
17 *184:86 *676:DIODE 3.085 
18 *184:22 *673:DIODE 1.6 
*END

*D_NET *185 0.0364634
*CONN
*I *11307:B2 I *D sky130_fd_sc_hd__o221a_2
*I *11306:X O *D sky130_fd_sc_hd__mux2_2
*CAP
1 *11307:B2 0.00102603
2 *11306:X 6.83738e-05
3 *185:14 0.00564283
4 *185:12 0.00461679
5 *185:10 0.00121046
6 *185:8 0.00127883
7 *11307:B2 *11287:A1 3.98495e-05
8 *11307:B2 *11307:A1 4.84982e-06
9 *11307:B2 *11319:B2 0
10 *11307:B2 *11330:A 0.000131105
11 *11307:B2 *224:48 0
12 *11307:B2 *474:46 0
13 *11307:B2 *476:30 0.000344647
14 *185:10 *780:DIODE 0.000141606
15 *185:10 *805:DIODE 0.000113379
16 *185:10 *806:DIODE 0.000141606
17 *185:10 *193:8 0.00200852
18 *185:10 *239:15 0.000114492
19 *185:10 *242:120 0.000114492
20 *185:10 *242:136 0.000139933
21 *185:10 *482:24 0.00112486
22 *185:14 *189:14 0.0105574
23 *185:14 *195:14 0.000302804
24 *185:14 *224:40 0.000347511
25 *185:14 *229:42 0.000717663
26 *185:14 *247:23 9.97653e-05
27 *185:14 *574:14 0.000663715
28 *675:DIODE *185:10 0.000248247
29 *11307:B1 *11307:B2 9.03508e-06
30 *11322:A2 *11307:B2 0.0003218
31 *118:81 *11307:B2 0.00014258
32 *165:147 *11307:B2 4.81127e-05
33 *168:99 *185:14 3.77938e-05
34 *168:103 *185:10 0.00456917
35 *173:125 *11307:B2 4.8891e-05
36 *184:62 *185:8 5.0495e-05
37 *184:77 *185:8 3.57349e-05
*RES
1 *11306:X *185:8 4.4325 
2 *185:8 *185:10 52.635 
3 *185:10 *185:12 2 
4 *185:12 *185:14 122.925 
5 *185:14 *11307:B2 24.9425 
*END

*D_NET *186 0.0552087
*CONN
*I *11309:A0 I *D sky130_fd_sc_hd__mux2_2
*I *11308:X O *D sky130_fd_sc_hd__mux2_4
*CAP
1 *11309:A0 0.000537398
2 *11308:X 1.99436e-05
3 *186:12 0.00537229
4 *186:10 0.00483489
5 *186:8 0.00565041
6 *186:6 0.00567035
7 *11309:A0 *11321:A0 5.83121e-06
8 *11309:A0 *11447:A 0
9 *11309:A0 *187:36 0.000131485
10 *11309:A0 *256:23 0.000376726
11 *11309:A0 *355:22 0.000691698
12 *11309:A0 *560:16 3.13952e-05
13 *186:6 *11308:A0 9.03508e-06
14 *186:8 *11308:A0 9.91257e-05
15 *186:8 *11311:A0 0.000388974
16 *186:8 *11311:A1 0.00015401
17 *186:8 *314:29 0.000504228
18 *186:8 *316:35 0.000181343
19 *186:12 *11318:A0 0.00292503
20 *186:12 *256:19 0
21 *186:12 *355:22 8.75156e-06
22 *186:12 *356:10 0.0024399
23 *186:12 *398:54 0.00598793
24 *186:12 *560:16 0.000159522
25 *11309:S *11309:A0 5.83121e-06
26 *11311:S *186:8 0.000277092
27 *184:42 *186:12 0.0181134
28 *184:56 *11309:A0 0.000632116
*RES
1 *11308:X *186:6 1.96 
2 *186:6 *186:8 79.8 
3 *186:8 *186:10 2 
4 *186:10 *186:12 207.548 
5 *186:12 *11309:A0 18.5025 
*END

*D_NET *187 0.0453756
*CONN
*I *11310:B2 I *D sky130_fd_sc_hd__o221a_2
*I *11309:X O *D sky130_fd_sc_hd__mux2_2
*CAP
1 *11310:B2 0.000857641
2 *11309:X 0.00165186
3 *187:42 0.00344806
4 *187:40 0.00259042
5 *187:38 0.00134375
6 *187:36 0.00299561
7 *11310:B2 *887:DIODE 0
8 *11310:B2 *11449:A 0
9 *11310:B2 *11617:A 0
10 *11310:B2 *226:34 0
11 *11310:B2 *504:12 0.000998819
12 *187:36 *11321:A0 0.000120789
13 *187:36 *11445:A 0
14 *187:36 *11450:A 2.22679e-05
15 *187:36 *11524:BEN[7] 1.08758e-05
16 *187:36 *258:22 0.00227618
17 *187:36 *548:20 0.00106194
18 *187:36 *571:34 0.00121897
19 *187:38 *11524:vpwrac 0.000304222
20 *187:38 *189:10 0.00490062
21 *187:38 *258:22 3.27519e-05
22 *187:38 *571:16 0.00239975
23 *187:42 *195:14 0.000121643
24 *187:42 *247:23 0.0114709
25 *11309:A0 *187:36 0.000131485
26 *11322:C1 *11310:B2 0
27 *168:99 *187:42 0.00650075
28 *170:127 *11310:B2 8.7152e-06
29 *174:77 *11310:B2 3.01119e-05
30 *174:83 *11310:B2 5.33085e-05
31 *175:10 *11310:B2 3.56353e-05
32 *178:55 *187:42 0.000423271
33 *184:62 *187:38 0.000365206
*RES
1 *11309:X *187:36 47.3786 
2 *187:36 *187:38 58.1175 
3 *187:38 *187:40 2 
4 *187:40 *187:42 106.365 
5 *187:42 *11310:B2 22.79 
*END

*D_NET *188 0.0573068
*CONN
*I *11312:A0 I *D sky130_fd_sc_hd__mux2_2
*I *11311:X O *D sky130_fd_sc_hd__mux2_4
*CAP
1 *11312:A0 0.00076589
2 *11311:X 0.00061911
3 *188:16 0.00707374
4 *188:14 0.00630785
5 *188:12 0.00244787
6 *188:10 0.00306698
7 *11312:A0 *11445:A 0
8 *11312:A0 *258:22 0.00112051
9 *11312:A0 *372:71 0.000805036
10 *11312:A0 *570:26 0.00111768
11 *188:10 *11317:A0 0
12 *188:12 *192:14 0.000146367
13 *188:12 *301:23 0.00134636
14 *188:12 *304:51 0.00698068
15 *188:16 *11318:A0 0.00337051
16 *188:16 *194:16 0
17 *188:16 *194:18 0
18 *188:16 *355:12 0.00195208
19 *188:16 *355:22 0.000726711
20 *188:16 *422:36 0.00183129
21 *11312:S *11312:A0 4.82919e-05
22 *184:36 *188:10 1.72766e-05
23 *184:42 *188:16 0.0175626
*RES
1 *11311:X *188:10 15.14 
2 *188:10 *188:12 66 
3 *188:12 *188:14 2 
4 *188:14 *188:16 197.985 
5 *188:16 *11312:A0 29.89 
*END

*D_NET *189 0.0458516
*CONN
*I *11313:B2 I *D sky130_fd_sc_hd__o221a_2
*I *11312:X O *D sky130_fd_sc_hd__mux2_2
*CAP
1 *11313:B2 0.00103912
2 *11312:X 0.00038352
3 *189:14 0.00241422
4 *189:12 0.0013751
5 *189:10 0.00165269
6 *189:8 0.00203621
7 *11313:B2 *891:DIODE 0.000206811
8 *11313:B2 *11313:A1 4.18603e-06
9 *11313:B2 *11432:A 0
10 *11313:B2 *195:18 0
11 *11313:B2 *225:36 0
12 *11313:B2 *250:29 0.000207759
13 *11313:B2 *250:31 0.000114492
14 *189:8 *372:71 0.000656679
15 *189:10 *258:22 0.00713342
16 *189:10 *570:26 0.00221042
17 *189:14 *195:14 0.0105617
18 *11294:A0 *11313:B2 4.13171e-05
19 *11313:C1 *11313:B2 4.18603e-06
20 *174:108 *11313:B2 0
21 *174:112 *11313:B2 0
22 *176:85 *11313:B2 0.000105649
23 *176:93 *11313:B2 6.17113e-06
24 *178:55 *189:14 0.000228141
25 *184:62 *189:10 1.17738e-05
26 *185:14 *189:14 0.0105574
27 *187:38 *189:10 0.00490062
*RES
1 *11312:X *189:8 9.915 
2 *189:8 *189:10 83.49 
3 *189:10 *189:12 2 
4 *189:12 *189:14 96.015 
5 *189:14 *11313:B2 23.555 
*END

*D_NET *190 0.0560659
*CONN
*I *682:DIODE I *D sky130_fd_sc_hd__diode_2
*I *688:DIODE I *D sky130_fd_sc_hd__diode_2
*I *691:DIODE I *D sky130_fd_sc_hd__diode_2
*I *693:DIODE I *D sky130_fd_sc_hd__diode_2
*I *695:DIODE I *D sky130_fd_sc_hd__diode_2
*I *696:DIODE I *D sky130_fd_sc_hd__diode_2
*I *694:DIODE I *D sky130_fd_sc_hd__diode_2
*I *692:DIODE I *D sky130_fd_sc_hd__diode_2
*I *690:DIODE I *D sky130_fd_sc_hd__diode_2
*I *687:DIODE I *D sky130_fd_sc_hd__diode_2
*I *11315:A0 I *D sky130_fd_sc_hd__mux2_1
*I *680:DIODE I *D sky130_fd_sc_hd__diode_2
*I *677:DIODE I *D sky130_fd_sc_hd__diode_2
*I *679:DIODE I *D sky130_fd_sc_hd__diode_2
*I *681:DIODE I *D sky130_fd_sc_hd__diode_2
*I *683:DIODE I *D sky130_fd_sc_hd__diode_2
*I *684:DIODE I *D sky130_fd_sc_hd__diode_2
*I *685:DIODE I *D sky130_fd_sc_hd__diode_2
*I *686:DIODE I *D sky130_fd_sc_hd__diode_2
*I *11314:X O *D sky130_fd_sc_hd__mux2_4
*CAP
1 *682:DIODE 0
2 *688:DIODE 0.000125066
3 *691:DIODE 0
4 *693:DIODE 0
5 *695:DIODE 0
6 *696:DIODE 0.000108438
7 *694:DIODE 6.8213e-05
8 *692:DIODE 0
9 *690:DIODE 0
10 *687:DIODE 0
11 *11315:A0 0
12 *680:DIODE 0
13 *677:DIODE 0
14 *679:DIODE 0
15 *681:DIODE 0
16 *683:DIODE 0
17 *684:DIODE 0
18 *685:DIODE 0
19 *686:DIODE 0.000103624
20 *11314:X 0.000144807
21 *190:152 0.000209993
22 *190:133 0.00022009
23 *190:131 0.000196579
24 *190:117 0.000136426
25 *190:110 0.000136426
26 *190:103 0.000199011
27 *190:96 0.000526812
28 *190:90 0.000435268
29 *190:82 0.0185448
30 *190:80 0.0196645
31 *190:70 0.00125707
32 *190:63 0.000193586
33 *190:56 0.000517954
34 *190:22 0.000200424
35 *190:20 0.000191905
36 *190:18 0.00019021
37 *190:16 0.000190514
38 *190:14 0.000146022
39 *190:12 0.000617976
40 *686:DIODE *292:39 0.000161467
41 *688:DIODE *254:27 5.3619e-05
42 *694:DIODE *254:27 0.000164874
43 *696:DIODE *254:27 6.96579e-05
44 *190:14 *292:39 8.52845e-05
45 *190:16 *292:39 0.000164358
46 *190:18 *292:39 0.000164874
47 *190:20 *292:39 0.000164874
48 *190:22 *292:39 0.000161985
49 *190:56 *292:39 0.000642255
50 *190:63 *292:39 0.00016436
51 *190:70 *292:39 0.000163199
52 *190:80 *192:14 0.00335918
53 *190:80 *301:23 0.000320898
54 *190:80 *302:52 0.00414048
55 *190:80 *329:27 0.000297847
56 *190:90 *249:29 1.91843e-05
57 *190:90 *251:29 4.3249e-05
58 *190:96 *254:27 0.000604748
59 *190:103 *254:27 0.000272564
60 *190:110 *254:27 0.000164874
61 *190:117 *254:27 0.000164874
62 *190:133 *254:27 6.19997e-05
63 *190:152 *254:27 4.7101e-05
64 *113:59 *190:12 8.23457e-05
*RES
1 *11314:X *190:12 7.52 
2 *190:12 *190:14 0.795 
3 *190:14 *190:16 1.485 
4 *190:16 *190:18 1.485 
5 *190:18 *190:20 1.485 
6 *190:20 *190:22 1.485 
7 *190:22 *686:DIODE 3.085 
8 *190:22 *685:DIODE 1.6 
9 *190:20 *684:DIODE 1.6 
10 *190:18 *683:DIODE 1.6 
11 *190:16 *681:DIODE 1.6 
12 *190:14 *679:DIODE 1.6 
13 *190:12 *190:56 5.97 
14 *190:56 *677:DIODE 1.6 
15 *190:56 *190:63 1.485 
16 *190:63 *680:DIODE 1.6 
17 *190:63 *190:70 1.485 
18 *190:70 *190:80 15.5376 
19 *190:80 *190:82 50.7705 
20 *190:82 *190:90 1.29963 
21 *190:90 *190:96 8.75 
22 *190:96 *11315:A0 1.6 
23 *190:96 *190:103 2.52 
24 *190:103 *687:DIODE 1.6 
25 *190:103 *190:110 1.485 
26 *190:110 *690:DIODE 1.6 
27 *190:110 *190:117 1.485 
28 *190:117 *692:DIODE 1.6 
29 *190:117 *694:DIODE 3.085 
30 *190:90 *190:131 2 
31 *190:131 *190:133 1.485 
32 *190:133 *696:DIODE 3.085 
33 *190:133 *695:DIODE 1.6 
34 *190:131 *693:DIODE 1.6 
35 *190:131 *190:152 1.14 
36 *190:152 *691:DIODE 1.6 
37 *190:152 *688:DIODE 3.085 
38 *190:70 *682:DIODE 1.6 
*END

*D_NET *191 0.0152087
*CONN
*I *11316:B2 I *D sky130_fd_sc_hd__o221a_2
*I *11315:X O *D sky130_fd_sc_hd__mux2_1
*CAP
1 *11316:B2 0.00153742
2 *11315:X 0.000410984
3 *191:22 0.00425084
4 *191:10 0.0031244
5 *11316:B2 *894:DIODE 0.000239813
6 *11316:B2 *11316:A1 4.69718e-05
7 *11316:B2 *11427:A 5.26511e-05
8 *11316:B2 *226:34 4.32268e-05
9 *11316:B2 *404:24 0.00076097
10 *191:22 *11428:A 8.34831e-05
11 *1100:DIODE *11316:B2 7.60965e-05
12 *1208:DIODE *11316:B2 0.000184234
13 *11316:A2 *11316:B2 8.7152e-06
14 *11322:B1 *11316:B2 8.41703e-06
15 *115:54 *191:10 0
16 *115:54 *191:22 0.00230112
17 *118:104 *11316:B2 3.59531e-06
18 *168:12 *191:22 0.000568247
19 *168:86 *191:22 4.60584e-05
20 *176:141 *11316:B2 0.000114433
21 *178:113 *191:22 2.0514e-05
22 *181:18 *11316:B2 0.00103599
23 *181:18 *191:22 0.000290483
*RES
1 *11315:X *191:10 11.57 
2 *191:10 *191:22 49.605 
3 *191:22 *11316:B2 35.975 
*END

*D_NET *192 0.0733362
*CONN
*I *11318:A0 I *D sky130_fd_sc_hd__mux2_2
*I *11317:X O *D sky130_fd_sc_hd__mux2_4
*CAP
1 *11318:A0 0.017988
2 *11317:X 0.00296076
3 *192:14 0.0209487
4 *11318:A0 *985:DIODE 6.06593e-05
5 *11318:A0 *11321:A0 0.000245205
6 *11318:A0 *11524:BEN[0] 0.000111986
7 *11318:A0 *11524:vpwrac 0.000116216
8 *11318:A0 *195:10 0.000116216
9 *11318:A0 *256:19 0.000338775
10 *11318:A0 *356:10 0.00125842
11 *11318:A0 *398:54 0.00136813
12 *11318:A0 *418:24 0.00024194
13 *11318:A0 *467:82 0.00195756
14 *11318:A0 *471:26 0
15 *11318:A0 *472:70 0
16 *11318:A0 *526:24 0.000181951
17 *11318:A0 *537:16 0.000600828
18 *11318:A0 *549:187 0.000115669
19 *11318:A0 *560:16 0.000691018
20 *11318:A0 *569:16 0.000261307
21 *11318:A0 *573:16 0.000551257
22 *11318:A0 *574:16 0.000550184
23 *192:14 *301:23 0.00382263
24 *192:14 *302:52 0.00155729
25 *192:14 *304:51 0.000158772
26 *192:14 *329:27 0.0035033
27 *168:114 *11318:A0 8.05768e-05
28 *184:42 *11318:A0 0.00337051
29 *184:56 *11318:A0 0.000377286
30 *186:12 *11318:A0 0.00292503
31 *188:12 *192:14 0.000146367
32 *188:16 *11318:A0 0.00337051
33 *190:80 *192:14 0.00335918
*RES
1 *11317:X *192:14 22.8478 
2 *192:14 *11318:A0 49.3476 
*END

*D_NET *193 0.0394346
*CONN
*I *11319:B2 I *D sky130_fd_sc_hd__o221a_2
*I *11318:X O *D sky130_fd_sc_hd__mux2_2
*CAP
1 *11319:B2 0.000724983
2 *11318:X 0
3 *193:12 0.00526072
4 *193:10 0.00453573
5 *193:8 0.00149169
6 *193:6 0.00149169
7 *11319:B2 *11319:A1 0.000171649
8 *11319:B2 *11507:A 8.13313e-06
9 *11319:B2 *223:32 0
10 *11319:B2 *228:32 0.000595005
11 *11319:B2 *476:30 3.38698e-05
12 *193:8 *780:DIODE 0.000133075
13 *193:8 *805:DIODE 0.000113379
14 *193:8 *806:DIODE 0.000133075
15 *193:8 *239:15 0.000116158
16 *193:8 *242:120 0.000116158
17 *193:8 *242:136 0.000133075
18 *193:8 *471:26 0.000879531
19 *193:8 *569:16 0.00525223
20 *193:12 *225:30 0.000702223
21 *193:12 *250:29 0.00216321
22 *193:12 *504:14 0.0121966
23 *675:DIODE *193:8 0.000269668
24 *11307:B2 *11319:B2 0
25 *11319:B1 *11319:B2 0.000105335
26 *11322:C1 *11319:B2 2.7441e-05
27 *118:81 *11319:B2 0.000171241
28 *122:93 *11319:B2 4.99619e-05
29 *168:103 *193:8 5.58628e-05
30 *168:114 *193:8 3.61426e-05
31 *175:14 *193:12 0.000458211
32 *185:10 *193:8 0.00200852
*RES
1 *11318:X *193:6 3.6 
2 *193:6 *193:8 60.54 
3 *193:8 *193:10 2 
4 *193:10 *193:12 123.615 
5 *193:12 *11319:B2 21.575 
*END

*D_NET *194 0.0475133
*CONN
*I *11321:A0 I *D sky130_fd_sc_hd__mux2_2
*I *11320:X O *D sky130_fd_sc_hd__mux2_4
*CAP
1 *11321:A0 0.00100334
2 *11320:X 0.000271698
3 *194:18 0.00689533
4 *194:16 0.00760475
5 *194:12 0.0041513
6 *194:8 0.00271024
7 *11321:A0 *258:22 0.000813849
8 *11321:A0 *355:22 0.00101408
9 *11321:A0 *369:79 0.000218043
10 *11321:A0 *570:26 1.82584e-05
11 *11321:A0 *571:34 0.000870498
12 *194:8 *11320:A0 0.000163199
13 *194:12 *325:36 0.000784559
14 *194:16 *304:47 0.00017606
15 *194:16 *456:43 0
16 *194:16 *465:36 0
17 *194:18 *258:14 0.0143006
18 *194:18 *355:12 0.00193648
19 *194:18 *422:36 0.000674617
20 *194:18 *433:46 0
21 *194:18 *570:26 0.000713827
22 *194:18 *571:34 9.51493e-06
23 *11309:A0 *11321:A0 5.83121e-06
24 *11318:A0 *11321:A0 0.000245205
25 *184:38 *194:8 0.000248165
26 *184:38 *194:12 0.00150704
27 *184:56 *11321:A0 0.00105606
28 *187:36 *11321:A0 0.000120789
29 *188:16 *194:16 0
30 *188:16 *194:18 0
*RES
1 *11320:X *194:8 7.7575 
2 *194:8 *194:12 44.3675 
3 *194:12 *194:16 29.4825 
4 *194:16 *194:18 173.01 
5 *194:18 *11321:A0 38.5525 
*END

*D_NET *195 0.0456729
*CONN
*I *11322:B2 I *D sky130_fd_sc_hd__o221a_2
*I *697:DIODE I *D sky130_fd_sc_hd__diode_2
*I *11321:X O *D sky130_fd_sc_hd__mux2_2
*CAP
1 *11322:B2 0.000311259
2 *697:DIODE 9.42562e-05
3 *11321:X 0.000308388
4 *195:18 0.00126676
5 *195:14 0.00235379
6 *195:12 0.00149254
7 *195:10 0.00140889
8 *195:8 0.00171728
9 *697:DIODE *11322:A1 0
10 *697:DIODE *225:36 3.68448e-05
11 *697:DIODE *229:46 0
12 *11322:B2 *11617:A 0
13 *11322:B2 *612:20 0.000156758
14 *195:8 *369:79 0.00051374
15 *195:10 *11524:vpwrac 0.00175401
16 *195:10 *355:22 0.000316384
17 *195:10 *356:20 0.00389707
18 *195:10 *537:16 0.000425008
19 *195:10 *571:16 0.00610501
20 *195:14 *247:23 0.0107574
21 *195:18 *225:36 0.000322884
22 *195:18 *229:46 0
23 *195:18 *250:29 0
24 *195:18 *363:16 1.17114e-05
25 *195:18 *365:18 0.000405168
26 *11304:B2 *11322:B2 3.45117e-05
27 *11313:B2 *195:18 0
28 *11313:C1 *11322:B2 3.59531e-06
29 *11318:A0 *195:10 0.000116216
30 *11322:A2 *11322:B2 0.00013193
31 *11322:B1 *11322:B2 1.7635e-05
32 *115:37 *11322:B2 0.000110212
33 *168:99 *195:14 4.30926e-05
34 *178:55 *195:14 0.000248901
35 *184:56 *195:10 0.000306213
36 *184:62 *195:10 1.92353e-05
37 *185:14 *195:14 0.000302804
38 *187:42 *195:14 0.000121643
39 *189:14 *195:14 0.0105617
*RES
1 *11321:X *195:8 8.535 
2 *195:8 *195:10 75.585 
3 *195:10 *195:12 2 
4 *195:12 *195:14 100.845 
5 *195:14 *195:18 18.425 
6 *195:18 *697:DIODE 4.98 
7 *195:18 *11322:B2 12.445 
*END

*D_NET *196 0.0625848
*CONN
*I *11327:A I *D sky130_fd_sc_hd__clkbuf_16
*I *11326:A I *D sky130_fd_sc_hd__clkbuf_16
*I *11325:X O *D sky130_fd_sc_hd__clkbuf_16
*CAP
1 *11327:A 0.00155473
2 *11326:A 5.6552e-05
3 *11325:X 0
4 *196:22 0.00643269
5 *196:6 0.00793087
6 *11326:A *245:26 0.000165041
7 *11326:A *564:10 0.000167355
8 *196:22 *200:66 0.00144132
9 *196:22 *301:23 0.00648589
10 *196:22 *302:52 0.00648589
11 *196:22 *323:35 0.000137349
12 *196:22 *329:27 0.00499683
13 *196:22 *363:66 0.0131651
14 *196:22 *485:66 7.66792e-05
15 *3:25 *196:22 0.0131727
16 *3:35 *11327:A 0.000158577
17 *171:67 *11327:A 0.000157246
*RES
1 *11325:X *196:6 3.6 
2 *196:6 *196:22 49.1181 
3 *196:22 *11326:A 5.6175 
4 *196:6 *11327:A 12.7417 
*END

*D_NET *197 0.102855
*CONN
*I *11515:CLKin I *D CF_SRAM_1024x32
*I *11524:CLKin I *D CF_SRAM_1024x32
*I *11324:CLK I *D sky130_fd_sc_hd__dfrtp_1
*I *11326:X O *D sky130_fd_sc_hd__clkbuf_16
*CAP
1 *11515:CLKin 0.00146934
2 *11524:CLKin 0.0133526
3 *11324:CLK 0.00178565
4 *11326:X 3.61242e-05
5 *197:62 6.9367e-06
6 *197:35 0.0153272
7 *197:18 0.00466966
8 *197:16 0.00408082
9 *197:8 0.00174516
10 *11324:CLK *393:12 0.00189686
11 *11324:CLK *591:28 9.50342e-06
12 *11324:CLK *611:10 0
13 *11324:CLK *627:14 8.78365e-05
14 *11515:CLKin *11515:BEN[17] 0.00056014
15 *11515:CLKin *11515:DI[17] 0
16 *11515:CLKin *552:50 6.13221e-05
17 *11524:CLKin *11524:BEN[17] 0
18 *11524:CLKin *11524:DI[17] 0
19 *11524:CLKin *254:13 0.00019594
20 *11524:CLKin *422:60 0.0277013
21 *11524:CLKin *552:125 0.00019594
22 *197:16 *11515:AD[1] 0.000176926
23 *197:16 *11515:AD[2] 0.0002386
24 *197:16 *394:58 1.28019e-05
25 *197:18 *209:21 7.21296e-06
26 *197:18 *230:27 7.96104e-06
27 *197:18 *231:11 0.000245591
28 *197:18 *231:13 0.00872524
29 *197:18 *369:41 0.000550186
30 *197:18 *383:64 0.00298366
31 *197:18 *387:66 0.00133109
32 *197:18 *391:88 0.00013888
33 *197:18 *590:14 0
34 *11254:A2 *11324:CLK 0.000388523
35 *11263:B2 *11324:CLK 4.42192e-05
36 *11266:B2 *11324:CLK 0.000275483
37 *11266:B2 *197:18 0.00025351
38 *3:23 *11324:CLK 0.000212024
39 *134:18 *197:16 9.28614e-05
40 *134:18 *197:35 0.000173756
41 *140:89 *11324:CLK 1.90233e-05
42 *144:10 *197:18 2.15594e-05
43 *145:74 *11324:CLK 0.000107608
44 *146:18 *11515:CLKin 0.00014608
45 *146:18 *197:35 0.000736542
46 *149:24 *11515:CLKin 0.000265226
47 *149:24 *197:16 9.42795e-05
48 *149:24 *197:35 0.00152407
49 *155:16 *197:18 0.00169815
50 *156:10 *197:18 0.00012752
51 *158:12 *197:18 0.00907389
*RES
1 *11326:X *197:8 4.05 
2 *197:8 *197:16 19.03 
3 *197:16 *197:18 155.145 
4 *197:18 *11324:CLK 36.535 
5 *197:8 *197:35 18.3375 
6 *197:35 *11524:CLKin 48.8479 
7 *197:35 *11515:CLKin 22.6475 
8 *11515:CLKin *197:62 0.12 
*END

*D_NET *198 0.0795822
*CONN
*I *11542:CLKin I *D CF_SRAM_1024x32
*I *11533:CLKin I *D CF_SRAM_1024x32
*I *11327:X O *D sky130_fd_sc_hd__clkbuf_16
*CAP
1 *11542:CLKin 0.00595702
2 *11533:CLKin 0.00634085
3 *11327:X 0.0135453
4 *198:18 0.0258432
5 *11533:CLKin *11533:BEN[17] 0
6 *11533:CLKin *11533:DI[17] 0
7 *11533:CLKin *279:15 0
8 *11533:CLKin *422:104 0
9 *11533:CLKin *630:96 0.0136997
10 *11542:CLKin *11542:DI[17] 5.36384e-06
11 *11542:CLKin *309:23 0.000268917
12 *11542:CLKin *316:21 0.00010896
13 *11542:CLKin *318:13 0.00010896
14 *11542:CLKin *630:96 0.0137039
*RES
1 *11327:X *198:18 35.412 
2 *198:18 *11533:CLKin 32.227 
3 *198:18 *11542:CLKin 27.926 
*END

*D_NET *199 0.0316932
*CONN
*I *11202:C I *D sky130_fd_sc_hd__and3_2
*I *11207:B I *D sky130_fd_sc_hd__and3b_1
*I *11324:D I *D sky130_fd_sc_hd__dfrtp_1
*I *11201:Y O *D sky130_fd_sc_hd__inv_2
*CAP
1 *11202:C 0.000533902
2 *11207:B 0.000657248
3 *11324:D 0.0016331
4 *11201:Y 0.000102228
5 *199:74 0.00164272
6 *199:12 0.00274276
7 *199:6 0.00166346
8 *11202:C *11202:A 0.00170811
9 *11202:C *239:69 0.000531399
10 *11202:C *242:31 0.000165175
11 *11202:C *246:84 0.000205836
12 *11202:C *246:90 0.00015829
13 *11207:B *11210:A 4.46271e-05
14 *11207:B *515:16 0.00324539
15 *11207:B *567:31 1.42807e-05
16 *11207:B *581:12 0.00324283
17 *11207:B *633:18 8.41307e-05
18 *11324:D *11502:A 8.72302e-05
19 *11324:D *201:48 0.00197432
20 *11324:D *338:22 0.000120655
21 *11324:D *575:26 7.9711e-05
22 *11324:D *575:30 0.00261572
23 *11324:D *582:10 0
24 *11324:D *591:28 0.000495118
25 *11324:D *598:12 4.27224e-05
26 *11324:D *600:18 0.000888012
27 *11324:D *623:18 0.000643305
28 *199:6 *611:12 1.19928e-05
29 *199:12 *602:12 7.23533e-05
30 *199:74 *11202:A 0.000385542
31 *199:74 *11204:B 0.000579267
32 *199:74 *242:31 0.0012036
33 *199:74 *563:38 4.78859e-05
34 *199:74 *589:22 4.82863e-05
35 *199:74 *589:26 0.00194161
36 *199:74 *602:12 8.09021e-06
37 *199:74 *603:10 0.000984831
38 *11201:A *199:6 4.41506e-05
39 *11201:A *199:12 0
40 *11201:A *199:74 0.000112671
41 *3:25 *11202:C 0.000102025
42 *3:25 *199:74 0.000258848
43 *110:14 *11324:D 0.000364402
44 *110:18 *11324:D 0
45 *110:18 *199:12 0
46 *111:8 *11202:C 2.75145e-05
47 *143:41 *11202:C 0.000177899
*RES
1 *11201:Y *199:6 2.74 
2 *199:6 *199:12 7.7825 
3 *199:12 *11324:D 49.956 
4 *199:12 *11207:B 39.5275 
5 *199:6 *199:74 42.1775 
6 *199:74 *11202:C 24.1575 
*END

*D_NET *200 0.171804
*CONN
*I *11533:R_WB I *D CF_SRAM_1024x32
*I *11542:R_WB I *D CF_SRAM_1024x32
*I *11524:R_WB I *D CF_SRAM_1024x32
*I *11515:R_WB I *D CF_SRAM_1024x32
*I *11199:Y O *D sky130_fd_sc_hd__inv_16
*CAP
1 *11533:R_WB 0.00219093
2 *11542:R_WB 0.016331
3 *11524:R_WB 0.00891367
4 *11515:R_WB 0.0010131
5 *11199:Y 0.00860586
6 *200:66 0.0277964
7 *200:46 0.0186629
8 *200:22 0.0100937
9 *11515:R_WB *11515:AD[0] 0.000441277
10 *11515:R_WB *11515:EN 5.92583e-05
11 *11515:R_WB *552:24 5.98468e-05
12 *11524:R_WB *11524:EN 8.51589e-06
13 *11524:R_WB *244:17 0
14 *11524:R_WB *246:67 0.00583618
15 *11524:R_WB *247:13 8.41703e-06
16 *11524:R_WB *254:13 1.79536e-05
17 *11524:R_WB *483:22 0.00042137
18 *11524:R_WB *483:64 0.00580304
19 *11524:R_WB *485:66 0.0116248
20 *11524:R_WB *491:92 3.31103e-05
21 *11533:R_WB *11533:AD[0] 0
22 *11533:R_WB *11533:AD[1] 0
23 *11533:R_WB *11533:EN 0
24 *11533:R_WB *286:22 0.000284592
25 *11533:R_WB *288:25 0.000277392
26 *11542:R_WB *11542:AD[0] 0
27 *11542:R_WB *11542:EN 0
28 *11542:R_WB *316:21 0.00028051
29 *11542:R_WB *318:13 0.00028051
30 *200:22 *11515:AD[2] 5.27999e-06
31 *200:22 *201:167 0.000797996
32 *200:22 *212:23 0.000665
33 *200:22 *212:35 5.83121e-06
34 *200:22 *228:22 0.000857507
35 *200:22 *229:34 0.000143503
36 *200:22 *243:17 0.000206274
37 *200:22 *483:22 0.000292724
38 *200:22 *485:66 0.000289945
39 *200:22 *491:44 6.0645e-05
40 *200:46 *224:36 9.29448e-05
41 *200:46 *244:19 9.29448e-05
42 *200:46 *483:22 0.00107376
43 *200:46 *485:66 0.00109222
44 *200:66 *1095:DIODE 0.000121102
45 *200:66 *1149:DIODE 0.000100486
46 *200:66 *1163:DIODE 5.72004e-05
47 *200:66 *224:34 0.000324775
48 *200:66 *224:36 0.00721101
49 *200:66 *244:19 0.000264183
50 *200:66 *245:26 0.000223664
51 *200:66 *283:22 2.9648e-05
52 *200:66 *286:22 0.013227
53 *200:66 *288:25 0.0132507
54 *200:66 *290:25 1.0129e-05
55 *200:66 *293:25 0.000151478
56 *200:66 *298:30 0
57 *200:66 *299:18 0.00202087
58 *200:66 *300:22 0
59 *200:66 *301:37 0.00192213
60 *200:66 *308:27 0.00144894
61 *200:66 *323:35 0.00128765
62 *200:66 *323:37 0.000116853
63 *200:66 *323:43 0.000141898
64 *200:66 *327:60 1.67556e-05
65 *200:66 *363:66 0.000729041
66 *200:66 *564:10 0
67 *11273:S *200:66 0.000848228
68 *120:10 *200:66 0
69 *132:10 *11515:R_WB 5.98468e-05
70 *134:16 *11515:R_WB 2.49909e-05
71 *150:14 *200:22 0.000143503
72 *153:24 *200:22 0.00191
73 *196:22 *200:66 0.00144132
*RES
1 *11199:Y *200:22 24.0162 
2 *200:22 *11515:R_WB 18.6963 
3 *200:22 *200:46 3.411 
4 *200:46 *11524:R_WB 44.7215 
5 *200:46 *200:66 326.505 
6 *200:66 *11542:R_WB 47.279 
7 *200:66 *11533:R_WB 30.2375 
*END

*D_NET *201 0.0643686
*CONN
*I *11515:EN I *D CF_SRAM_1024x32
*I *11243:B1 I *D sky130_fd_sc_hd__o221a_2
*I *11234:B1 I *D sky130_fd_sc_hd__o221a_1
*I *11237:B1 I *D sky130_fd_sc_hd__o221a_2
*I *11240:B1 I *D sky130_fd_sc_hd__o221a_2
*I *11228:B1 I *D sky130_fd_sc_hd__o221a_1
*I *11225:B1 I *D sky130_fd_sc_hd__o221a_1
*I *11219:B1 I *D sky130_fd_sc_hd__o221a_1
*I *11222:B1 I *D sky130_fd_sc_hd__o221a_1
*I *11231:B1 I *D sky130_fd_sc_hd__o221a_1
*I *11213:X O *D sky130_fd_sc_hd__clkbuf_8
*CAP
1 *11515:EN 0.000923218
2 *11243:B1 3.29957e-06
3 *11234:B1 8.52165e-05
4 *11237:B1 0.000311629
5 *11240:B1 3.63559e-05
6 *11228:B1 2.08101e-05
7 *11225:B1 1.88809e-05
8 *11219:B1 0.000227929
9 *11222:B1 0
10 *11231:B1 5.63191e-05
11 *11213:X 0.0014855
12 *201:167 0.00521857
13 *201:165 0.00429535
14 *201:132 0.00055488
15 *201:126 0.000243979
16 *201:88 0.000440535
17 *201:79 0.000447437
18 *201:71 0.000415869
19 *201:69 0.000429248
20 *201:54 0.000420248
21 *201:50 0.00019503
22 *201:48 0.00173634
23 *201:22 0.00307423
24 *201:20 0.00282339
25 *11219:B1 *735:DIODE 8.5841e-05
26 *11219:B1 *11607:A 0.000140657
27 *11231:B1 *11348:A 3.67779e-05
28 *11234:B1 *625:20 6.33103e-05
29 *11237:B1 *11237:A1 1.99427e-05
30 *11237:B1 *625:20 9.1631e-06
31 *11240:B1 *11632:A 1.3166e-05
32 *11515:EN *474:78 0
33 *201:20 *11489:A 8.8266e-05
34 *201:20 *338:22 0.000416904
35 *201:20 *580:22 1.88904e-05
36 *201:20 *580:24 4.82863e-05
37 *201:20 *600:18 0.000541118
38 *201:48 *11632:A 0.000268138
39 *201:48 *382:47 8.36257e-05
40 *201:48 *575:26 1.97442e-05
41 *201:48 *575:30 1.91597e-05
42 *201:48 *586:34 0
43 *201:48 *598:12 6.03468e-05
44 *201:48 *600:16 0.00181652
45 *201:48 *600:18 0.00139384
46 *201:48 *626:8 0.00015413
47 *201:48 *633:10 4.57752e-05
48 *201:54 *11348:A 2.7881e-05
49 *201:69 *11632:A 5.70594e-06
50 *201:69 *626:8 4.66108e-05
51 *201:71 *742:DIODE 0.000150653
52 *201:71 *11632:A 6.07575e-06
53 *201:79 *742:DIODE 0.000194267
54 *201:88 *735:DIODE 2.7441e-05
55 *201:126 *231:21 1.7902e-05
56 *201:132 *233:27 2.99555e-05
57 *201:167 *11515:DI[0] 5.8595e-05
58 *201:167 *11515:DI[14] 0.000108956
59 *201:167 *228:22 0.0137065
60 *201:167 *234:19 0.000408665
61 *201:167 *376:28 5.66369e-05
62 *201:167 *378:79 0.000257278
63 *201:167 *383:58 0
64 *201:167 *391:68 8.31339e-05
65 *201:167 *394:58 0.000327832
66 *201:167 *396:102 0.00124811
67 *201:167 *478:28 0.000124877
68 *201:167 *558:129 0
69 *201:167 *586:34 0.000706381
70 *201:167 *592:28 0.00050039
71 *11214:A *201:20 0.000161529
72 *11219:B2 *11219:B1 9.50342e-06
73 *11219:C1 *11219:B1 0.000113724
74 *11222:B2 *201:79 9.09788e-06
75 *11225:C1 *11219:B1 1.02348e-05
76 *11228:C1 *201:79 0.000340856
77 *11231:A2 *11231:B1 0
78 *11231:A2 *201:54 0
79 *11231:A2 *201:126 0.000116158
80 *11231:C1 *11231:B1 0.000112123
81 *11231:C1 *201:54 8.92701e-05
82 *11231:C1 *201:126 0
83 *11231:C1 *201:132 2.97004e-06
84 *11234:C1 *201:132 0.000107608
85 *11237:A2 *11237:B1 2.5777e-05
86 *11240:B2 *11240:B1 1.42171e-05
87 *11240:B2 *201:69 0.000167351
88 *11240:B2 *201:132 0
89 *11240:C1 *201:71 8.65905e-05
90 *11243:B2 *201:126 8.53113e-06
91 *11243:B2 *201:132 2.81797e-05
92 *11324:D *201:48 0.00197432
93 *11515:R_WB *11515:EN 5.92583e-05
94 *119:16 *201:20 0
95 *119:16 *201:22 0.00345614
96 *119:16 *201:48 0.000311068
97 *119:26 *201:48 0.00105546
98 *119:40 *11243:B1 1.12643e-05
99 *119:48 *11225:B1 5.4155e-06
100 *119:48 *201:88 0.000298799
101 *123:18 *11243:B1 1.12643e-05
102 *123:51 *201:79 5.18317e-06
103 *123:75 *11219:B1 8.65961e-05
104 *123:75 *201:88 0.000525698
105 *135:22 *11237:B1 0.000340209
106 *148:16 *201:22 0.000374727
107 *150:12 *201:167 0.000614618
108 *150:14 *201:167 0.00526648
109 *152:14 *201:167 0.000868701
110 *200:22 *201:167 0.000797996
*RES
1 *11213:X *201:20 30.06 
2 *201:20 *201:22 31.845 
3 *201:22 *201:48 48.5635 
4 *201:48 *201:50 2 
5 *201:50 *201:54 2.265 
6 *201:54 *11231:B1 4.98 
7 *201:54 *201:69 5.225 
8 *201:69 *201:71 2.865 
9 *201:71 *201:79 9.52 
10 *201:79 *11222:B1 1.6 
11 *201:79 *201:88 5.985 
12 *201:88 *11219:B1 11.36 
13 *201:88 *11225:B1 1.96 
14 *201:71 *11228:B1 1.96 
15 *201:69 *11240:B1 2.33875 
16 *201:50 *201:126 1.89 
17 *201:126 *201:132 4.595 
18 *201:132 *11237:B1 6.92875 
19 *201:132 *11234:B1 3.1 
20 *201:126 *11243:B1 3.70875 
21 *201:22 *201:165 2 
22 *201:165 *201:167 166.62 
23 *201:167 *11515:EN 13.8912 
*END

*D_NET *202 0.083392
*CONN
*I *11524:EN I *D CF_SRAM_1024x32
*I *11224:S I *D sky130_fd_sc_hd__mux2_2
*I *11227:S I *D sky130_fd_sc_hd__mux2_2
*I *11216:S I *D sky130_fd_sc_hd__mux2_2
*I *11221:S I *D sky130_fd_sc_hd__mux2_2
*I *11236:S I *D sky130_fd_sc_hd__mux2_2
*I *11233:S I *D sky130_fd_sc_hd__mux2_2
*I *11239:S I *D sky130_fd_sc_hd__mux2_2
*I *11242:S I *D sky130_fd_sc_hd__mux2_2
*I *11230:S I *D sky130_fd_sc_hd__mux2_2
*I *11209:X O *D sky130_fd_sc_hd__buf_8
*CAP
1 *11524:EN 0.00123445
2 *11224:S 0
3 *11227:S 5.51465e-05
4 *11216:S 9.62751e-05
5 *11221:S 0.000256565
6 *11236:S 0
7 *11233:S 0.000174088
8 *11239:S 0
9 *11242:S 5.90997e-05
10 *11230:S 8.11699e-05
11 *11209:X 0.00325224
12 *202:137 0.00693245
13 *202:93 0.000438576
14 *202:84 0.000184164
15 *202:69 0.000650225
16 *202:60 0.000465999
17 *202:49 0.000396862
18 *202:47 0.000903791
19 *202:39 0.000723999
20 *202:24 0.00684815
21 *202:18 0.0155924
22 *11216:S *751:DIODE 0.000263595
23 *11216:S *237:27 3.57349e-05
24 *11221:S *11221:A1 1.56428e-05
25 *11221:S *242:41 0.00025825
26 *11227:S *11227:A1 1.56428e-05
27 *11230:S *263:27 0.000155497
28 *11233:S *947:DIODE 3.64998e-06
29 *11233:S *264:33 1.83756e-05
30 *11233:S *264:35 3.98572e-05
31 *11242:S *267:55 4.6368e-06
32 *11524:EN *237:13 0.000631256
33 *11524:EN *247:15 0
34 *11524:EN *258:14 0.00336553
35 *11524:EN *398:18 0.00139562
36 *11524:EN *478:66 0
37 *11524:EN *491:92 0
38 *202:18 *11334:A 0
39 *202:18 *11471:A 0
40 *202:18 *221:32 0.000850405
41 *202:18 *247:43 2.30515e-05
42 *202:18 *380:18 0.00333418
43 *202:18 *483:18 0
44 *202:24 *240:22 1.88904e-05
45 *202:24 *365:28 0.00269835
46 *202:39 *240:22 0.000177568
47 *202:39 *242:41 0.000153816
48 *202:47 *242:41 0.00018955
49 *202:60 *213:33 0
50 *202:69 *213:33 0
51 *202:84 *751:DIODE 3.30507e-05
52 *202:93 *751:DIODE 0.000153816
53 *202:137 *237:17 0.01412
54 *202:137 *365:28 5.98847e-05
55 *202:137 *391:30 0.00301337
56 *202:137 *478:18 0.00521485
57 *202:137 *483:18 0.00521973
58 *11216:A0 *11216:S 4.66108e-05
59 *11221:A0 *11221:S 8.63479e-05
60 *11227:A0 *202:49 6.51658e-05
61 *11233:A0 *11233:S 0.000264583
62 *11233:A0 *202:69 2.97746e-05
63 *11233:A0 *202:84 0.00015178
64 *11236:A0 *202:84 2.68526e-05
65 *11301:B2 *202:18 2.59981e-05
66 *11524:R_WB *11524:EN 8.51589e-06
67 *111:10 *202:24 1.7635e-05
68 *111:10 *202:39 0.000185131
69 *125:12 *11221:S 4.66108e-05
70 *126:10 *202:60 0.000155224
71 *126:10 *202:69 0.000725294
72 *126:10 *202:84 0.000145201
73 *128:10 *11221:S 2.19463e-05
74 *130:10 *11221:S 0.000310035
75 *130:10 *202:47 0.00070274
76 *133:12 *11233:S 0.000193113
77 *143:80 *11216:S 0.000107024
78 *143:80 *202:84 0.000163209
79 *143:80 *202:93 8.32202e-05
80 *167:166 *202:18 2.06083e-05
81 *171:69 *202:18 0
82 *171:79 *202:18 0
*RES
1 *11209:X *202:18 27.9275 
2 *202:18 *202:24 19.7363 
3 *202:24 *11230:S 5.085 
4 *202:24 *202:39 5.63 
5 *202:39 *202:47 14.095 
6 *202:47 *202:49 3.555 
7 *202:49 *11242:S 2.395 
8 *202:49 *202:60 3.89 
9 *202:60 *11239:S 3.6 
10 *202:60 *202:69 8.775 
11 *202:69 *11233:S 7.5 
12 *202:69 *202:84 5.375 
13 *202:84 *11236:S 1.6 
14 *202:84 *202:93 2.1 
15 *202:93 *11221:S 11.795 
16 *202:93 *11216:S 4.465 
17 *202:47 *11227:S 2.395 
18 *202:39 *11224:S 1.6 
19 *202:18 *202:137 32.9678 
20 *202:137 *11524:EN 45.1138 
*END

*D_NET *203 0.0681785
*CONN
*I *11533:EN I *D CF_SRAM_1024x32
*I *11220:S I *D sky130_fd_sc_hd__mux2_2
*I *11232:S I *D sky130_fd_sc_hd__mux2_2
*I *11215:S I *D sky130_fd_sc_hd__mux2_2
*I *11223:S I *D sky130_fd_sc_hd__mux2_2
*I *11226:S I *D sky130_fd_sc_hd__mux2_2
*I *11241:S I *D sky130_fd_sc_hd__mux2_2
*I *11238:S I *D sky130_fd_sc_hd__mux2_2
*I *11229:S I *D sky130_fd_sc_hd__mux2_2
*I *11235:S I *D sky130_fd_sc_hd__mux2_2
*I *11206:X O *D sky130_fd_sc_hd__buf_6
*CAP
1 *11533:EN 0.00111925
2 *11220:S 9.03615e-05
3 *11232:S 1.93533e-05
4 *11215:S 9.17428e-05
5 *11223:S 0
6 *11226:S 0
7 *11241:S 3.14927e-05
8 *11238:S 0.000172954
9 *11229:S 0.000122504
10 *11235:S 7.59842e-05
11 *11206:X 0.000668677
12 *203:151 0.00660586
13 *203:92 0.00049393
14 *203:88 0.000404736
15 *203:82 0.000115253
16 *203:69 0.000253552
17 *203:65 0.000657098
18 *203:59 0.000799391
19 *203:44 0.000659596
20 *203:38 0.00081809
21 *203:24 0.00143346
22 *203:12 0.00643022
23 *203:10 0.0031059
24 *203:8 0.00377458
25 *11215:S *301:65 0.000149521
26 *11215:S *326:35 0.000256282
27 *11220:S *11220:A1 5.23617e-05
28 *11220:S *312:29 6.69608e-06
29 *11229:S *295:28 0.000197329
30 *11229:S *327:62 4.78678e-05
31 *11232:S *1046:DIODE 2.49909e-05
32 *11232:S *223:22 2.49909e-05
33 *11235:S *11235:A0 4.66108e-05
34 *11235:S *11235:A1 7.58269e-05
35 *11235:S *297:36 3.83194e-05
36 *11238:S *558:129 0.000343914
37 *11238:S *630:66 0.000340587
38 *11241:S *558:129 0.000133763
39 *11241:S *630:66 0.000141606
40 *203:24 *1070:DIODE 5.83121e-06
41 *203:24 *272:21 0.00249499
42 *203:24 *277:40 1.08758e-05
43 *203:24 *280:20 0.00113128
44 *203:24 *294:20 0.0013256
45 *203:24 *295:20 0.00067665
46 *203:24 *302:56 0.00147572
47 *203:24 *330:35 0.000109379
48 *203:38 *225:24 2.20608e-05
49 *203:38 *269:28 0.000989733
50 *203:38 *280:20 0.000715288
51 *203:38 *328:27 0.000234352
52 *203:44 *11235:A0 0.000225285
53 *203:44 *224:34 0.000112177
54 *203:44 *269:28 0.000170109
55 *203:44 *329:43 9.47972e-06
56 *203:59 *229:32 0.00047601
57 *203:65 *1067:DIODE 5.83121e-06
58 *203:65 *229:32 0.000366685
59 *203:65 *301:65 2.01504e-05
60 *203:65 *301:67 8.41946e-05
61 *203:65 *301:69 7.94912e-05
62 *203:65 *301:71 7.94912e-05
63 *203:65 *326:35 0.000411093
64 *203:69 *295:28 0.00030001
65 *203:88 *11226:A0 0.000118081
66 *203:88 *294:32 2.57422e-05
67 *203:88 *323:73 0.000181332
68 *203:92 *1041:DIODE 3.93162e-05
69 *203:92 *1146:DIODE 0.000154977
70 *203:92 *11226:A0 8.35068e-05
71 *203:92 *323:73 0.000296755
72 *203:151 *270:18 0.000810089
73 *203:151 *272:21 0.00524686
74 *203:151 *277:26 0.00160355
75 *203:151 *294:20 0.000388678
76 *203:151 *295:20 0.0109587
77 *203:151 *297:20 0.00115246
78 *11533:R_WB *11533:EN 0
79 *113:27 *203:8 0.000278117
80 *126:8 *203:88 0.000157378
81 *128:8 *203:88 0.000114652
82 *141:8 *203:8 0.000517413
83 *141:8 *203:10 1.12668e-05
84 *141:10 *203:10 0.00407621
85 *141:53 *203:38 8.247e-05
86 *142:10 *203:38 3.47757e-05
87 *142:10 *203:44 4.50812e-05
88 *149:24 *11229:S 7.2883e-05
89 *149:24 *203:69 9.97038e-05
90 *153:24 *203:24 0.000160673
91 *153:24 *203:59 0.000111402
*RES
1 *11206:X *203:8 13.6225 
2 *203:8 *203:10 64.1025 
3 *203:10 *203:12 2 
4 *203:12 *203:24 48.915 
5 *203:24 *203:38 20.22 
6 *203:38 *203:44 7.01 
7 *203:44 *11235:S 3.1 
8 *203:44 *203:59 8.075 
9 *203:59 *203:65 11.03 
10 *203:65 *203:69 5.675 
11 *203:69 *11229:S 6.795 
12 *203:69 *203:82 2 
13 *203:82 *203:88 3.675 
14 *203:88 *203:92 7.28 
15 *203:92 *11238:S 8.67 
16 *203:92 *11241:S 5.235 
17 *203:88 *11226:S 1.6 
18 *203:82 *11223:S 1.6 
19 *203:65 *11215:S 4.48 
20 *203:59 *11232:S 4.05 
21 *203:38 *11220:S 5.085 
22 *203:12 *203:151 178.86 
23 *203:151 *11533:EN 16.8612 
*END

*D_NET *204 0.0454939
*CONN
*I *11422:A I *D sky130_fd_sc_hd__dlygate4sd3_1
*I *11203:X O *D sky130_fd_sc_hd__clkbuf_8
*CAP
1 *11422:A 0
2 *11203:X 0.000319811
3 *204:14 0.00200283
4 *204:12 0.00200283
5 *204:10 0.00401845
6 *204:8 0.00433826
7 *204:8 *11203:A 2.68526e-05
8 *204:8 *220:20 0.000182446
9 *204:10 *222:28 0.000496276
10 *204:10 *224:34 0.000126861
11 *204:10 *224:36 0.000315238
12 *204:10 *299:18 0.00733795
13 *204:10 *309:29 0
14 *204:10 *309:55 0.000187866
15 *204:10 *326:27 0
16 *204:10 *363:66 0.000823139
17 *204:14 *293:29 0.000182435
18 *204:14 *307:15 0.0128654
19 *204:14 *331:59 0.00718274
20 *204:14 *331:63 0.00308452
21 *113:10 *204:10 0
*RES
1 *11203:X *204:8 8.88 
2 *204:8 *204:10 103.89 
3 *204:10 *204:12 2 
4 *204:12 *204:14 117.405 
5 *204:14 *11422:A 1.6 
*END

*D_NET *205 0.036288
*CONN
*I *699:DIODE I *D sky130_fd_sc_hd__diode_2
*I *11219:A1 I *D sky130_fd_sc_hd__o221a_1
*I *698:DIODE I *D sky130_fd_sc_hd__diode_2
*I *11515:DO[0] O *D CF_SRAM_1024x32
*CAP
1 *699:DIODE 0.000339264
2 *11219:A1 0
3 *698:DIODE 0.000108215
4 *11515:DO[0] 0.000157331
5 *205:29 0.00942194
6 *205:7 0.00981031
7 *698:DIODE *11607:A 3.66754e-05
8 *699:DIODE *11515:ScanInCC 0
9 *699:DIODE *11515:DI[0] 0.000423882
10 *699:DIODE *385:79 3.9232e-05
11 *699:DIODE *387:64 0.000167337
12 *205:7 *11515:ScanInCC 0
13 *205:7 *11515:DI[0] 0.000148874
14 *205:29 *11515:vpwrpc 0.000722029
15 *205:29 *11515:vpwrac 0.000210199
16 *205:29 *216:29 0.0118664
17 *205:29 *227:27 0
18 *205:29 *231:19 0.000417875
19 *205:29 *235:19 0.000243824
20 *205:29 *369:41 3.97211e-05
21 *205:29 *383:64 3.97211e-05
22 *11219:B2 *205:29 0.000329556
23 *3:23 *205:29 0
24 *121:18 *205:29 0.000572416
25 *125:18 *205:29 0.000484406
26 *131:16 *205:29 0.000325682
27 *137:16 *205:29 0.000383021
*RES
1 *11515:DO[0] *205:7 2.97808 
2 *205:7 *205:29 46.5779 
3 *205:29 *698:DIODE 3.43 
4 *205:29 *11219:A1 1.6 
5 *205:7 *699:DIODE 8.95 
*END

*D_NET *206 0.0192425
*CONN
*I *11254:A1 I *D sky130_fd_sc_hd__o221a_2
*I *11515:DO[10] O *D CF_SRAM_1024x32
*CAP
1 *11254:A1 0.000525242
2 *11515:DO[10] 0.000534302
3 *206:11 0.001878
4 *206:9 0.00188706
5 *206:9 *11515:DI[10] 0.000243678
6 *206:11 *11204:C 0.00239049
7 *206:11 *11204:D 0.00236129
8 *206:11 *233:19 0.000108106
9 *206:11 *236:11 0.000702813
10 *206:11 *378:81 0.00244173
11 *206:11 *387:56 0.00126209
12 *11254:B1 *11254:A1 0.000567056
13 *139:16 *206:9 6.33103e-05
14 *140:36 *11254:A1 0.00198707
15 *147:38 *11254:A1 0.00229032
*RES
1 *11515:DO[10] *206:9 10.6625 
2 *206:9 *206:11 58.755 
3 *206:11 *11254:A1 27.165 
*END

*D_NET *207 0.00585405
*CONN
*I *11257:A1 I *D sky130_fd_sc_hd__o221a_2
*I *11515:DO[11] O *D CF_SRAM_1024x32
*CAP
1 *11257:A1 0.00193701
2 *11515:DO[11] 0.00193701
3 *11257:A1 *11515:DI[11] 0.000382989
4 *11257:A1 *229:34 1.71207e-05
5 *11257:A1 *229:40 8.34139e-05
6 *11257:A1 *243:17 0.00109174
7 *11257:A1 *596:12 0.000153816
8 *11257:A2 *11257:A1 0.000226967
9 *11257:B1 *11257:A1 2.39856e-05
*RES
1 *11515:DO[11] *11257:A1 35.4725 
*END

*D_NET *208 0.00778057
*CONN
*I *11260:A1 I *D sky130_fd_sc_hd__o221a_2
*I *11515:DO[12] O *D CF_SRAM_1024x32
*CAP
1 *11260:A1 0.00137878
2 *11515:DO[12] 0.00137878
3 *11260:A1 *11515:DI[12] 0.000651026
4 *11260:A1 *11515:DI[13] 3.91191e-05
5 *11260:A1 *210:11 0.0010088
6 *11260:A1 *232:23 0.00237132
7 *11260:A1 *558:47 0.000173689
8 *11260:A1 *558:57 0.000318236
9 *11260:A1 *558:69 0.000236627
10 *11260:A2 *11260:A1 4.66742e-05
11 *11260:B1 *11260:A1 2.37059e-05
12 *11260:C1 *11260:A1 0.000153816
*RES
1 *11515:DO[12] *11260:A1 46.3775 
*END

*D_NET *209 0.0119245
*CONN
*I *11263:A1 I *D sky130_fd_sc_hd__o221a_2
*I *11515:DO[13] O *D CF_SRAM_1024x32
*CAP
1 *11263:A1 0.000851439
2 *11515:DO[13] 0.000901496
3 *209:21 0.00175294
4 *11263:A1 *11249:A1 0.0010475
5 *11263:A1 *232:35 2.05056e-05
6 *11263:A1 *579:10 9.64478e-05
7 *11263:A1 *611:10 0.000366333
8 *11263:A1 *625:20 0.000194546
9 *209:21 *11515:DI[13] 6.70161e-05
10 *209:21 *235:9 0.00132379
11 *209:21 *354:10 0.000360915
12 *209:21 *590:14 4.49415e-05
13 *11249:B2 *11263:A1 0.00174453
14 *11269:B2 *11263:A1 0
15 *11269:C1 *11263:A1 2.54692e-05
16 *137:10 *209:21 0.00132213
17 *140:53 *11263:A1 0
18 *140:76 *11263:A1 0.000115176
19 *144:10 *209:21 0.0012298
20 *147:38 *209:21 5.83121e-06
21 *154:10 *209:21 0.000446532
22 *197:18 *209:21 7.21296e-06
*RES
1 *11515:DO[13] *209:21 42.2075 
2 *209:21 *11263:A1 33.035 
*END

*D_NET *210 0.0124814
*CONN
*I *11266:A1 I *D sky130_fd_sc_hd__o221a_2
*I *11515:DO[14] O *D CF_SRAM_1024x32
*CAP
1 *11266:A1 0.000384616
2 *11515:DO[14] 0.00131498
3 *210:11 0.0016996
4 *11266:A1 *382:47 0.000518027
5 *11266:A1 *625:20 0.0010597
6 *11266:A1 *628:8 4.60584e-05
7 *210:11 *11204:C 0
8 *210:11 *11515:DI[14] 0.00065252
9 *210:11 *11515:DI[15] 0.000105991
10 *210:11 *232:23 8.02497e-05
11 *210:11 *558:10 0.00129115
12 *210:11 *558:23 9.31326e-05
13 *210:11 *558:35 0.000359785
14 *210:11 *558:47 0.00048301
15 *210:11 *590:14 0.000115531
16 *11260:A1 *210:11 0.0010088
17 *123:16 *11266:A1 0.00202925
18 *147:38 *210:11 3.29337e-05
19 *148:38 *210:11 0.00120611
*RES
1 *11515:DO[14] *210:11 42.7525 
2 *210:11 *11266:A1 20.335 
*END

*D_NET *211 0.00588349
*CONN
*I *11269:A1 I *D sky130_fd_sc_hd__o221a_2
*I *11515:DO[15] O *D CF_SRAM_1024x32
*CAP
1 *11269:A1 0.00156148
2 *11515:DO[15] 0.00156148
3 *11269:A1 *11515:BEN[14] 0
4 *11269:A1 *11515:DI[15] 0
5 *11269:A1 *11635:A 0.000176264
6 *11269:A1 *227:27 0.000287742
7 *11269:A1 *235:19 0.000961053
8 *11269:A1 *588:18 0
9 *11269:A1 *624:22 0.00013661
10 *135:10 *11269:A1 0.000130199
11 *137:10 *11269:A1 2.15594e-05
12 *145:60 *11269:A1 0.00104711
*RES
1 *11515:DO[15] *11269:A1 38.6375 
*END

*D_NET *212 0.0340673
*CONN
*I *701:DIODE I *D sky130_fd_sc_hd__diode_2
*I *11272:A1 I *D sky130_fd_sc_hd__o221a_2
*I *702:DIODE I *D sky130_fd_sc_hd__diode_2
*I *11515:DO[16] O *D CF_SRAM_1024x32
*CAP
1 *701:DIODE 6.57171e-05
2 *11272:A1 4.67575e-05
3 *702:DIODE 0
4 *11515:DO[16] 0.000510752
5 *212:35 0.00117006
6 *212:23 0.00724224
7 *212:21 0.00641272
8 *212:12 0.000731884
9 *212:4 6.9367e-06
10 *701:DIODE *11204:A_N 0.000193801
11 *701:DIODE *11204:B 2.65505e-05
12 *701:DIODE *602:12 2.76356e-05
13 *212:12 *11515:ScanInDR 0.000841384
14 *212:12 *11515:DI[16] 0.00051263
15 *212:12 *396:102 0.000193011
16 *212:23 *229:34 0.000300644
17 *212:23 *243:17 0.00403429
18 *212:23 *555:8 0.00453051
19 *212:35 *11204:A_N 0.000666454
20 *212:35 *11204:B 0.000113652
21 *212:35 *549:16 0.00246993
22 *212:35 *596:12 9.29751e-06
23 *11272:A2 *11272:A1 4.14666e-06
24 *11272:A2 *212:35 1.19928e-05
25 *11272:B2 *212:35 0.00018955
26 *112:10 *212:35 0.000165035
27 *125:14 *212:35 0.00279628
28 *153:24 *212:23 0.000122559
29 *200:22 *212:23 0.000665
30 *200:22 *212:35 5.83121e-06
*RES
1 *11515:DO[16] *212:4 0.12 
2 *11515:DO[16] *212:12 12.105 
3 *212:12 *702:DIODE 1.6 
4 *212:12 *212:21 4.175 
5 *212:21 *212:23 105.675 
6 *212:23 *212:35 46.38 
7 *212:35 *11272:A1 2.215 
8 *212:35 *701:DIODE 3.43 
*END

*D_NET *213 0.0362064
*CONN
*I *11275:A1 I *D sky130_fd_sc_hd__o221a_2
*I *703:DIODE I *D sky130_fd_sc_hd__diode_2
*I *704:DIODE I *D sky130_fd_sc_hd__diode_2
*I *11515:DO[17] O *D CF_SRAM_1024x32
*CAP
1 *11275:A1 0.00034559
2 *703:DIODE 0
3 *704:DIODE 0
4 *11515:DO[17] 0.000579518
5 *213:37 0.000491538
6 *213:33 0.00297675
7 *213:31 0.00286691
8 *213:29 0.00168429
9 *213:27 0.00249112
10 *213:18 0.00141465
11 *213:4 7.80379e-06
12 *213:18 *11515:BEN[16] 0.00022707
13 *213:18 *11515:WLBI 0.000841384
14 *213:18 *11515:DI[17] 0.000194518
15 *213:18 *378:89 0.000215588
16 *213:18 *422:65 4.05674e-06
17 *213:18 *461:36 0.000210593
18 *213:18 *474:78 4.41506e-05
19 *213:27 *11515:BEN[16] 8.41307e-05
20 *213:33 *11236:A1 3.8923e-05
21 *11233:A0 *213:33 6.74661e-05
22 *11275:A2 *11275:A1 3.06618e-05
23 *11275:B1 *11275:A1 0.000193877
24 *11275:B1 *213:37 4.66108e-05
25 *126:10 *213:33 0
26 *127:10 *213:33 0.00401651
27 *128:10 *213:29 0.00501205
28 *128:10 *213:33 0.000111395
29 *129:8 *213:33 0.000434366
30 *134:18 *213:33 0.000181287
31 *140:130 *213:37 0.000156754
32 *143:106 *213:33 0.000879411
33 *143:132 *213:33 0.000219591
34 *146:18 *213:29 0.002721
35 *146:18 *213:33 0.000600962
36 *160:10 *213:33 0.00681583
37 *202:60 *213:33 0
38 *202:69 *213:33 0
*RES
1 *11515:DO[17] *213:4 0.135 
2 *11515:DO[17] *213:18 16.87 
3 *213:18 *704:DIODE 1.6 
4 *213:18 *213:27 10.385 
5 *213:27 *213:29 59.7375 
6 *213:29 *213:31 0.45 
7 *213:31 *213:33 94.2375 
8 *213:33 *213:37 3.83 
9 *213:37 *703:DIODE 1.6 
10 *213:37 *11275:A1 5.77 
*END

*D_NET *214 0.0454852
*CONN
*I *705:DIODE I *D sky130_fd_sc_hd__diode_2
*I *11278:A1 I *D sky130_fd_sc_hd__o221a_2
*I *706:DIODE I *D sky130_fd_sc_hd__diode_2
*I *11515:DO[18] O *D CF_SRAM_1024x32
*CAP
1 *705:DIODE 0
2 *11278:A1 0.00040341
3 *706:DIODE 0
4 *11515:DO[18] 0.000778231
5 *214:26 0.00113306
6 *214:22 0.00479437
7 *214:20 0.00582615
8 *214:11 0.00253966
9 *11278:A1 *604:12 1.56428e-05
10 *214:11 *11515:DI[18] 0.000250591
11 *214:20 *11515:DI[18] 8.52044e-06
12 *214:22 *217:22 0.0151889
13 *214:22 *225:26 0.000119655
14 *214:22 *241:53 0.00524765
15 *214:22 *246:69 0
16 *214:22 *259:19 0.00120207
17 *214:22 *597:10 0
18 *11278:A2 *11278:A1 4.14666e-06
19 *113:10 *214:22 0.00465159
20 *140:24 *11278:A1 0.000325885
21 *140:34 *11278:A1 0.000246718
22 *143:20 *214:22 0.00149031
23 *145:35 *11278:A1 0.000312896
24 *145:41 *11278:A1 0.000209227
25 *145:41 *214:26 0.000109836
26 *148:24 *214:26 0.000626681
*RES
1 *11515:DO[18] *214:11 10.98 
2 *214:11 *706:DIODE 1.6 
3 *214:11 *214:20 20.39 
4 *214:20 *214:22 182.43 
5 *214:22 *214:26 11.765 
6 *214:26 *11278:A1 10.0187 
7 *214:26 *705:DIODE 1.6 
*END

*D_NET *215 0.0454517
*CONN
*I *11284:A1 I *D sky130_fd_sc_hd__o221a_2
*I *707:DIODE I *D sky130_fd_sc_hd__diode_2
*I *708:DIODE I *D sky130_fd_sc_hd__diode_2
*I *11515:DO[19] O *D CF_SRAM_1024x32
*CAP
1 *11284:A1 0.000127064
2 *707:DIODE 0
3 *708:DIODE 0
4 *11515:DO[19] 0.00086895
5 *215:32 0.00135555
6 *215:22 0.00839789
7 *215:20 0.00916052
8 *215:11 0.00286007
9 *11284:A1 *567:18 0.000268075
10 *215:11 *11515:DI[19] 0
11 *215:22 *218:22 0.016395
12 *215:32 *563:36 0.00136162
13 *215:32 *567:18 0
14 *215:32 *589:22 0.00058512
15 *215:32 *602:14 0.0036988
16 *11212:B *215:32 4.09231e-05
17 *11284:A2 *11284:A1 4.74157e-05
18 *11284:B1 *11284:A1 1.12643e-05
19 *11284:B2 *11284:A1 0.000114234
20 *11284:C1 *11284:A1 0.000159134
21 *140:24 *215:32 0
*RES
1 *11515:DO[19] *215:11 10.995 
2 *215:11 *708:DIODE 1.6 
3 *215:11 *215:20 23.495 
4 *215:20 *215:22 188.295 
5 *215:22 *215:32 48.6 
6 *215:32 *707:DIODE 1.6 
7 *215:32 *11284:A1 5.98 
*END

*D_NET *216 0.0389003
*CONN
*I *710:DIODE I *D sky130_fd_sc_hd__diode_2
*I *709:DIODE I *D sky130_fd_sc_hd__diode_2
*I *11222:A1 I *D sky130_fd_sc_hd__o221a_1
*I *11515:DO[1] O *D CF_SRAM_1024x32
*CAP
1 *710:DIODE 0.000474861
2 *709:DIODE 0
3 *11222:A1 0.000105461
4 *11515:DO[1] 0.000186378
5 *216:29 0.00534019
6 *216:7 0.00589597
7 *710:DIODE *11515:DI[1] 0.000257152
8 *216:7 *11515:DI[1] 0.000148874
9 *216:29 *230:27 0.0136449
10 *216:29 *369:41 3.97211e-05
11 *216:29 *383:64 3.97211e-05
12 *11228:B2 *216:29 0.000498224
13 *11237:A2 *216:29 0.000133547
14 *3:23 *216:29 2.29222e-05
15 *119:42 *11222:A1 4.82919e-05
16 *119:44 *11222:A1 0.000197628
17 *205:29 *216:29 0.0118664
*RES
1 *11515:DO[1] *216:7 3.3675 
2 *216:7 *216:29 41.2201 
3 *216:29 *11222:A1 3.775 
4 *216:29 *709:DIODE 1.6 
5 *216:7 *710:DIODE 8.95 
*END

*D_NET *217 0.0642474
*CONN
*I *11289:A1 I *D sky130_fd_sc_hd__o221a_2
*I *712:DIODE I *D sky130_fd_sc_hd__diode_2
*I *713:DIODE I *D sky130_fd_sc_hd__diode_2
*I *11515:DO[20] O *D CF_SRAM_1024x32
*CAP
1 *11289:A1 0.000132524
2 *712:DIODE 0
3 *713:DIODE 0
4 *11515:DO[20] 0.000692993
5 *217:32 0.00110297
6 *217:26 0.00249471
7 *217:24 0.00152427
8 *217:22 0.00382715
9 *217:20 0.00560166
10 *217:11 0.0024675
11 *11289:A1 *584:56 4.66108e-05
12 *11289:A1 *607:16 8.8266e-05
13 *217:11 *11515:DI[20] 0.00045018
14 *217:11 *630:10 4.93654e-05
15 *217:20 *11515:DI[20] 1.1392e-05
16 *217:22 *225:26 5.86246e-05
17 *217:22 *226:26 0.0164848
18 *217:26 *218:26 0.00751218
19 *217:26 *219:26 2.30292e-05
20 *217:26 *220:26 1.61831e-05
21 *217:26 *596:14 0.00521917
22 *217:26 *603:12 4.82429e-05
23 *217:26 *611:12 0
24 *217:32 *584:56 2.92496e-05
25 *11208:A *217:32 0.000214755
26 *11284:B1 *11289:A1 0.000174684
27 *11289:A2 *217:32 0
28 *11289:B2 *217:32 0
29 *113:10 *217:22 0.000788024
30 *115:16 *217:32 0
31 *214:22 *217:22 0.0151889
*RES
1 *11515:DO[20] *217:11 11.01 
2 *217:11 *713:DIODE 1.6 
3 *217:11 *217:20 20.735 
4 *217:20 *217:22 193.65 
5 *217:22 *217:24 2 
6 *217:24 *217:26 70.485 
7 *217:26 *217:32 18.64 
8 *217:32 *712:DIODE 1.6 
9 *217:32 *11289:A1 4.495 
*END

*D_NET *218 0.0689403
*CONN
*I *11292:A1 I *D sky130_fd_sc_hd__o221a_2
*I *714:DIODE I *D sky130_fd_sc_hd__diode_2
*I *715:DIODE I *D sky130_fd_sc_hd__diode_2
*I *11515:DO[21] O *D CF_SRAM_1024x32
*CAP
1 *11292:A1 9.29112e-05
2 *714:DIODE 0
3 *715:DIODE 0
4 *11515:DO[21] 0.000780069
5 *218:32 0.00106761
6 *218:26 0.00227737
7 *218:24 0.00130267
8 *218:22 0.00366688
9 *218:20 0.00562181
10 *218:11 0.002735
11 *11292:A1 *338:30 0.00038879
12 *11292:A1 *608:12 4.96965e-05
13 *218:11 *11515:DI[21] 0.000259859
14 *218:20 *11515:DI[21] 4.87485e-06
15 *218:22 *219:22 0.0178414
16 *218:22 *221:22 8.74345e-06
17 *218:26 *219:26 0.00861184
18 *218:26 *611:12 0
19 *218:32 *396:20 0
20 *11289:A2 *11292:A1 1.02867e-05
21 *11292:A2 *11292:A1 2.85362e-05
22 *11292:B1 *11292:A1 4.78756e-05
23 *11292:B2 *11292:A1 8.68767e-06
24 *11292:B2 *218:32 0
25 *165:22 *11292:A1 0.000201503
26 *170:18 *11292:A1 2.66586e-05
27 *215:22 *218:22 0.016395
28 *217:26 *218:26 0.00751218
*RES
1 *11515:DO[21] *218:11 11.25 
2 *218:11 *715:DIODE 1.6 
3 *218:11 *218:20 23.15 
4 *218:20 *218:22 201.555 
5 *218:22 *218:24 2 
6 *218:24 *218:26 78.075 
7 *218:26 *218:32 17.875 
8 *218:32 *714:DIODE 1.6 
9 *218:32 *11292:A1 9.77 
*END

*D_NET *219 0.0736858
*CONN
*I *716:DIODE I *D sky130_fd_sc_hd__diode_2
*I *11295:A1 I *D sky130_fd_sc_hd__o221a_2
*I *717:DIODE I *D sky130_fd_sc_hd__diode_2
*I *11515:DO[22] O *D CF_SRAM_1024x32
*CAP
1 *716:DIODE 0.000240408
2 *11295:A1 0
3 *717:DIODE 0
4 *11515:DO[22] 0.000883364
5 *219:34 0.00113026
6 *219:26 0.0022982
7 *219:24 0.00140836
8 *219:22 0.00362667
9 *219:20 0.00555673
10 *219:11 0.00281343
11 *716:DIODE *609:16 1.42807e-05
12 *219:11 *11515:DI[22] 0
13 *219:22 *220:22 0.0185416
14 *219:22 *221:22 1.25877e-05
15 *219:26 *220:26 0.00964031
16 *219:26 *611:12 0
17 *11295:B1 *219:34 0.000138901
18 *11295:B2 *219:34 0.00048595
19 *118:61 *716:DIODE 8.7152e-06
20 *165:12 *716:DIODE 2.07679e-05
21 *165:12 *219:34 0
22 *167:86 *219:34 0.000369073
23 *170:48 *716:DIODE 0
24 *172:28 *219:34 1.98775e-05
25 *217:26 *219:26 2.30292e-05
26 *218:22 *219:22 0.0178414
27 *218:26 *219:26 0.00861184
*RES
1 *11515:DO[22] *219:11 11.235 
2 *219:11 *717:DIODE 1.6 
3 *219:11 *219:20 22.805 
4 *219:20 *219:22 209.46 
5 *219:22 *219:24 2 
6 *219:24 *219:26 87.39 
7 *219:26 *219:34 18.98 
8 *219:34 *11295:A1 3.6 
9 *219:34 *716:DIODE 6.3 
*END

*D_NET *220 0.0789162
*CONN
*I *11298:A1 I *D sky130_fd_sc_hd__o221a_2
*I *718:DIODE I *D sky130_fd_sc_hd__diode_2
*I *719:DIODE I *D sky130_fd_sc_hd__diode_2
*I *11515:DO[23] O *D CF_SRAM_1024x32
*CAP
1 *11298:A1 0.000389648
2 *718:DIODE 0.000125323
3 *719:DIODE 0
4 *11515:DO[23] 0.000692963
5 *220:30 0.00099797
6 *220:26 0.00198939
7 *220:24 0.00150639
8 *220:22 0.00407741
9 *220:20 0.00589411
10 *220:11 0.00250967
11 *718:DIODE *11614:A 0.000217382
12 *718:DIODE *585:20 0
13 *11298:A1 *371:46 0.000347127
14 *220:11 *11515:DI[23] 0.000724027
15 *220:20 *11203:A 4.77757e-05
16 *220:20 *11515:DI[23] 2.01259e-05
17 *220:22 *221:22 0.0186254
18 *220:26 *603:12 0.0105067
19 *220:26 *611:12 0
20 *220:30 *11614:A 0.000850319
21 *220:30 *485:16 0
22 *11298:B2 *11298:A1 8.01373e-05
23 *115:30 *718:DIODE 1.44259e-05
24 *143:10 *220:30 0.000347802
25 *172:28 *718:DIODE 8.53113e-06
26 *172:28 *220:30 0.000562982
27 *204:8 *220:20 0.000182446
28 *217:26 *220:26 1.61831e-05
29 *219:22 *220:22 0.0185416
30 *219:26 *220:26 0.00964031
*RES
1 *11515:DO[23] *220:11 11.22 
2 *220:11 *719:DIODE 1.6 
3 *220:11 *220:20 22.46 
4 *220:20 *220:22 217.365 
5 *220:22 *220:24 2 
6 *220:24 *220:26 95.325 
7 *220:26 *220:30 16.13 
8 *220:30 *718:DIODE 6.255 
9 *220:30 *11298:A1 13.465 
*END

*D_NET *221 0.0818909
*CONN
*I *720:DIODE I *D sky130_fd_sc_hd__diode_2
*I *11301:A1 I *D sky130_fd_sc_hd__o221a_2
*I *721:DIODE I *D sky130_fd_sc_hd__diode_2
*I *11515:DO[24] O *D CF_SRAM_1024x32
*CAP
1 *720:DIODE 2.95047e-05
2 *11301:A1 0
3 *721:DIODE 0
4 *11515:DO[24] 0.000796007
5 *221:32 0.000640201
6 *221:26 0.00216716
7 *221:24 0.00155647
8 *221:22 0.0047352
9 *221:20 0.00634699
10 *221:11 0.0024078
11 *221:11 *11515:DI[24] 5.94384e-05
12 *221:22 *223:24 0.0196873
13 *221:22 *225:26 1.25877e-05
14 *221:26 *223:28 0.0116543
15 *221:26 *228:26 0.0116554
16 *221:32 *11615:A 0
17 *221:32 *380:18 8.66976e-06
18 *221:32 *483:18 0
19 *11301:B2 *221:32 5.72573e-05
20 *145:41 *221:26 0.000148862
21 *165:130 *720:DIODE 0.000201503
22 *173:97 *720:DIODE 0.000199833
23 *173:97 *221:32 2.92496e-05
24 *202:18 *221:32 0.000850405
25 *218:22 *221:22 8.74345e-06
26 *219:22 *221:22 1.25877e-05
27 *220:22 *221:22 0.0186254
*RES
1 *11515:DO[24] *221:11 10.95 
2 *221:11 *721:DIODE 1.6 
3 *221:11 *221:20 22.115 
4 *221:20 *221:22 230.115 
5 *221:22 *221:24 2 
6 *221:24 *221:26 106.02 
7 *221:26 *221:32 16.345 
8 *221:32 *11301:A1 1.6 
9 *221:32 *720:DIODE 3.43 
*END

*D_NET *222 0.0734454
*CONN
*I *723:DIODE I *D sky130_fd_sc_hd__diode_2
*I *11304:A1 I *D sky130_fd_sc_hd__o221a_2
*I *724:DIODE I *D sky130_fd_sc_hd__diode_2
*I *11515:DO[25] O *D CF_SRAM_1024x32
*CAP
1 *723:DIODE 0
2 *11304:A1 0.000318075
3 *724:DIODE 0
4 *11515:DO[25] 0.000803705
5 *222:40 0.00138339
6 *222:36 0.00386418
7 *222:34 0.00435213
8 *222:28 0.00688337
9 *222:26 0.00690898
10 *222:17 0.00238258
11 *11304:A1 *612:20 0
12 *11304:A1 *613:12 8.53113e-06
13 *222:17 *11515:DI[24] 0.000369386
14 *222:17 *11515:DI[25] 0.000163332
15 *222:17 *394:60 0.00051382
16 *222:17 *463:36 0.000512407
17 *222:28 *11515:DI[10] 6.32345e-05
18 *222:28 *224:36 0.0200179
19 *222:28 *241:53 0
20 *222:28 *246:69 0.00358738
21 *222:28 *262:23 0.00357888
22 *222:28 *363:66 0.00185604
23 *222:34 *224:40 0.00240189
24 *222:36 *224:40 0.00858177
25 *222:40 *11615:A 0
26 *222:40 *247:27 0.000450712
27 *222:40 *247:43 4.0896e-05
28 *222:40 *478:18 0
29 *222:40 *612:20 0
30 *11304:A2 *11304:A1 1.88656e-05
31 *11304:B2 *11304:A1 5.18317e-06
32 *3:25 *222:28 0.000110459
33 *113:10 *222:28 0
34 *143:20 *222:28 0
35 *164:12 *222:28 0.00338148
36 *165:130 *11304:A1 0.000107923
37 *165:134 *11304:A1 0.000151519
38 *171:79 *222:40 8.28979e-05
39 *173:110 *11304:A1 4.82919e-05
40 *204:10 *222:28 0.000496276
*RES
1 *11515:DO[25] *222:17 21.31 
2 *222:17 *724:DIODE 1.6 
3 *222:17 *222:26 17.63 
4 *222:26 *222:28 225.78 
5 *222:28 *222:34 39.5525 
6 *222:34 *222:36 77.9025 
7 *222:36 *222:40 20.21 
8 *222:40 *11304:A1 12.655 
9 *222:40 *723:DIODE 3.6 
*END

*D_NET *223 0.0898575
*CONN
*I *725:DIODE I *D sky130_fd_sc_hd__diode_2
*I *11307:A1 I *D sky130_fd_sc_hd__o221a_2
*I *726:DIODE I *D sky130_fd_sc_hd__diode_2
*I *11515:DO[26] O *D CF_SRAM_1024x32
*CAP
1 *725:DIODE 4.39167e-05
2 *11307:A1 0.00054336
3 *726:DIODE 0
4 *11515:DO[26] 0.000795266
5 *223:32 0.00152467
6 *223:28 0.0027708
7 *223:26 0.00183342
8 *223:24 0.00497128
9 *223:22 0.00647258
10 *223:13 0.00229657
11 *11307:A1 *11330:A 1.01851e-05
12 *11307:A1 *11332:A 7.96104e-06
13 *11307:A1 *11617:A 0
14 *11307:A1 *614:16 6.54107e-05
15 *223:13 *11515:DI[26] 0.000497022
16 *223:22 *1046:DIODE 3.68704e-05
17 *223:22 *11232:A0 3.84788e-05
18 *223:22 *294:32 0.000121541
19 *223:22 *301:37 5.69601e-06
20 *223:24 *225:26 0.0212585
21 *223:24 *327:25 0.00100952
22 *223:28 *228:26 0.000658214
23 *223:28 *602:14 0.010598
24 *223:32 *11332:A 0.000238605
25 *223:32 *11507:A 0
26 *223:32 *228:32 0
27 *11232:S *223:22 2.49909e-05
28 *11283:S *223:32 0.000358257
29 *11307:B2 *11307:A1 4.84982e-06
30 *11319:B2 *223:32 0
31 *132:8 *223:22 8.35106e-05
32 *145:41 *223:28 0.000142646
33 *165:147 *11307:A1 0.000156758
34 *170:102 *11307:A1 0.000404832
35 *170:106 *11307:A1 0.000115368
36 *173:110 *725:DIODE 8.65905e-05
37 *173:125 *11307:A1 5.84698e-05
38 *175:14 *223:28 0.00128195
39 *221:22 *223:24 0.0196873
40 *221:26 *223:28 0.0116543
*RES
1 *11515:DO[26] *223:13 12.045 
2 *223:13 *726:DIODE 1.6 
3 *223:13 *223:22 21.77 
4 *223:22 *223:24 248.22 
5 *223:24 *223:26 2 
6 *223:26 *223:28 116.37 
7 *223:28 *223:32 14.345 
8 *223:32 *11307:A1 8.13527 
9 *223:32 *725:DIODE 4.395 
*END

*D_NET *224 0.0928154
*CONN
*I *11310:A1 I *D sky130_fd_sc_hd__o221a_2
*I *727:DIODE I *D sky130_fd_sc_hd__diode_2
*I *728:DIODE I *D sky130_fd_sc_hd__diode_2
*I *11515:DO[27] O *D CF_SRAM_1024x32
*CAP
1 *11310:A1 0.000347095
2 *727:DIODE 0
3 *728:DIODE 0
4 *11515:DO[27] 0.000973621
5 *224:48 0.0018073
6 *224:40 0.00364356
7 *224:38 0.00218336
8 *224:36 0.00464456
9 *224:34 0.00595932
10 *224:13 0.00228838
11 *11310:A1 *11617:A 0
12 *224:13 *1176:DIODE 4.66108e-05
13 *224:13 *11515:DI[27] 0.000163823
14 *224:34 *11220:A1 9.60582e-07
15 *224:34 *299:18 0.00110793
16 *224:34 *301:37 0.000709573
17 *224:34 *329:35 0.000397621
18 *224:34 *329:37 0.00014294
19 *224:34 *329:39 0.000144455
20 *224:34 *329:41 0.000329173
21 *224:34 *329:43 4.66108e-05
22 *224:34 *363:66 0.000153582
23 *224:36 *11202:A 0.0026371
24 *224:36 *239:69 5.50819e-05
25 *224:36 *239:77 0.000210535
26 *224:36 *244:19 0.00217959
27 *224:36 *244:21 0.000171154
28 *224:36 *244:23 2.69493e-05
29 *224:36 *263:23 0.00369773
30 *224:36 *363:66 0.0013931
31 *224:36 *563:38 0.00186832
32 *224:40 *229:42 0.0140435
33 *224:48 *11287:A1 0
34 *224:48 *11330:A 0
35 *224:48 *474:46 0
36 *224:48 *614:16 0
37 *11307:B2 *224:48 0
38 *11313:A2 *11310:A1 4.82919e-05
39 *11313:C1 *11310:A1 4.82919e-05
40 *11322:B1 *11310:A1 0.000526305
41 *11322:C1 *11310:A1 3.59531e-06
42 *3:25 *224:36 0.000110459
43 *118:104 *11310:A1 2.04591e-05
44 *142:10 *224:34 8.65559e-05
45 *164:12 *224:36 2.50049e-05
46 *165:147 *11310:A1 6.38806e-05
47 *165:147 *224:48 8.43255e-05
48 *170:106 *11310:A1 0.000215854
49 *170:127 *11310:A1 0.000402322
50 *173:125 *11310:A1 0.000120655
51 *173:125 *224:48 0.000153816
52 *185:14 *224:40 0.000347511
53 *200:46 *224:36 9.29448e-05
54 *200:66 *224:34 0.000324775
55 *200:66 *224:36 0.00721101
56 *203:44 *224:34 0.000112177
57 *204:10 *224:34 0.000126861
58 *204:10 *224:36 0.000315238
59 *222:28 *224:36 0.0200179
60 *222:34 *224:40 0.00240189
61 *222:36 *224:40 0.00858177
*RES
1 *11515:DO[27] *224:13 13.665 
2 *224:13 *728:DIODE 1.6 
3 *224:13 *224:34 36.9525 
4 *224:34 *224:36 234.833 
5 *224:36 *224:38 2 
6 *224:38 *224:40 127.755 
7 *224:40 *224:48 23.44 
8 *224:48 *727:DIODE 1.6 
9 *224:48 *11310:A1 10.077 
*END

*D_NET *225 0.0967274
*CONN
*I *11313:A1 I *D sky130_fd_sc_hd__o221a_2
*I *729:DIODE I *D sky130_fd_sc_hd__diode_2
*I *730:DIODE I *D sky130_fd_sc_hd__diode_2
*I *11515:DO[28] O *D CF_SRAM_1024x32
*CAP
1 *11313:A1 0.000315558
2 *729:DIODE 0
3 *730:DIODE 0
4 *11515:DO[28] 0.000968767
5 *225:36 0.000919039
6 *225:30 0.00359451
7 *225:28 0.00299103
8 *225:26 0.00525421
9 *225:24 0.00661131
10 *225:11 0.00232587
11 *11313:A1 *11432:A 0
12 *11313:A1 *615:12 0.000326837
13 *225:11 *1194:DIODE 2.72318e-05
14 *225:11 *11515:DI[28] 0.000375362
15 *225:11 *332:65 2.62017e-05
16 *225:24 *998:DIODE 4.51961e-05
17 *225:24 *332:65 2.01259e-05
18 *225:26 *226:26 0.0222577
19 *225:26 *309:29 0.000315075
20 *225:26 *327:25 0.000596687
21 *225:30 *228:26 0.0130052
22 *225:30 *393:16 0.00833819
23 *225:30 *504:14 0.000867971
24 *225:36 *891:DIODE 0
25 *225:36 *11432:A 0.000343319
26 *225:36 *250:29 0
27 *225:36 *363:16 1.88656e-05
28 *225:36 *463:18 8.50738e-05
29 *697:DIODE *225:36 3.68448e-05
30 *11313:B1 *225:36 0
31 *11313:B2 *11313:A1 4.18603e-06
32 *11313:B2 *225:36 0
33 *11313:C1 *11313:A1 0
34 *145:41 *225:30 0.000233806
35 *175:14 *225:30 6.51361e-06
36 *179:18 *225:30 0.00432026
37 *193:12 *225:30 0.000702223
38 *195:18 *225:36 0.000322884
39 *203:38 *225:24 2.20608e-05
40 *214:22 *225:26 0.000119655
41 *217:22 *225:26 5.86246e-05
42 *221:22 *225:26 1.25877e-05
43 *223:24 *225:26 0.0212585
*RES
1 *11515:DO[28] *225:11 14.325 
2 *225:11 *730:DIODE 1.6 
3 *225:11 *225:24 19.475 
4 *225:24 *225:26 265.05 
5 *225:26 *225:28 2 
6 *225:28 *225:30 138.105 
7 *225:30 *225:36 16.6 
8 *225:36 *729:DIODE 1.6 
9 *225:36 *11313:A1 10.025 
*END

*D_NET *226 0.0955987
*CONN
*I *734:DIODE I *D sky130_fd_sc_hd__diode_2
*I *731:DIODE I *D sky130_fd_sc_hd__diode_2
*I *11316:A1 I *D sky130_fd_sc_hd__o221a_2
*I *732:DIODE I *D sky130_fd_sc_hd__diode_2
*I *11515:DO[29] O *D CF_SRAM_1024x32
*CAP
1 *734:DIODE 3.05093e-05
2 *731:DIODE 0
3 *11316:A1 0.000103368
4 *732:DIODE 0.000422775
5 *11515:DO[29] 0.000886331
6 *226:51 0.000424367
7 *226:34 0.00131303
8 *226:30 0.00316105
9 *226:28 0.00234524
10 *226:26 0.00546335
11 *226:24 0.00658527
12 *226:7 0.00243103
13 *732:DIODE *297:36 0.000307681
14 *734:DIODE *612:28 0.000159741
15 *734:DIODE *614:16 0.000148084
16 *11316:A1 *504:12 0
17 *226:7 *11515:DI[29] 0
18 *226:7 *229:28 0.000489532
19 *226:24 *1091:DIODE 0.000153816
20 *226:24 *229:28 4.41506e-05
21 *226:24 *304:59 0
22 *226:24 *308:42 3.57349e-05
23 *226:24 *308:44 0.00014294
24 *226:24 *323:35 5.44784e-05
25 *226:26 *309:29 0.000321717
26 *226:26 *326:27 0.00229983
27 *226:30 *229:42 0.00104211
28 *226:30 *247:23 0.0018228
29 *226:30 *603:12 0.0119748
30 *226:34 *11511:A 9.86058e-05
31 *226:34 *367:18 0.000145042
32 *226:34 *369:18 0.000283853
33 *226:34 *472:18 4.4693e-05
34 *226:34 *504:12 0
35 *226:51 *11511:A 8.53113e-06
36 *226:51 *504:12 6.03272e-05
37 *226:51 *612:28 0.000273972
38 *226:51 *614:16 0.000867485
39 *11301:B2 *226:51 0.000568034
40 *11310:B2 *226:34 0
41 *11316:A2 *11316:A1 3.59531e-06
42 *11316:B2 *11316:A1 4.69718e-05
43 *11316:B2 *226:34 4.32268e-05
44 *113:10 *226:26 0.001559
45 *143:12 *226:30 0.0105756
46 *175:10 *226:34 0.000113591
47 *217:22 *226:26 0.0164848
48 *225:26 *226:26 0.0222577
*RES
1 *11515:DO[29] *226:7 13.53 
2 *226:7 *732:DIODE 11.105 
3 *226:7 *226:24 17.975 
4 *226:24 *226:26 266.325 
5 *226:26 *226:28 2 
6 *226:28 *226:30 128.79 
7 *226:30 *226:34 17.5325 
8 *226:34 *11316:A1 5.3625 
9 *226:34 *226:51 12.2675 
10 *226:51 *731:DIODE 1.6 
11 *226:51 *734:DIODE 3.085 
*END

*D_NET *227 0.0343387
*CONN
*I *736:DIODE I *D sky130_fd_sc_hd__diode_2
*I *11225:A1 I *D sky130_fd_sc_hd__o221a_1
*I *735:DIODE I *D sky130_fd_sc_hd__diode_2
*I *11515:DO[2] O *D CF_SRAM_1024x32
*CAP
1 *736:DIODE 0.000403743
2 *11225:A1 0
3 *735:DIODE 0.000221189
4 *11515:DO[2] 0.000164701
5 *227:27 0.0121691
6 *227:7 0.0125164
7 *736:DIODE *11515:DI[2] 0.000317484
8 *736:DIODE *391:68 0.000115779
9 *227:7 *11515:DI[2] 0.000148874
10 *227:27 *234:25 0.000288785
11 *227:27 *235:9 0.000941129
12 *227:27 *365:48 0.000874187
13 *227:27 *369:41 3.97211e-05
14 *227:27 *383:64 3.97211e-05
15 *227:27 *393:12 0.000102021
16 *11219:A2 *735:DIODE 5.53249e-06
17 *11219:A2 *227:27 0.000170485
18 *11219:B1 *735:DIODE 8.5841e-05
19 *11219:B2 *227:27 0
20 *11225:B2 *227:27 0.000150083
21 *11269:A1 *227:27 0.000287742
22 *3:23 *227:27 0.00465102
23 *119:48 *735:DIODE 8.65905e-05
24 *133:20 *227:27 0.000264698
25 *135:22 *227:27 0.000266358
26 *201:88 *735:DIODE 2.7441e-05
27 *205:29 *227:27 0
*RES
1 *11515:DO[2] *227:7 2.9925 
2 *227:7 *227:27 41.3293 
3 *227:27 *735:DIODE 7.425 
4 *227:27 *11225:A1 3.6 
5 *227:7 *736:DIODE 8.95 
*END

*D_NET *228 0.09818
*CONN
*I *738:DIODE I *D sky130_fd_sc_hd__diode_2
*I *11319:A1 I *D sky130_fd_sc_hd__o221a_2
*I *737:DIODE I *D sky130_fd_sc_hd__diode_2
*I *11515:DO[30] O *D CF_SRAM_1024x32
*CAP
1 *738:DIODE 0.000190421
2 *11319:A1 0.000299936
3 *737:DIODE 0
4 *11515:DO[30] 0.000496385
5 *228:32 0.000809087
6 *228:26 0.00287988
7 *228:24 0.00237073
8 *228:22 0.0161899
9 *228:20 0.0163641
10 *228:12 0.000861039
11 *228:4 0
12 *738:DIODE *1070:DIODE 0.000118081
13 *738:DIODE *456:43 5.23362e-05
14 *738:DIODE *558:129 0.000107634
15 *738:DIODE *631:68 3.23391e-05
16 *228:12 *11515:DI[30] 0.000529536
17 *228:20 *1068:DIODE 6.33103e-05
18 *228:20 *456:43 4.1977e-05
19 *228:20 *558:129 0.000185405
20 *228:20 *631:68 7.80528e-05
21 *228:22 *396:102 0.000218215
22 *228:22 *407:36 6.32332e-05
23 *228:22 *418:48 0.000240801
24 *228:22 *427:50 4.01535e-05
25 *228:22 *476:62 0.00339735
26 *228:22 *476:64 0.00469928
27 *228:22 *485:86 0.00198477
28 *228:22 *552:30 3.69766e-05
29 *228:22 *552:50 0.000549839
30 *228:22 *631:68 0.00033772
31 *228:26 *393:12 0.00166029
32 *228:26 *393:16 0.000176551
33 *228:26 *602:14 0.000309677
34 *228:32 *11507:A 0.000786156
35 *228:32 *372:18 6.60326e-05
36 *11251:S *228:12 0.000197428
37 *11283:S *228:32 0
38 *11319:B1 *11319:A1 0
39 *11319:B2 *11319:A1 0.000171649
40 *11319:B2 *228:32 0.000595005
41 *11322:C1 *11319:A1 2.36616e-05
42 *122:93 *11319:A1 4.60584e-05
43 *127:14 *228:26 0.000713543
44 *141:24 *738:DIODE 4.77757e-05
45 *145:41 *228:26 0.000206122
46 *175:14 *228:26 5.87768e-05
47 *200:22 *228:22 0.000857507
48 *201:167 *228:22 0.0137065
49 *221:26 *228:26 0.0116554
50 *223:28 *228:26 0.000658214
51 *223:32 *228:32 0
52 *225:30 *228:26 0.0130052
*RES
1 *11515:DO[30] *228:4 0.147 
2 *11515:DO[30] *228:12 11.42 
3 *228:12 *228:20 7.975 
4 *228:20 *228:22 277.8 
5 *228:22 *228:24 2 
6 *228:24 *228:26 136.725 
7 *228:26 *228:32 17.62 
8 *228:32 *737:DIODE 1.6 
9 *228:32 *11319:A1 5.68 
10 *228:12 *738:DIODE 6.81 
*END

*D_NET *229 0.10633
*CONN
*I *740:DIODE I *D sky130_fd_sc_hd__diode_2
*I *741:DIODE I *D sky130_fd_sc_hd__diode_2
*I *739:DIODE I *D sky130_fd_sc_hd__diode_2
*I *11322:A1 I *D sky130_fd_sc_hd__o221a_2
*I *11515:DO[31] O *D CF_SRAM_1024x32
*CAP
1 *740:DIODE 0.000464504
2 *741:DIODE 0.000103971
3 *739:DIODE 0
4 *11322:A1 6.7474e-05
5 *11515:DO[31] 0.000317535
6 *229:71 0.0011252
7 *229:46 0.00213879
8 *229:42 0.00418913
9 *229:40 0.00440796
10 *229:34 0.00574226
11 *229:32 0.0049726
12 *229:28 0.00218338
13 *229:12 0.00246616
14 *229:4 0
15 *740:DIODE *11515:DI[31] 0.000154981
16 *740:DIODE *376:48 9.84957e-05
17 *11322:A1 *615:12 2.64334e-05
18 *229:12 *11515:DI[31] 4.60892e-05
19 *229:28 *1079:DIODE 4.77757e-05
20 *229:28 *1087:DIODE 7.20899e-05
21 *229:28 *296:40 0.000770485
22 *229:28 *297:36 0.00130008
23 *229:28 *376:48 0.00143742
24 *229:28 *391:88 0.000246743
25 *229:28 *629:30 1.1392e-05
26 *229:32 *11226:A0 9.30717e-05
27 *229:32 *296:40 0.000462996
28 *229:32 *326:35 0.000195231
29 *229:32 *326:58 0.000146055
30 *229:34 *11262:A1 0.000157913
31 *229:34 *243:17 0.00605393
32 *229:34 *326:58 0.000242965
33 *229:34 *552:16 0.000954869
34 *229:34 *552:24 0.000882146
35 *229:34 *555:8 0.0104419
36 *229:40 *596:12 0.00252619
37 *229:42 *247:23 0.00250436
38 *229:42 *603:12 0.000110219
39 *229:46 *887:DIODE 0
40 *229:46 *11449:A 4.1461e-05
41 *229:46 *249:29 0
42 *229:46 *467:18 0
43 *229:46 *612:20 4.04619e-05
44 *229:71 *363:16 0
45 *697:DIODE *11322:A1 0
46 *697:DIODE *229:46 0
47 *11205:A *229:34 0.00235877
48 *11257:A1 *229:34 1.71207e-05
49 *11257:A1 *229:40 8.34139e-05
50 *11313:A2 *11322:A1 4.92229e-05
51 *11313:C1 *229:71 0.000308669
52 *11322:A2 *11322:A1 6.00413e-05
53 *11322:A2 *229:46 0.000275612
54 *112:10 *229:34 0.0052261
55 *112:10 *229:40 2.51747e-05
56 *121:18 *229:42 0.000674971
57 *134:8 *229:32 0.000241718
58 *134:8 *229:34 0.00717902
59 *143:12 *229:42 0.0107203
60 *145:60 *229:40 0.000581956
61 *149:22 *229:28 0.000128231
62 *153:24 *229:32 0.000104583
63 *153:24 *229:34 0.00151027
64 *157:16 *740:DIODE 9.16314e-05
65 *157:16 *229:28 0.00143908
66 *178:55 *229:42 0.000132057
67 *181:18 *229:46 9.03138e-05
68 *183:14 *741:DIODE 0.000162775
69 *185:14 *229:42 0.000717663
70 *195:18 *229:46 0
71 *200:22 *229:34 0.000143503
72 *203:59 *229:32 0.00047601
73 *203:65 *229:32 0.000366685
74 *212:23 *229:34 0.000300644
75 *224:40 *229:42 0.0140435
76 *226:7 *229:28 0.000489532
77 *226:24 *229:28 4.41506e-05
78 *226:30 *229:42 0.00104211
*RES
1 *11515:DO[31] *229:4 0.1225 
2 *11515:DO[31] *229:12 6.59 
3 *229:12 *229:28 48.0025 
4 *229:28 *229:32 14.835 
5 *229:32 *229:34 205.125 
6 *229:34 *229:40 32.5175 
7 *229:40 *229:42 150.525 
8 *229:42 *229:46 19.0625 
9 *229:46 *11322:A1 5.025 
10 *229:46 *229:71 4.8437 
11 *229:71 *739:DIODE 1.6 
12 *229:71 *741:DIODE 3.085 
13 *229:12 *740:DIODE 10.47 
*END

*D_NET *230 0.0315697
*CONN
*I *743:DIODE I *D sky130_fd_sc_hd__diode_2
*I *11228:A1 I *D sky130_fd_sc_hd__o221a_1
*I *742:DIODE I *D sky130_fd_sc_hd__diode_2
*I *11515:DO[3] O *D CF_SRAM_1024x32
*CAP
1 *743:DIODE 0.000463891
2 *11228:A1 0
3 *742:DIODE 0.000276161
4 *11515:DO[3] 0.000166376
5 *230:27 0.00693247
6 *230:7 0.00728658
7 *742:DIODE *515:14 0
8 *743:DIODE *11413:A 0
9 *743:DIODE *11515:DI[3] 0.000509897
10 *230:7 *11515:DI[3] 0.000255288
11 *230:27 *369:41 1.7635e-05
12 *11228:A2 *230:27 7.45302e-05
13 *11228:B2 *742:DIODE 4.18603e-06
14 *11228:B2 *230:27 2.63122e-05
15 *11237:A2 *230:27 0.000177662
16 *11240:C1 *742:DIODE 9.50342e-06
17 *11240:C1 *230:27 0.000210151
18 *3:23 *230:27 0.00101762
19 *123:43 *230:27 0.000143695
20 *197:18 *230:27 7.96104e-06
21 *201:71 *742:DIODE 0.000150653
22 *201:79 *742:DIODE 0.000194267
23 *216:29 *230:27 0.0136449
*RES
1 *11515:DO[3] *230:7 3.2475 
2 *230:7 *230:27 38.8112 
3 *230:27 *742:DIODE 7.425 
4 *230:27 *11228:A1 3.6 
5 *230:7 *743:DIODE 8.95 
*END

*D_NET *231 0.0349935
*CONN
*I *746:DIODE I *D sky130_fd_sc_hd__diode_2
*I *11231:A1 I *D sky130_fd_sc_hd__o221a_1
*I *745:DIODE I *D sky130_fd_sc_hd__diode_2
*I *11515:DO[4] O *D CF_SRAM_1024x32
*CAP
1 *746:DIODE 0.000514577
2 *11231:A1 1.16927e-05
3 *745:DIODE 0.000326931
4 *11515:DO[4] 0.000304267
5 *231:21 0.000939665
6 *231:19 0.0011072
7 *231:13 0.00215878
8 *231:11 0.00247146
9 *745:DIODE *11391:A 2.97004e-06
10 *745:DIODE *11632:A 0
11 *746:DIODE *11515:BEN[4] 1.26248e-05
12 *746:DIODE *380:28 0
13 *231:11 *11515:DI[4] 3.58019e-05
14 *231:11 *369:41 0.000127855
15 *231:11 *380:28 1.11884e-05
16 *231:13 *369:41 0.000720513
17 *231:19 *235:19 0.00327626
18 *231:21 *11243:A1 0.000318113
19 *231:21 *11391:A 4.40899e-05
20 *231:21 *11632:A 0
21 *11231:A2 *745:DIODE 8.53113e-06
22 *11231:A2 *231:21 0.000303559
23 *11231:B2 *745:DIODE 9.66021e-05
24 *11231:B2 *11231:A1 4.82863e-05
25 *11231:C1 *745:DIODE 2.11084e-05
26 *11234:A2 *231:21 8.09021e-06
27 *11234:B2 *231:21 0.000548062
28 *11240:B2 *231:21 0
29 *11243:B2 *231:21 0.000844
30 *11324:RESET_B *745:DIODE 3.0286e-05
31 *11324:RESET_B *11231:A1 4.66108e-05
32 *11390:A *745:DIODE 4.66742e-05
33 *121:18 *231:19 0.000138316
34 *125:18 *231:19 8.05167e-05
35 *137:16 *231:19 0.00338614
36 *147:16 *746:DIODE 0.000134266
37 *156:10 *231:13 0.00746181
38 *158:10 *746:DIODE 0
39 *197:18 *231:11 0.000245591
40 *197:18 *231:13 0.00872524
41 *201:126 *231:21 1.7902e-05
42 *205:29 *231:19 0.000417875
*RES
1 *11515:DO[4] *231:11 8.2775 
2 *231:11 *231:13 98.28 
3 *231:13 *231:19 36.19 
4 *231:19 *231:21 17.445 
5 *231:21 *745:DIODE 8.025 
6 *231:21 *11231:A1 4.05 
7 *231:11 *746:DIODE 10.605 
*END

*D_NET *232 0.0311565
*CONN
*I *748:DIODE I *D sky130_fd_sc_hd__diode_2
*I *747:DIODE I *D sky130_fd_sc_hd__diode_2
*I *11234:A1 I *D sky130_fd_sc_hd__o221a_1
*I *11515:DO[5] O *D CF_SRAM_1024x32
*CAP
1 *748:DIODE 0.00027437
2 *747:DIODE 0
3 *11234:A1 0.000139456
4 *11515:DO[5] 0.000470596
5 *232:35 0.00260385
6 *232:23 0.0039474
7 *232:21 0.00205904
8 *232:7 0.001321
9 *748:DIODE *801:DIODE 4.66108e-05
10 *748:DIODE *241:63 5.74791e-05
11 *748:DIODE *241:72 0.000153816
12 *748:DIODE *376:28 9.22201e-05
13 *11234:A1 *625:20 0.000234785
14 *232:7 *11515:DI[5] 0.000339757
15 *232:7 *376:28 0.000123042
16 *232:21 *234:17 4.41506e-05
17 *232:21 *369:28 3.97719e-05
18 *232:21 *378:81 0.000396092
19 *232:21 *378:89 0.0013584
20 *232:21 *389:36 0.00017841
21 *232:21 *558:127 0.00139192
22 *232:23 *11515:DI[12] 6.6649e-05
23 *232:23 *233:19 0.00627831
24 *232:23 *378:81 2.3057e-05
25 *232:23 *389:24 0.000150181
26 *232:23 *389:36 0.00252411
27 *232:23 *558:69 8.12667e-05
28 *232:23 *558:81 7.25306e-05
29 *232:35 *11249:A1 8.09548e-05
30 *232:35 *598:12 3.42046e-06
31 *232:35 *625:20 0.000316614
32 *11249:B2 *232:35 0.00125161
33 *11260:A1 *232:23 0.00237132
34 *11263:A1 *232:35 2.05056e-05
35 *11263:B2 *232:35 5.57428e-05
36 *11269:B2 *232:35 0.00121498
37 *131:16 *232:35 5.34335e-05
38 *140:76 *232:35 0.000457631
39 *145:60 *232:35 0.000142669
40 *148:38 *232:23 0.000639101
41 *154:8 *232:7 0
42 *210:11 *232:23 8.02497e-05
*RES
1 *11515:DO[5] *232:7 8.2125 
2 *232:7 *232:21 28.2375 
3 *232:21 *232:23 73.9275 
4 *232:23 *232:35 48.015 
5 *232:35 *11234:A1 4.645 
6 *232:35 *747:DIODE 1.6 
7 *232:7 *748:DIODE 6.19 
*END

*D_NET *233 0.0318542
*CONN
*I *11237:A1 I *D sky130_fd_sc_hd__o221a_2
*I *11515:DO[6] O *D CF_SRAM_1024x32
*CAP
1 *11237:A1 7.78578e-05
2 *11515:DO[6] 0.000621728
3 *233:27 0.000925604
4 *233:19 0.00237957
5 *233:17 0.00215355
6 *11237:A1 *625:20 0.000194538
7 *233:17 *11515:DI[6] 8.88631e-05
8 *233:17 *353:10 0.00109851
9 *233:17 *372:28 5.74791e-05
10 *233:17 *387:58 0.00103426
11 *233:17 *389:36 3.3516e-05
12 *233:17 *549:32 0.000155601
13 *233:19 *11204:C 0.00222408
14 *233:19 *378:81 0.0041616
15 *233:27 *393:12 0.00414689
16 *11237:B1 *11237:A1 1.99427e-05
17 *11240:B2 *233:27 5.71093e-06
18 *11243:B2 *233:27 0.000189975
19 *11265:A0 *233:17 7.83396e-05
20 *3:23 *233:27 0.000321076
21 *127:14 *233:27 0.00414573
22 *135:22 *11237:A1 0.000230802
23 *135:22 *233:27 0.000507017
24 *137:8 *233:17 5.69803e-05
25 *148:38 *233:19 0.000157826
26 *156:8 *233:17 0.0003708
27 *201:132 *233:27 2.99555e-05
28 *206:11 *233:19 0.000108106
29 *232:23 *233:19 0.00627831
*RES
1 *11515:DO[6] *233:17 26.7375 
2 *233:17 *233:19 76.86 
3 *233:19 *233:27 48.28 
4 *233:27 *11237:A1 6.12 
*END

*D_NET *234 0.0312303
*CONN
*I *11240:A1 I *D sky130_fd_sc_hd__o221a_2
*I *11515:DO[7] O *D CF_SRAM_1024x32
*CAP
1 *11240:A1 0.000492173
2 *11515:DO[7] 0.000841814
3 *234:25 0.0014821
4 *234:19 0.00258296
5 *234:17 0.00243485
6 *234:17 *11515:DI[7] 0.00022953
7 *234:17 *369:28 0.000511165
8 *234:17 *378:81 0.000815173
9 *234:17 *387:56 0.000496698
10 *234:17 *558:127 0.000287266
11 *234:19 *11407:A 0.00258388
12 *234:19 *383:50 0.00345857
13 *234:19 *588:22 5.21018e-05
14 *234:25 *588:18 5.93482e-05
15 *234:25 *611:12 0
16 *11240:A2 *11240:A1 0.000103185
17 *11240:B2 *11240:A1 0.000929178
18 *11243:B2 *234:25 5.062e-06
19 *127:14 *234:25 0.000187932
20 *133:20 *234:25 0.0042173
21 *135:22 *234:25 0.00359517
22 *152:14 *234:19 0.00512328
23 *201:167 *234:19 0.000408665
24 *227:27 *234:25 0.000288785
25 *232:21 *234:17 4.41506e-05
*RES
1 *11515:DO[7] *234:17 26.0775 
2 *234:17 *234:19 70.995 
3 *234:19 *234:25 45.85 
4 *234:25 *11240:A1 14.67 
*END

*D_NET *235 0.0223892
*CONN
*I *11243:A1 I *D sky130_fd_sc_hd__o221a_2
*I *11515:DO[8] O *D CF_SRAM_1024x32
*CAP
1 *11243:A1 0.000628252
2 *11515:DO[8] 2.96471e-05
3 *235:19 0.00126004
4 *235:9 0.00310379
5 *235:7 0.00250165
6 *235:7 *365:46 6.99636e-06
7 *235:7 *367:40 6.52504e-05
8 *235:9 *367:42 1.58435e-05
9 *11231:B2 *11243:A1 0
10 *11234:A2 *11243:A1 0.000149545
11 *11234:B2 *11243:A1 0.000533644
12 *11269:A1 *235:19 0.000961053
13 *121:18 *235:19 0.00327458
14 *137:10 *235:9 0.00126535
15 *137:10 *235:19 0.000998558
16 *139:16 *235:9 0.00149185
17 *205:29 *235:19 0.000243824
18 *209:21 *235:9 0.00132379
19 *227:27 *235:9 0.000941129
20 *231:19 *235:19 0.00327626
21 *231:21 *11243:A1 0.000318113
*RES
1 *11515:DO[8] *235:7 2.7425 
2 *235:7 *235:9 56.9325 
3 *235:9 *235:19 45.4225 
4 *235:19 *11243:A1 17.22 
*END

*D_NET *236 0.0213885
*CONN
*I *11249:A1 I *D sky130_fd_sc_hd__o221a_2
*I *11515:DO[9] O *D CF_SRAM_1024x32
*CAP
1 *11249:A1 0.00123823
2 *11515:DO[9] 0.000615849
3 *236:11 0.00260118
4 *236:9 0.0019788
5 *11249:A1 *595:16 0
6 *11249:A1 *611:12 0.00232935
7 *236:9 *11515:DI[9] 8.25299e-05
8 *236:9 *365:28 0.00020296
9 *236:11 *11204:D 0.00205425
10 *236:11 *387:56 0.00201571
11 *236:11 *588:22 0.0054015
12 *11243:B2 *11249:A1 0.000376582
13 *11249:B2 *11249:A1 0.000616118
14 *11254:C1 *11249:A1 4.41854e-05
15 *11263:A1 *11249:A1 0.0010475
16 *131:16 *11249:A1 0
17 *206:11 *236:11 0.000702813
18 *232:35 *11249:A1 8.09548e-05
*RES
1 *11515:DO[9] *236:9 11.3675 
2 *236:9 *236:11 62.325 
3 *236:11 *11249:A1 45.52 
*END

*D_NET *237 0.0549035
*CONN
*I *754:DIODE I *D sky130_fd_sc_hd__diode_2
*I *753:DIODE I *D sky130_fd_sc_hd__diode_2
*I *752:DIODE I *D sky130_fd_sc_hd__diode_2
*I *749:DIODE I *D sky130_fd_sc_hd__diode_2
*I *750:DIODE I *D sky130_fd_sc_hd__diode_2
*I *11216:A1 I *D sky130_fd_sc_hd__mux2_2
*I *751:DIODE I *D sky130_fd_sc_hd__diode_2
*I *11524:DO[0] O *D CF_SRAM_1024x32
*CAP
1 *754:DIODE 0.000126768
2 *753:DIODE 0
3 *752:DIODE 0
4 *749:DIODE 4.91232e-05
5 *750:DIODE 0
6 *11216:A1 0
7 *751:DIODE 0.000616144
8 *11524:DO[0] 0.000113802
9 *237:64 0.000247721
10 *237:57 0.000626848
11 *237:27 0.000779722
12 *237:25 0.00020726
13 *237:23 0.00106576
14 *237:17 0.0144159
15 *237:13 0.014016
16 *237:7 0.00119271
17 *749:DIODE *245:26 0.000182964
18 *751:DIODE *265:63 8.23457e-05
19 *237:7 *11524:ScanInCC 0
20 *237:7 *11524:DI[0] 6.58339e-05
21 *237:7 *396:50 2.49909e-05
22 *237:13 *11524:DI[1] 0.000172276
23 *237:13 *247:15 0.000816208
24 *237:13 *248:21 1.79536e-05
25 *237:13 *259:17 1.79536e-05
26 *237:13 *391:30 3.97719e-05
27 *237:13 *396:30 3.97719e-05
28 *237:17 *259:17 0
29 *237:17 *262:17 0
30 *237:17 *391:30 0
31 *237:17 *391:68 0
32 *237:23 *246:69 0.00286132
33 *237:23 *259:19 0.00118547
34 *237:57 *11524:ScanInCC 0
35 *237:57 *396:50 0.000348739
36 *11216:A0 *237:27 5.74791e-05
37 *11216:S *751:DIODE 0.000263595
38 *11216:S *237:27 3.57349e-05
39 *11236:A0 *751:DIODE 4.66108e-05
40 *11524:EN *237:13 0.000631256
41 *111:10 *749:DIODE 0.000182964
42 *135:8 *751:DIODE 1.90662e-05
43 *143:80 *751:DIODE 4.66108e-05
44 *202:84 *751:DIODE 3.30507e-05
45 *202:93 *751:DIODE 0.000153816
46 *202:137 *237:17 0.01412
*RES
1 *11524:DO[0] *237:7 2.0025 
2 *237:7 *237:13 22.3675 
3 *237:13 *237:17 40.6255 
4 *237:17 *237:23 37.2275 
5 *237:23 *237:25 0.45 
6 *237:25 *237:27 1.83 
7 *237:27 *751:DIODE 8.95 
8 *237:27 *11216:A1 1.6 
9 *237:25 *750:DIODE 1.6 
10 *237:23 *749:DIODE 7.745 
11 *237:7 *237:57 8.385 
12 *237:57 *752:DIODE 1.6 
13 *237:57 *237:64 1.485 
14 *237:64 *753:DIODE 1.6 
15 *237:64 *754:DIODE 3.085 
*END

*D_NET *238 0.0548355
*CONN
*I *11252:A1 I *D sky130_fd_sc_hd__mux2_1
*I *758:DIODE I *D sky130_fd_sc_hd__diode_2
*I *759:DIODE I *D sky130_fd_sc_hd__diode_2
*I *760:DIODE I *D sky130_fd_sc_hd__diode_2
*I *762:DIODE I *D sky130_fd_sc_hd__diode_2
*I *761:DIODE I *D sky130_fd_sc_hd__diode_2
*I *757:DIODE I *D sky130_fd_sc_hd__diode_2
*I *769:DIODE I *D sky130_fd_sc_hd__diode_2
*I *768:DIODE I *D sky130_fd_sc_hd__diode_2
*I *766:DIODE I *D sky130_fd_sc_hd__diode_2
*I *764:DIODE I *D sky130_fd_sc_hd__diode_2
*I *763:DIODE I *D sky130_fd_sc_hd__diode_2
*I *765:DIODE I *D sky130_fd_sc_hd__diode_2
*I *11524:DO[10] O *D CF_SRAM_1024x32
*CAP
1 *11252:A1 0
2 *758:DIODE 0
3 *759:DIODE 0
4 *760:DIODE 0
5 *762:DIODE 0.000131942
6 *761:DIODE 0
7 *757:DIODE 0.000155279
8 *769:DIODE 0.000140955
9 *768:DIODE 0
10 *766:DIODE 0
11 *764:DIODE 0
12 *763:DIODE 0
13 *765:DIODE 0.00027405
14 *11524:DO[10] 0.000194788
15 *238:109 0.00025871
16 *238:107 0.000222883
17 *238:105 0.000288247
18 *238:103 0.000543843
19 *238:85 0.000162883
20 *238:81 0.013886
21 *238:69 0.0152877
22 *238:43 0.000286005
23 *238:36 0.000298687
24 *238:29 0.000307274
25 *238:22 0.00036949
26 *238:11 0.000887097
27 *238:7 0.00235296
28 *765:DIODE *363:38 0.000262805
29 *765:DIODE *576:8 0.000201028
30 *238:7 *11524:BEN[9] 0
31 *238:11 *11524:vpwrac 6.33103e-05
32 *238:11 *356:20 2.62017e-05
33 *238:11 *363:38 0
34 *238:69 *247:15 0.000185042
35 *238:69 *249:23 0.000602799
36 *238:69 *254:13 0.000232432
37 *238:69 *266:13 0.000183624
38 *238:69 *266:21 2.62637e-05
39 *238:69 *266:68 1.23136e-05
40 *238:69 *268:23 0.000731106
41 *238:69 *365:68 0.000131385
42 *238:69 *548:20 0.00162564
43 *238:69 *549:101 0.000141541
44 *238:81 *248:25 0.00580796
45 *238:81 *264:19 0.00653989
46 *238:81 *380:28 0.000866729
47 *238:85 *245:26 1.79536e-05
48 *238:103 *239:77 5.83121e-06
49 *238:103 *245:26 0.000173484
50 *675:DIODE *765:DIODE 4.77719e-05
51 *1203:DIODE *238:103 0.000225285
52 *1203:DIODE *238:105 3.57349e-05
53 *111:10 *238:85 1.93834e-05
54 *111:10 *238:103 0.000166716
55 *146:22 *238:105 0.000190712
56 *147:16 *238:105 0.000157386
57 *184:62 *238:11 0.000100659
58 *184:62 *238:22 5.69601e-06
*RES
1 *11524:DO[10] *238:7 3.0975 
2 *238:7 *238:11 6.585 
3 *238:11 *765:DIODE 6.52 
4 *238:11 *238:22 2.175 
5 *238:22 *763:DIODE 1.6 
6 *238:22 *238:29 1.485 
7 *238:29 *764:DIODE 1.6 
8 *238:29 *238:36 1.485 
9 *238:36 *766:DIODE 1.6 
10 *238:36 *238:43 1.485 
11 *238:43 *768:DIODE 1.6 
12 *238:43 *769:DIODE 3.085 
13 *238:7 *238:69 25.4664 
14 *238:69 *238:81 43.5723 
15 *238:81 *238:85 2.2325 
16 *238:85 *757:DIODE 3.43 
17 *238:85 *761:DIODE 1.6 
18 *238:81 *238:103 8.2625 
19 *238:103 *238:105 3.555 
20 *238:105 *238:107 1.14 
21 *238:107 *238:109 1.485 
22 *238:109 *762:DIODE 3.085 
23 *238:109 *760:DIODE 1.6 
24 *238:107 *759:DIODE 1.6 
25 *238:105 *758:DIODE 1.6 
26 *238:103 *11252:A1 1.6 
*END

*D_NET *239 0.0539597
*CONN
*I *775:DIODE I *D sky130_fd_sc_hd__diode_2
*I *773:DIODE I *D sky130_fd_sc_hd__diode_2
*I *771:DIODE I *D sky130_fd_sc_hd__diode_2
*I *11256:A1 I *D sky130_fd_sc_hd__mux2_1
*I *770:DIODE I *D sky130_fd_sc_hd__diode_2
*I *772:DIODE I *D sky130_fd_sc_hd__diode_2
*I *774:DIODE I *D sky130_fd_sc_hd__diode_2
*I *783:DIODE I *D sky130_fd_sc_hd__diode_2
*I *781:DIODE I *D sky130_fd_sc_hd__diode_2
*I *777:DIODE I *D sky130_fd_sc_hd__diode_2
*I *776:DIODE I *D sky130_fd_sc_hd__diode_2
*I *780:DIODE I *D sky130_fd_sc_hd__diode_2
*I *782:DIODE I *D sky130_fd_sc_hd__diode_2
*I *779:DIODE I *D sky130_fd_sc_hd__diode_2
*I *11524:DO[11] O *D CF_SRAM_1024x32
*CAP
1 *775:DIODE 0
2 *773:DIODE 0
3 *771:DIODE 0
4 *11256:A1 3.58421e-05
5 *770:DIODE 0
6 *772:DIODE 0
7 *774:DIODE 0
8 *783:DIODE 0.00015042
9 *781:DIODE 8.15442e-05
10 *777:DIODE 0
11 *776:DIODE 0
12 *780:DIODE 3.21411e-05
13 *782:DIODE 0.00015548
14 *779:DIODE 0
15 *11524:DO[11] 5.455e-05
16 *239:95 0.000265353
17 *239:93 0.000225128
18 *239:91 0.000371476
19 *239:89 0.000517004
20 *239:87 0.000356481
21 *239:85 0.000287331
22 *239:83 0.000478021
23 *239:77 0.00138921
24 *239:69 0.00127475
25 *239:65 0.0169373
26 *239:43 0.000163088
27 *239:15 0.000191886
28 *239:11 6.85466e-05
29 *239:9 0.000537961
30 *239:5 0.0172355
31 *781:DIODE *389:102 0.00014294
32 *239:5 *389:102 9.20181e-05
33 *239:9 *389:102 0.000913325
34 *239:43 *389:102 0.00014294
35 *239:65 *11524:DI[11] 0
36 *239:65 *11524:vpwrac 0.000351458
37 *239:65 *247:15 0.000221136
38 *239:65 *363:26 0
39 *239:65 *363:60 0
40 *239:65 *363:64 0
41 *239:65 *389:24 0
42 *239:65 *548:20 8.20061e-05
43 *239:69 *11202:A 1.07797e-05
44 *239:77 *828:DIODE 4.41506e-05
45 *239:77 *245:26 0.0018924
46 *239:77 *245:28 0.000251996
47 *239:77 *245:34 0.000116853
48 *239:77 *263:23 0.00347555
49 *239:77 *363:66 0.000118136
50 *239:83 *831:DIODE 9.60582e-07
51 *239:83 *245:26 0.000455854
52 *11202:C *239:69 0.000531399
53 *11256:S *239:87 4.41506e-05
54 *11256:S *239:89 0.000104482
55 *3:25 *239:69 0.000134139
56 *111:10 *239:83 0.000459275
57 *143:41 *239:69 0.000709753
58 *143:41 *239:77 0.00149359
59 *150:12 *783:DIODE 0.00015639
60 *150:12 *239:91 0.000118081
61 *150:12 *239:93 0.00015639
62 *150:12 *239:95 0.000153816
63 *185:10 *780:DIODE 0.000141606
64 *185:10 *239:15 0.000114492
65 *193:8 *780:DIODE 0.000133075
66 *193:8 *239:15 0.000116158
67 *224:36 *239:69 5.50819e-05
68 *224:36 *239:77 0.000210535
69 *238:103 *239:77 5.83121e-06
*RES
1 *11524:DO[11] *239:5 1.0875 
2 *239:5 *239:9 8.88 
3 *239:9 *239:11 2 
4 *239:11 *239:15 3.38 
5 *239:15 *779:DIODE 1.6 
6 *239:15 *782:DIODE 3.085 
7 *239:11 *780:DIODE 5.235 
8 *239:9 *776:DIODE 1.6 
9 *239:9 *239:43 1.485 
10 *239:43 *777:DIODE 1.6 
11 *239:43 *781:DIODE 3.085 
12 *239:5 *239:65 45.9576 
13 *239:65 *239:69 8.64 
14 *239:69 *239:77 49.7275 
15 *239:77 *239:83 9.29 
16 *239:83 *239:85 1.485 
17 *239:85 *239:87 1.485 
18 *239:87 *239:89 2.52 
19 *239:89 *239:91 2.865 
20 *239:91 *239:93 1.485 
21 *239:93 *239:95 1.485 
22 *239:95 *783:DIODE 3.43 
23 *239:95 *774:DIODE 1.6 
24 *239:93 *772:DIODE 1.6 
25 *239:91 *770:DIODE 1.6 
26 *239:89 *11256:A1 2.215 
27 *239:87 *771:DIODE 1.6 
28 *239:85 *773:DIODE 1.6 
29 *239:83 *775:DIODE 1.6 
*END

*D_NET *240 0.0641613
*CONN
*I *795:DIODE I *D sky130_fd_sc_hd__diode_2
*I *792:DIODE I *D sky130_fd_sc_hd__diode_2
*I *791:DIODE I *D sky130_fd_sc_hd__diode_2
*I *794:DIODE I *D sky130_fd_sc_hd__diode_2
*I *796:DIODE I *D sky130_fd_sc_hd__diode_2
*I *793:DIODE I *D sky130_fd_sc_hd__diode_2
*I *797:DIODE I *D sky130_fd_sc_hd__diode_2
*I *11259:A1 I *D sky130_fd_sc_hd__mux2_1
*I *785:DIODE I *D sky130_fd_sc_hd__diode_2
*I *787:DIODE I *D sky130_fd_sc_hd__diode_2
*I *790:DIODE I *D sky130_fd_sc_hd__diode_2
*I *788:DIODE I *D sky130_fd_sc_hd__diode_2
*I *784:DIODE I *D sky130_fd_sc_hd__diode_2
*I *786:DIODE I *D sky130_fd_sc_hd__diode_2
*I *11524:DO[12] O *D CF_SRAM_1024x32
*CAP
1 *795:DIODE 0.000116051
2 *792:DIODE 0
3 *791:DIODE 0
4 *794:DIODE 0.000313599
5 *796:DIODE 0.000118375
6 *793:DIODE 0
7 *797:DIODE 7.74271e-05
8 *11259:A1 0
9 *785:DIODE 0
10 *787:DIODE 0
11 *790:DIODE 9.89175e-05
12 *788:DIODE 5.8263e-05
13 *784:DIODE 0
14 *786:DIODE 0.000121964
15 *11524:DO[12] 8.90056e-05
16 *240:124 0.000235839
17 *240:117 0.000312668
18 *240:94 0.000362864
19 *240:90 0.00123747
20 *240:59 0.000526984
21 *240:53 0.000706406
22 *240:51 0.000573672
23 *240:49 0.000433464
24 *240:26 0.000180227
25 *240:24 0.000116526
26 *240:22 0.00139297
27 *240:20 0.0132554
28 *240:10 0.0124986
29 *240:4 0
30 *786:DIODE *241:57 0.000153816
31 *788:DIODE *241:57 8.23457e-05
32 *796:DIODE *387:112 0.00014356
33 *240:10 *11524:DI[12] 0
34 *240:20 *11524:DI[11] 0
35 *240:20 *241:51 0
36 *240:20 *243:15 0
37 *240:20 *247:15 4.01548e-05
38 *240:20 *387:28 0.0178152
39 *240:20 *387:100 0.00271255
40 *240:20 *548:20 1.31846e-05
41 *240:22 *242:31 0.000493264
42 *240:22 *264:29 1.93834e-05
43 *240:22 *589:26 0.00134967
44 *240:26 *241:57 8.23457e-05
45 *240:59 *11262:A1 4.66108e-05
46 *240:90 *387:112 0
47 *240:94 *387:112 0.00022645
48 *1204:DIODE *240:51 0.000120789
49 *1204:DIODE *240:53 2.75145e-05
50 *11259:S *240:53 5.77806e-05
51 *11262:S *240:53 4.1745e-05
52 *11262:S *240:59 8.94196e-05
53 *3:25 *240:22 0.000405172
54 *111:10 *240:22 0.000883727
55 *120:10 *240:22 0.000996108
56 *120:10 *240:49 0.000175581
57 *143:80 *240:22 0.000140628
58 *152:12 *240:59 5.43506e-05
59 *154:8 *790:DIODE 5.85534e-05
60 *154:8 *240:59 6.36139e-05
61 *162:10 *240:22 0.000214784
62 *163:10 *240:22 0.00446219
63 *163:10 *240:49 0.000167617
64 *202:24 *240:22 1.88904e-05
65 *202:39 *240:22 0.000177568
*RES
1 *11524:DO[12] *240:4 0.133636 
2 *11524:DO[12] *240:10 1.14 
3 *240:10 *240:20 44.1956 
4 *240:20 *240:22 56.3325 
5 *240:22 *240:24 2 
6 *240:24 *240:26 0.795 
7 *240:26 *786:DIODE 3.085 
8 *240:26 *784:DIODE 1.6 
9 *240:24 *788:DIODE 2.395 
10 *240:22 *240:49 4.145 
11 *240:49 *240:51 3.21 
12 *240:51 *240:53 3.21 
13 *240:53 *240:59 6.09 
14 *240:59 *790:DIODE 3.085 
15 *240:59 *787:DIODE 1.6 
16 *240:53 *785:DIODE 1.6 
17 *240:51 *11259:A1 1.6 
18 *240:49 *797:DIODE 2.395 
19 *240:10 *240:90 6.66 
20 *240:90 *240:94 3.555 
21 *240:94 *793:DIODE 1.6 
22 *240:94 *796:DIODE 3.085 
23 *240:90 *794:DIODE 5.41 
24 *240:90 *240:117 2.52 
25 *240:117 *791:DIODE 1.6 
26 *240:117 *240:124 1.485 
27 *240:124 *792:DIODE 1.6 
28 *240:124 *795:DIODE 3.085 
*END

*D_NET *241 0.0689278
*CONN
*I *802:DIODE I *D sky130_fd_sc_hd__diode_2
*I *807:DIODE I *D sky130_fd_sc_hd__diode_2
*I *11262:A1 I *D sky130_fd_sc_hd__mux2_2
*I *798:DIODE I *D sky130_fd_sc_hd__diode_2
*I *801:DIODE I *D sky130_fd_sc_hd__diode_2
*I *799:DIODE I *D sky130_fd_sc_hd__diode_2
*I *804:DIODE I *D sky130_fd_sc_hd__diode_2
*I *803:DIODE I *D sky130_fd_sc_hd__diode_2
*I *806:DIODE I *D sky130_fd_sc_hd__diode_2
*I *805:DIODE I *D sky130_fd_sc_hd__diode_2
*I *11524:DO[13] O *D CF_SRAM_1024x32
*CAP
1 *802:DIODE 0.000292455
2 *807:DIODE 0
3 *11262:A1 8.74725e-05
4 *798:DIODE 0
5 *801:DIODE 7.28088e-05
6 *799:DIODE 0
7 *804:DIODE 8.15442e-05
8 *803:DIODE 0
9 *806:DIODE 3.21411e-05
10 *805:DIODE 4.00765e-05
11 *11524:DO[13] 3.47049e-05
12 *241:72 0.000168717
13 *241:63 0.000327091
14 *241:61 0.000773817
15 *241:59 0.000516738
16 *241:57 0.000920505
17 *241:53 0.00222664
18 *241:51 0.0116343
19 *241:11 7.22176e-05
20 *241:9 0.000560724
21 *241:5 0.0104881
22 *801:DIODE *376:28 4.66108e-05
23 *804:DIODE *383:98 0.00014294
24 *241:5 *383:98 6.57805e-05
25 *241:9 *383:98 0.000947804
26 *241:51 *243:11 0.000315455
27 *241:51 *243:15 0.0263613
28 *241:51 *247:21 2.02584e-05
29 *241:51 *254:13 0.000356281
30 *241:51 *387:28 5.93578e-05
31 *241:51 *387:100 0.00193652
32 *241:53 *246:69 0
33 *241:53 *259:19 0.00239
34 *241:72 *376:28 3.57349e-05
35 *748:DIODE *801:DIODE 4.66108e-05
36 *748:DIODE *241:63 5.74791e-05
37 *748:DIODE *241:72 0.000153816
38 *786:DIODE *241:57 0.000153816
39 *788:DIODE *241:57 8.23457e-05
40 *11205:A *11262:A1 0.00015624
41 *130:10 *802:DIODE 0.000327974
42 *143:20 *241:53 0.000744148
43 *143:132 *802:DIODE 9.60582e-07
44 *150:12 *801:DIODE 0.000107602
45 *152:12 *801:DIODE 5.27785e-05
46 *185:10 *805:DIODE 0.000113379
47 *185:10 *806:DIODE 0.000141606
48 *193:8 *805:DIODE 0.000113379
49 *193:8 *806:DIODE 0.000133075
50 *214:22 *241:53 0.00524765
51 *222:28 *241:53 0
52 *229:34 *11262:A1 0.000157913
53 *240:20 *241:51 0
54 *240:26 *241:57 8.23457e-05
55 *240:59 *11262:A1 4.66108e-05
*RES
1 *11524:DO[13] *241:5 0.7425 
2 *241:5 *241:9 9.195 
3 *241:9 *241:11 2 
4 *241:11 *805:DIODE 4.98 
5 *241:11 *806:DIODE 5.235 
6 *241:9 *803:DIODE 1.6 
7 *241:9 *804:DIODE 3.085 
8 *241:5 *241:51 46.8184 
9 *241:51 *241:53 61.1775 
10 *241:53 *241:57 10.04 
11 *241:57 *241:59 0.795 
12 *241:59 *241:61 5.28 
13 *241:61 *241:63 2.865 
14 *241:63 *799:DIODE 1.6 
15 *241:63 *241:72 1.845 
16 *241:72 *801:DIODE 7.43 
17 *241:72 *798:DIODE 1.6 
18 *241:61 *11262:A1 7.94 
19 *241:59 *807:DIODE 1.6 
20 *241:57 *802:DIODE 9.98 
*END

*D_NET *242 0.0688839
*CONN
*I *820:DIODE I *D sky130_fd_sc_hd__diode_2
*I *817:DIODE I *D sky130_fd_sc_hd__diode_2
*I *816:DIODE I *D sky130_fd_sc_hd__diode_2
*I *823:DIODE I *D sky130_fd_sc_hd__diode_2
*I *819:DIODE I *D sky130_fd_sc_hd__diode_2
*I *821:DIODE I *D sky130_fd_sc_hd__diode_2
*I *818:DIODE I *D sky130_fd_sc_hd__diode_2
*I *815:DIODE I *D sky130_fd_sc_hd__diode_2
*I *813:DIODE I *D sky130_fd_sc_hd__diode_2
*I *810:DIODE I *D sky130_fd_sc_hd__diode_2
*I *808:DIODE I *D sky130_fd_sc_hd__diode_2
*I *11265:A1 I *D sky130_fd_sc_hd__mux2_1
*I *824:DIODE I *D sky130_fd_sc_hd__diode_2
*I *814:DIODE I *D sky130_fd_sc_hd__diode_2
*I *812:DIODE I *D sky130_fd_sc_hd__diode_2
*I *809:DIODE I *D sky130_fd_sc_hd__diode_2
*I *11524:DO[14] O *D CF_SRAM_1024x32
*CAP
1 *820:DIODE 8.15442e-05
2 *817:DIODE 0
3 *816:DIODE 0
4 *823:DIODE 0.000157761
5 *819:DIODE 0
6 *821:DIODE 0.000155829
7 *818:DIODE 0
8 *815:DIODE 0
9 *813:DIODE 0
10 *810:DIODE 0
11 *808:DIODE 0
12 *11265:A1 3.55506e-05
13 *824:DIODE 0.00015073
14 *814:DIODE 0
15 *812:DIODE 0
16 *809:DIODE 3.0307e-05
17 *11524:DO[14] 3.51667e-05
18 *242:155 0.000163088
19 *242:136 0.000191481
20 *242:120 0.000192234
21 *242:116 7.0125e-05
22 *242:114 0.000557233
23 *242:73 0.00027184
24 *242:66 0.000178024
25 *242:53 0.000166676
26 *242:49 0.000343166
27 *242:47 0.000321979
28 *242:45 0.000239271
29 *242:43 0.000260386
30 *242:41 0.00108321
31 *242:31 0.00202166
32 *242:15 0.0129006
33 *242:5 0.0123581
34 *820:DIODE *378:39 0.00014294
35 *242:5 *378:39 7.98735e-05
36 *242:15 *11524:DI[14] 0.00310978
37 *242:15 *11524:DI[13] 0
38 *242:15 *243:11 4.01548e-05
39 *242:15 *254:13 4.01548e-05
40 *242:15 *378:59 0.0192185
41 *242:31 *246:90 7.26551e-05
42 *242:31 *263:27 8.23457e-05
43 *242:31 *589:26 0.00275841
44 *242:41 *259:31 0.000137996
45 *242:41 *259:33 3.83194e-05
46 *242:114 *378:39 0.000936147
47 *242:155 *378:39 0.00014294
48 *11202:C *242:31 0.000165175
49 *11221:S *242:41 0.00025825
50 *11224:A0 *242:41 0.00018955
51 *11265:A0 *242:53 1.1392e-05
52 *11265:S *242:45 1.91597e-05
53 *11265:S *242:47 6.33103e-05
54 *11265:S *242:49 0.00010163
55 *3:25 *242:31 0.000228267
56 *111:10 *242:31 0.000665806
57 *121:12 *242:41 0.00165691
58 *125:12 *242:41 0.000191335
59 *125:12 *242:43 0.000153816
60 *125:12 *242:45 0.000153816
61 *127:8 *242:41 4.60061e-05
62 *128:10 *242:41 0.00127404
63 *129:8 *242:41 0.000621197
64 *130:10 *242:41 2.74947e-05
65 *143:41 *242:31 0.00134961
66 *150:14 *809:DIODE 7.23533e-05
67 *150:14 *242:66 0.000183738
68 *152:12 *809:DIODE 2.66935e-05
69 *152:12 *242:66 7.16268e-05
70 *160:10 *242:41 4.26286e-05
71 *185:10 *242:120 0.000114492
72 *185:10 *242:136 0.000139933
73 *193:8 *242:120 0.000116158
74 *193:8 *242:136 0.000133075
75 *199:74 *242:31 0.0012036
76 *202:39 *242:41 0.000153816
77 *202:47 *242:41 0.00018955
78 *240:22 *242:31 0.000493264
*RES
1 *11524:DO[14] *242:5 0.7425 
2 *242:5 *242:15 44.0208 
3 *242:15 *242:31 48.2325 
4 *242:31 *242:41 34.585 
5 *242:41 *242:43 1.485 
6 *242:43 *242:45 1.83 
7 *242:45 *242:47 1.14 
8 *242:47 *242:49 2.52 
9 *242:49 *242:53 2.795 
10 *242:53 *809:DIODE 4.47 
11 *242:53 *242:66 4.145 
12 *242:66 *812:DIODE 1.6 
13 *242:66 *242:73 1.14 
14 *242:73 *814:DIODE 1.6 
15 *242:73 *824:DIODE 3.085 
16 *242:49 *11265:A1 2.215 
17 *242:47 *808:DIODE 1.6 
18 *242:45 *810:DIODE 1.6 
19 *242:43 *813:DIODE 1.6 
20 *242:41 *815:DIODE 1.6 
21 *242:5 *242:114 9.075 
22 *242:114 *242:116 2 
23 *242:116 *242:120 3.38 
24 *242:120 *818:DIODE 1.6 
25 *242:120 *821:DIODE 3.085 
26 *242:116 *242:136 3.635 
27 *242:136 *819:DIODE 1.6 
28 *242:136 *823:DIODE 3.085 
29 *242:114 *816:DIODE 1.6 
30 *242:114 *242:155 1.485 
31 *242:155 *817:DIODE 1.6 
32 *242:155 *820:DIODE 3.085 
*END

*D_NET *243 0.07178
*CONN
*I *826:DIODE I *D sky130_fd_sc_hd__diode_2
*I *11268:A1 I *D sky130_fd_sc_hd__mux2_2
*I *825:DIODE I *D sky130_fd_sc_hd__diode_2
*I *11524:DO[15] O *D CF_SRAM_1024x32
*CAP
1 *826:DIODE 0.000510288
2 *11268:A1 0.00019471
3 *825:DIODE 0
4 *11524:DO[15] 4.75623e-05
5 *243:21 0.000216747
6 *243:17 0.00175657
7 *243:15 0.0139122
8 *243:11 0.0126198
9 *243:5 0.000999996
10 *826:DIODE *374:58 0.000491427
11 *243:5 *374:58 6.96092e-05
12 *243:11 *11524:DI[14] 1.79483e-05
13 *243:11 *11524:DI[13] 0.000148775
14 *243:11 *247:21 0.00168739
15 *243:11 *254:13 0.000440668
16 *243:11 *254:23 0.000412471
17 *243:15 *383:28 0
18 *243:15 *387:100 0
19 *11257:A1 *243:17 0.00109174
20 *11268:S *11268:A1 0.000104209
21 *11268:S *243:21 4.66108e-05
22 *200:22 *243:17 0.000206274
23 *212:23 *243:17 0.00403429
24 *229:34 *243:17 0.00605393
25 *240:20 *243:15 0
26 *241:51 *243:11 0.000315455
27 *241:51 *243:15 0.0263613
28 *242:15 *243:11 4.01548e-05
*RES
1 *11524:DO[15] *243:5 1.0875 
2 *243:5 *243:11 22.3825 
3 *243:11 *243:15 42.7813 
4 *243:15 *243:17 70.1025 
5 *243:17 *243:21 2.45 
6 *243:21 *825:DIODE 1.6 
7 *243:21 *11268:A1 4.39 
8 *243:5 *826:DIODE 10.45 
*END

*D_NET *244 0.0672133
*CONN
*I *837:DIODE I *D sky130_fd_sc_hd__diode_2
*I *839:DIODE I *D sky130_fd_sc_hd__diode_2
*I *835:DIODE I *D sky130_fd_sc_hd__diode_2
*I *834:DIODE I *D sky130_fd_sc_hd__diode_2
*I *838:DIODE I *D sky130_fd_sc_hd__diode_2
*I *836:DIODE I *D sky130_fd_sc_hd__diode_2
*I *831:DIODE I *D sky130_fd_sc_hd__diode_2
*I *11271:A1 I *D sky130_fd_sc_hd__mux2_1
*I *827:DIODE I *D sky130_fd_sc_hd__diode_2
*I *830:DIODE I *D sky130_fd_sc_hd__diode_2
*I *832:DIODE I *D sky130_fd_sc_hd__diode_2
*I *840:DIODE I *D sky130_fd_sc_hd__diode_2
*I *829:DIODE I *D sky130_fd_sc_hd__diode_2
*I *828:DIODE I *D sky130_fd_sc_hd__diode_2
*I *11524:DO[16] O *D CF_SRAM_1024x32
*CAP
1 *837:DIODE 0.000283065
2 *839:DIODE 0.00015073
3 *835:DIODE 0
4 *834:DIODE 0
5 *838:DIODE 0.000121964
6 *836:DIODE 0
7 *831:DIODE 8.29097e-05
8 *11271:A1 0
9 *827:DIODE 0
10 *830:DIODE 0
11 *832:DIODE 0.000154369
12 *840:DIODE 0
13 *829:DIODE 0.000153066
14 *828:DIODE 0.000138281
15 *11524:DO[16] 7.7564e-05
16 *244:124 0.00030146
17 *244:117 0.00026421
18 *244:103 0.000164077
19 *244:97 0.00038118
20 *244:93 0.000869899
21 *244:58 0.00049633
22 *244:56 0.000594111
23 *244:54 0.000429279
24 *244:38 0.0002334
25 *244:23 0.000247212
26 *244:21 0.000275338
27 *244:19 0.00136013
28 *244:17 0.00918385
29 *244:9 0.00841505
30 *828:DIODE *245:26 0.000172737
31 *828:DIODE *263:23 0.000172737
32 *837:DIODE *11524:SM 1.0076e-05
33 *837:DIODE *427:24 0.000118081
34 *838:DIODE *418:72 0.000153816
35 *244:9 *11524:ScanInDR 6.55906e-05
36 *244:9 *11524:DI[16] 0
37 *244:9 *245:20 2.27549e-05
38 *244:9 *247:13 5.4859e-05
39 *244:9 *254:13 0.000114142
40 *244:17 *246:67 0.026724
41 *244:17 *247:13 0.000172171
42 *244:17 *254:13 0.0003126
43 *244:17 *418:48 0.00587164
44 *244:17 *485:66 0
45 *244:19 *245:26 0.00428625
46 *244:19 *363:66 0.000437116
47 *244:21 *245:26 0.000292967
48 *244:23 *245:26 6.21553e-05
49 *244:23 *263:23 1.88904e-05
50 *244:93 *11524:SM 7.75151e-05
51 *244:93 *11524:ScanInDR 0.000205953
52 *244:97 *11524:ScanInDR 0.000156754
53 *244:103 *433:10 0.000186092
54 *244:103 *474:112 0.000187766
55 *11271:A0 *244:54 7.00889e-06
56 *11271:A0 *244:56 2.75229e-05
57 *11271:S *244:54 1.34503e-05
58 *11271:S *244:56 8.39495e-05
59 *11271:S *244:58 3.64998e-06
60 *11524:R_WB *244:17 0
61 *160:8 *244:58 4.36694e-05
62 *200:46 *244:19 9.29448e-05
63 *200:66 *244:19 0.000264183
64 *224:36 *244:19 0.00217959
65 *224:36 *244:21 0.000171154
66 *224:36 *244:23 2.69493e-05
67 *239:77 *828:DIODE 4.41506e-05
68 *239:83 *831:DIODE 9.60582e-07
*RES
1 *11524:DO[16] *244:9 4.19 
2 *244:9 *244:17 44.906 
3 *244:17 *244:19 49.7025 
4 *244:19 *244:21 3.42 
5 *244:21 *244:23 0.87 
6 *244:23 *828:DIODE 6.54 
7 *244:23 *244:38 2.795 
8 *244:38 *829:DIODE 3.085 
9 *244:38 *840:DIODE 1.6 
10 *244:21 *244:54 3.83 
11 *244:54 *244:56 2.865 
12 *244:56 *244:58 3.555 
13 *244:58 *832:DIODE 3.085 
14 *244:58 *830:DIODE 1.6 
15 *244:56 *827:DIODE 1.6 
16 *244:54 *11271:A1 1.6 
17 *244:19 *831:DIODE 4.395 
18 *244:9 *244:93 9.005 
19 *244:93 *244:97 3.045 
20 *244:97 *244:103 6.145 
21 *244:103 *836:DIODE 1.6 
22 *244:103 *838:DIODE 3.085 
23 *244:97 *244:117 1.14 
24 *244:117 *834:DIODE 1.6 
25 *244:117 *244:124 1.485 
26 *244:124 *835:DIODE 1.6 
27 *244:124 *839:DIODE 3.085 
28 *244:93 *837:DIODE 4.81 
*END

*D_NET *245 0.0604522
*CONN
*I *852:DIODE I *D sky130_fd_sc_hd__diode_2
*I *849:DIODE I *D sky130_fd_sc_hd__diode_2
*I *853:DIODE I *D sky130_fd_sc_hd__diode_2
*I *850:DIODE I *D sky130_fd_sc_hd__diode_2
*I *851:DIODE I *D sky130_fd_sc_hd__diode_2
*I *848:DIODE I *D sky130_fd_sc_hd__diode_2
*I *846:DIODE I *D sky130_fd_sc_hd__diode_2
*I *842:DIODE I *D sky130_fd_sc_hd__diode_2
*I *841:DIODE I *D sky130_fd_sc_hd__diode_2
*I *845:DIODE I *D sky130_fd_sc_hd__diode_2
*I *847:DIODE I *D sky130_fd_sc_hd__diode_2
*I *11274:A1 I *D sky130_fd_sc_hd__mux2_1
*I *854:DIODE I *D sky130_fd_sc_hd__diode_2
*I *843:DIODE I *D sky130_fd_sc_hd__diode_2
*I *11524:DO[17] O *D CF_SRAM_1024x32
*CAP
1 *852:DIODE 7.88516e-05
2 *849:DIODE 0
3 *853:DIODE 0.000157761
4 *850:DIODE 0
5 *851:DIODE 0.000151415
6 *848:DIODE 0
7 *846:DIODE 0
8 *842:DIODE 0.000152449
9 *841:DIODE 0
10 *845:DIODE 0
11 *847:DIODE 0.000124291
12 *11274:A1 0
13 *854:DIODE 0
14 *843:DIODE 0.000115797
15 *11524:DO[17] 3.22096e-05
16 *245:140 0.00018983
17 *245:126 0.00019416
18 *245:120 0.000224615
19 *245:104 0.000397297
20 *245:96 0.000535265
21 *245:82 0.000196131
22 *245:61 0.000396485
23 *245:59 0.000494674
24 *245:50 0.00032574
25 *245:34 0.00022615
26 *245:28 0.00027588
27 *245:26 0.00204738
28 *245:24 0.0147485
29 *245:20 0.013031
30 *245:10 0.000460463
31 *245:4 7.80379e-06
32 *852:DIODE *422:72 0.000153816
33 *245:10 *11524:WLBI 8.40213e-05
34 *245:10 *11524:DI[17] 4.66742e-05
35 *245:20 *247:13 0.000466867
36 *245:20 *254:13 0.000519266
37 *245:20 *552:113 3.91137e-05
38 *245:20 *552:125 0.000185372
39 *245:24 *418:48 0.00818055
40 *245:26 *879:DIODE 6.03517e-05
41 *245:26 *880:DIODE 0.000186787
42 *245:26 *248:27 1.7635e-05
43 *245:26 *263:23 1.91824e-05
44 *245:26 *564:10 0.0010268
45 *245:96 *11524:WLBI 0.000767849
46 *245:96 *11524:DI[17] 0.000103491
47 *245:96 *422:38 0.000102483
48 *245:96 *422:72 0.000223264
49 *245:104 *427:24 5.07606e-05
50 *245:104 *463:73 0.000111905
51 *245:120 *11524:WLBI 6.43369e-05
52 *245:120 *11524:TM 2.55252e-05
53 *245:120 *422:72 0.000192489
54 *245:126 *433:10 0.000114492
55 *245:126 *474:112 0.000116165
56 *245:140 *11524:TM 1.28131e-05
57 *245:140 *422:72 0.000225285
58 *749:DIODE *245:26 0.000182964
59 *828:DIODE *245:26 0.000172737
60 *11274:A0 *245:59 4.66108e-05
61 *11274:S *245:50 4.66108e-05
62 *11326:A *245:26 0.000165041
63 *11421:A *245:26 0.00258143
64 *3:25 *245:26 0.000555252
65 *111:10 *245:26 0.000688222
66 *120:10 *245:26 2.54523e-05
67 *143:41 *245:28 2.07184e-05
68 *143:41 *245:34 0.000116853
69 *143:80 *245:26 0.000127579
70 *143:80 *245:28 0.000228916
71 *162:8 *245:59 3.59784e-05
72 *200:66 *245:26 0.000223664
73 *238:85 *245:26 1.79536e-05
74 *238:103 *245:26 0.000173484
75 *239:77 *245:26 0.0018924
76 *239:77 *245:28 0.000251996
77 *239:77 *245:34 0.000116853
78 *239:83 *245:26 0.000455854
79 *244:9 *245:20 2.27549e-05
80 *244:19 *245:26 0.00428625
81 *244:21 *245:26 0.000292967
82 *244:23 *245:26 6.21553e-05
*RES
1 *11524:DO[17] *245:4 0.135 
2 *11524:DO[17] *245:10 0.795 
3 *245:10 *245:20 11.4475 
4 *245:20 *245:24 40.9751 
5 *245:24 *245:26 82.8525 
6 *245:26 *245:28 2.91 
7 *245:28 *245:34 4.175 
8 *245:34 *843:DIODE 2.74 
9 *245:34 *854:DIODE 1.6 
10 *245:28 *245:50 3.485 
11 *245:50 *11274:A1 1.6 
12 *245:50 *245:59 3.225 
13 *245:59 *245:61 3.555 
14 *245:61 *847:DIODE 3.085 
15 *245:61 *845:DIODE 1.6 
16 *245:59 *841:DIODE 1.6 
17 *245:26 *245:82 2.45 
18 *245:82 *842:DIODE 3.085 
19 *245:82 *846:DIODE 1.6 
20 *245:10 *245:96 7.35 
21 *245:96 *245:104 7.21 
22 *245:104 *848:DIODE 1.6 
23 *245:104 *851:DIODE 3.085 
24 *245:96 *245:120 2.19 
25 *245:120 *245:126 5.38 
26 *245:126 *850:DIODE 1.6 
27 *245:126 *853:DIODE 3.085 
28 *245:120 *245:140 2.175 
29 *245:140 *849:DIODE 1.6 
30 *245:140 *852:DIODE 3.085 
*END

*D_NET *246 0.0771276
*CONN
*I *11277:A1 I *D sky130_fd_sc_hd__mux2_1
*I *856:DIODE I *D sky130_fd_sc_hd__diode_2
*I *858:DIODE I *D sky130_fd_sc_hd__diode_2
*I *860:DIODE I *D sky130_fd_sc_hd__diode_2
*I *870:DIODE I *D sky130_fd_sc_hd__diode_2
*I *861:DIODE I *D sky130_fd_sc_hd__diode_2
*I *857:DIODE I *D sky130_fd_sc_hd__diode_2
*I *859:DIODE I *D sky130_fd_sc_hd__diode_2
*I *869:DIODE I *D sky130_fd_sc_hd__diode_2
*I *864:DIODE I *D sky130_fd_sc_hd__diode_2
*I *865:DIODE I *D sky130_fd_sc_hd__diode_2
*I *868:DIODE I *D sky130_fd_sc_hd__diode_2
*I *863:DIODE I *D sky130_fd_sc_hd__diode_2
*I *862:DIODE I *D sky130_fd_sc_hd__diode_2
*I *11524:DO[18] O *D CF_SRAM_1024x32
*CAP
1 *11277:A1 0
2 *856:DIODE 0
3 *858:DIODE 0
4 *860:DIODE 0
5 *870:DIODE 0.000116849
6 *861:DIODE 0
7 *857:DIODE 0.000117652
8 *859:DIODE 4.78063e-05
9 *869:DIODE 0.000152392
10 *864:DIODE 0
11 *865:DIODE 4.62534e-05
12 *868:DIODE 0.00015073
13 *863:DIODE 0
14 *862:DIODE 0
15 *11524:DO[18] 0.000199815
16 *246:112 0.000241959
17 *246:110 0.000237598
18 *246:108 0.000287865
19 *246:106 0.000310178
20 *246:90 0.00024335
21 *246:84 0.000312145
22 *246:73 0.000282004
23 *246:69 0.00395247
24 *246:67 0.0116476
25 *246:63 0.00831798
26 *246:24 0.000308491
27 *246:17 0.000157761
28 *246:15 8.17482e-05
29 *246:11 0.000824883
30 *246:7 0.00127714
31 *865:DIODE *433:10 0.000182907
32 *865:DIODE *474:112 0.000175536
33 *246:7 *11524:BEN[17] 0
34 *246:7 *11524:DI[18] 0
35 *246:7 *427:28 0
36 *246:11 *427:28 0
37 *246:15 *433:10 6.59891e-05
38 *246:15 *474:112 6.72196e-05
39 *246:63 *247:13 0.00175482
40 *246:63 *398:18 0.00175488
41 *246:67 *418:48 0
42 *246:67 *483:64 0
43 *246:69 *11515:DI[10] 6.32345e-05
44 *246:69 *259:19 0
45 *246:69 *262:23 0.00357657
46 *246:69 *363:66 0.000225067
47 *11202:C *246:84 0.000205836
48 *11202:C *246:90 0.00015829
49 *11277:S *246:106 0.000181249
50 *11277:S *246:108 4.66108e-05
51 *11524:R_WB *246:67 0.00583618
52 *113:10 *246:69 0
53 *143:20 *246:73 0
54 *143:20 *246:106 4.66108e-05
55 *143:41 *246:84 0.000197305
56 *143:41 *246:90 2.92496e-05
57 *214:22 *246:69 0
58 *222:28 *246:69 0.00358738
59 *237:23 *246:69 0.00286132
60 *241:53 *246:69 0
61 *242:31 *246:90 7.26551e-05
62 *244:17 *246:67 0.026724
*RES
1 *11524:DO[18] *246:7 3 
2 *246:7 *246:11 8.4 
3 *246:11 *246:15 2.87 
4 *246:15 *246:17 2 
5 *246:17 *862:DIODE 1.6 
6 *246:17 *246:24 1.485 
7 *246:24 *863:DIODE 1.6 
8 *246:24 *868:DIODE 3.085 
9 *246:15 *865:DIODE 5.745 
10 *246:11 *864:DIODE 1.6 
11 *246:11 *869:DIODE 3.085 
12 *246:7 *246:63 23.1325 
13 *246:63 *246:67 40.742 
14 *246:67 *246:69 112.433 
15 *246:69 *246:73 4.175 
16 *246:73 *859:DIODE 2.05 
17 *246:73 *246:84 4.4 
18 *246:84 *246:90 4.685 
19 *246:90 *857:DIODE 2.74 
20 *246:90 *861:DIODE 1.6 
21 *246:84 *246:106 4.175 
22 *246:106 *246:108 2.175 
23 *246:108 *246:110 1.485 
24 *246:110 *246:112 1.485 
25 *246:112 *870:DIODE 3.085 
26 *246:112 *860:DIODE 1.6 
27 *246:110 *858:DIODE 1.6 
28 *246:108 *856:DIODE 1.6 
29 *246:106 *11277:A1 1.6 
*END

*D_NET *247 0.0755976
*CONN
*I *875:DIODE I *D sky130_fd_sc_hd__diode_2
*I *874:DIODE I *D sky130_fd_sc_hd__diode_2
*I *876:DIODE I *D sky130_fd_sc_hd__diode_2
*I *877:DIODE I *D sky130_fd_sc_hd__diode_2
*I *873:DIODE I *D sky130_fd_sc_hd__diode_2
*I *872:DIODE I *D sky130_fd_sc_hd__diode_2
*I *11283:A1 I *D sky130_fd_sc_hd__mux2_1
*I *871:DIODE I *D sky130_fd_sc_hd__diode_2
*I *11524:DO[19] O *D CF_SRAM_1024x32
*CAP
1 *875:DIODE 0.000147797
2 *874:DIODE 0
3 *876:DIODE 0.000257143
4 *877:DIODE 0
5 *873:DIODE 0
6 *872:DIODE 1.91744e-05
7 *11283:A1 0
8 *871:DIODE 0.000221327
9 *11524:DO[19] 0.000151574
10 *247:93 0.000391035
11 *247:80 0.000902238
12 *247:61 4.50952e-05
13 *247:59 3.54047e-05
14 *247:43 0.000992763
15 *247:27 0.00131794
16 *247:23 0.00236152
17 *247:21 0.00271693
18 *247:15 0.00366687
19 *247:13 0.00383631
20 *247:7 0.00161531
21 *871:DIODE *11329:A 0.00107985
22 *871:DIODE *559:12 0.000455891
23 *871:DIODE *575:44 0.000306816
24 *872:DIODE *559:12 0.000164874
25 *876:DIODE *552:153 2.65814e-06
26 *247:7 *552:153 0
27 *247:13 *11524:BEN[18] 0.000613577
28 *247:13 *11524:AD[1] 1.79536e-05
29 *247:13 *11524:AD[2] 0.00017042
30 *247:13 *252:17 0.000302804
31 *247:13 *254:13 0.000515517
32 *247:13 *398:18 0.00073642
33 *247:13 *474:98 0.000148325
34 *247:13 *491:74 2.02515e-05
35 *247:13 *552:113 3.91137e-05
36 *247:13 *552:125 0.000582493
37 *247:15 *11524:AD[6] 1.79194e-05
38 *247:15 *11524:DI[3] 6.32332e-05
39 *247:15 *11524:DI[4] 0.000245517
40 *247:15 *11524:DI[11] 0.00024599
41 *247:15 *11524:DI[1] 0.000178632
42 *247:15 *11524:DI[6] 0.000197889
43 *247:15 *248:21 1.79536e-05
44 *247:15 *254:13 0.00951113
45 *247:15 *258:14 0
46 *247:15 *259:17 1.79536e-05
47 *247:15 *262:17 1.79536e-05
48 *247:15 *263:17 6.02846e-05
49 *247:15 *264:19 0.000426491
50 *247:15 *265:11 0.000102184
51 *247:15 *266:13 1.76036e-05
52 *247:15 *267:55 7.66406e-05
53 *247:15 *268:23 0.000840791
54 *247:15 *363:26 8.6313e-05
55 *247:15 *365:68 0.00024599
56 *247:15 *367:64 0.000109393
57 *247:15 *369:63 1.7635e-05
58 *247:15 *376:67 8.93064e-06
59 *247:15 *387:100 1.79483e-05
60 *247:15 *391:30 4.01535e-05
61 *247:15 *396:30 4.01535e-05
62 *247:15 *398:18 0
63 *247:15 *461:54 6.32577e-05
64 *247:15 *463:55 3.91191e-05
65 *247:15 *467:58 1.92979e-05
66 *247:15 *478:66 0.000176278
67 *247:15 *548:20 0
68 *247:15 *549:115 9.23149e-05
69 *247:15 *549:127 0.000147287
70 *247:15 *549:143 0.000168795
71 *247:15 *549:157 0.000247382
72 *247:15 *571:34 0
73 *247:21 *11524:DI[15] 1.79483e-05
74 *247:21 *254:13 8.02365e-05
75 *247:21 *254:23 0.000499198
76 *247:21 *548:20 0.00159042
77 *247:21 *558:367 6.18018e-05
78 *247:43 *11329:A 3.4059e-05
79 *247:43 *559:12 0.000798759
80 *247:43 *583:26 0.000710968
81 *247:59 *559:12 4.77719e-05
82 *247:61 *559:12 0.000161005
83 *247:80 *552:153 0
84 *11283:S *872:DIODE 0.000164874
85 *11283:S *247:43 0.000724714
86 *11283:S *247:59 3.6355e-05
87 *11283:S *247:61 0.000149347
88 *11524:EN *247:15 0
89 *11524:R_WB *247:13 8.41703e-06
90 *167:166 *247:43 9.62215e-05
91 *171:79 *247:27 8.14854e-05
92 *178:55 *247:23 0.000351372
93 *185:14 *247:23 9.97653e-05
94 *187:42 *247:23 0.0114709
95 *195:14 *247:23 0.0107574
96 *202:18 *247:43 2.30515e-05
97 *222:40 *247:27 0.000450712
98 *222:40 *247:43 4.0896e-05
99 *226:30 *247:23 0.0018228
100 *229:42 *247:23 0.00250436
101 *237:13 *247:15 0.000816208
102 *238:69 *247:15 0.000185042
103 *239:65 *247:15 0.000221136
104 *240:20 *247:15 4.01548e-05
105 *241:51 *247:21 2.02584e-05
106 *243:11 *247:21 0.00168739
107 *244:9 *247:13 5.4859e-05
108 *244:17 *247:13 0.000172171
109 *245:20 *247:13 0.000466867
110 *246:63 *247:13 0.00175482
*RES
1 *11524:DO[19] *247:7 2.415 
2 *247:7 *247:13 44.4125 
3 *247:13 *247:15 108.78 
4 *247:15 *247:21 36.3125 
5 *247:21 *247:23 122.925 
6 *247:23 *247:27 13.07 
7 *247:27 *247:43 22.62 
8 *247:43 *871:DIODE 11.71 
9 *247:43 *11283:A1 1.6 
10 *247:27 *247:59 2.45 
11 *247:59 *247:61 1.485 
12 *247:61 *872:DIODE 3.085 
13 *247:61 *873:DIODE 1.6 
14 *247:59 *877:DIODE 1.6 
15 *247:7 *247:80 5.97 
16 *247:80 *876:DIODE 4.735 
17 *247:80 *247:93 2.88 
18 *247:93 *874:DIODE 1.6 
19 *247:93 *875:DIODE 3.085 
*END

*D_NET *248 0.0429333
*CONN
*I *884:DIODE I *D sky130_fd_sc_hd__diode_2
*I *883:DIODE I *D sky130_fd_sc_hd__diode_2
*I *882:DIODE I *D sky130_fd_sc_hd__diode_2
*I *879:DIODE I *D sky130_fd_sc_hd__diode_2
*I *881:DIODE I *D sky130_fd_sc_hd__diode_2
*I *11221:A1 I *D sky130_fd_sc_hd__mux2_2
*I *880:DIODE I *D sky130_fd_sc_hd__diode_2
*I *11524:DO[1] O *D CF_SRAM_1024x32
*CAP
1 *884:DIODE 0.000120005
2 *883:DIODE 0
3 *882:DIODE 0
4 *879:DIODE 1.98644e-05
5 *881:DIODE 0
6 *11221:A1 0.000261517
7 *880:DIODE 4.16069e-05
8 *11524:DO[1] 6.86411e-05
9 *248:68 0.000213381
10 *248:61 0.000573099
11 *248:38 0.000261517
12 *248:27 4.85118e-05
13 *248:25 0.0102254
14 *248:21 0.0167603
15 *248:7 0.00711011
16 *248:7 *11524:BEN[0] 0
17 *248:7 *394:106 6.76956e-05
18 *248:21 *11524:DI[1] 0
19 *248:21 *264:19 0.000255442
20 *248:25 *265:53 0
21 *248:25 *268:39 0
22 *248:61 *11524:BEN[0] 0
23 *248:61 *394:106 0.000464688
24 *248:61 *422:24 2.54431e-05
25 *248:68 *422:24 4.01778e-05
26 *11221:S *11221:A1 1.56428e-05
27 *111:10 *879:DIODE 5.34699e-05
28 *111:10 *880:DIODE 0.000187759
29 *111:10 *248:27 1.03592e-05
30 *237:13 *248:21 1.79536e-05
31 *238:81 *248:25 0.00580796
32 *245:26 *879:DIODE 6.03517e-05
33 *245:26 *880:DIODE 0.000186787
34 *245:26 *248:27 1.7635e-05
35 *247:15 *248:21 1.79536e-05
*RES
1 *11524:DO[1] *248:7 1.2525 
2 *248:7 *248:21 20.6058 
3 *248:21 *248:25 31.0406 
4 *248:25 *248:27 0.2325 
5 *248:27 *880:DIODE 5.745 
6 *248:27 *248:38 2 
7 *248:38 *11221:A1 4.12 
8 *248:38 *881:DIODE 1.6 
9 *248:25 *879:DIODE 4.3425 
10 *248:7 *248:61 8.73 
11 *248:61 *882:DIODE 1.6 
12 *248:61 *248:68 1.485 
13 *248:68 *883:DIODE 1.6 
14 *248:68 *884:DIODE 3.085 
*END

*D_NET *249 0.0651564
*CONN
*I *886:DIODE I *D sky130_fd_sc_hd__diode_2
*I *885:DIODE I *D sky130_fd_sc_hd__diode_2
*I *11287:A1 I *D sky130_fd_sc_hd__mux2_1
*I *887:DIODE I *D sky130_fd_sc_hd__diode_2
*I *11524:DO[20] O *D CF_SRAM_1024x32
*CAP
1 *886:DIODE 0.000657974
2 *885:DIODE 0
3 *11287:A1 0.000649351
4 *887:DIODE 0.000272266
5 *11524:DO[20] 3.9886e-05
6 *249:42 0.000862133
7 *249:29 0.00500993
8 *249:23 0.0124562
9 *249:5 0.00862921
10 *886:DIODE *11524:BEN[19] 0
11 *886:DIODE *11524:DI[20] 1.3582e-05
12 *886:DIODE *400:16 9.5149e-05
13 *887:DIODE *467:18 3.32531e-05
14 *249:23 *11524:BEN[19] 9.76295e-06
15 *249:23 *253:21 0.0182999
16 *249:23 *254:13 1.79483e-05
17 *249:23 *400:34 0.000295773
18 *249:29 *250:29 0.0101376
19 *249:29 *251:29 0.00226352
20 *249:29 *252:29 0.000354876
21 *249:29 *253:29 0
22 *249:29 *365:18 4.75829e-06
23 *249:29 *387:18 2.90882e-05
24 *249:29 *389:18 4.75829e-06
25 *249:29 *461:18 2.90882e-05
26 *249:29 *463:18 4.75958e-06
27 *249:29 *467:18 9.32107e-06
28 *249:29 *504:14 0.00216321
29 *249:29 *571:14 0.000633757
30 *11307:B2 *11287:A1 3.98495e-05
31 *11310:B2 *887:DIODE 0
32 *174:77 *887:DIODE 1.32824e-05
33 *174:83 *887:DIODE 1.94892e-05
34 *176:93 *249:29 4.03905e-05
35 *177:6 *11287:A1 0.000827069
36 *177:6 *249:42 0.000296787
37 *182:91 *249:29 0.000320434
38 *190:90 *249:29 1.91843e-05
39 *224:48 *11287:A1 0
40 *229:46 *887:DIODE 0
41 *229:46 *249:29 0
42 *238:69 *249:23 0.000602799
*RES
1 *11524:DO[20] *249:5 0.69 
2 *249:5 *249:23 38.8447 
3 *249:23 *249:29 18.6587 
4 *249:29 *887:DIODE 8.04 
5 *249:29 *249:42 4.865 
6 *249:42 *11287:A1 14.675 
7 *249:42 *885:DIODE 1.6 
8 *249:5 *886:DIODE 11.365 
*END

*D_NET *250 0.062352
*CONN
*I *890:DIODE I *D sky130_fd_sc_hd__diode_2
*I *11291:A1 I *D sky130_fd_sc_hd__mux2_1
*I *888:DIODE I *D sky130_fd_sc_hd__diode_2
*I *891:DIODE I *D sky130_fd_sc_hd__diode_2
*I *11524:DO[21] O *D CF_SRAM_1024x32
*CAP
1 *890:DIODE 0.00065211
2 *11291:A1 0.000165764
3 *888:DIODE 0.00011234
4 *891:DIODE 0.000136496
5 *11524:DO[21] 4.07531e-05
6 *250:31 0.000315493
7 *250:29 0.00447453
8 *250:23 0.0128317
9 *250:5 0.00928247
10 *890:DIODE *11524:DI[21] 1.24302e-05
11 *890:DIODE *402:22 9.55469e-05
12 *891:DIODE *463:18 0
13 *891:DIODE *559:12 8.40269e-05
14 *250:23 *11524:BEN[20] 0
15 *250:23 *251:17 0.00026154
16 *250:23 *252:17 8.41015e-06
17 *250:23 *252:29 0
18 *250:23 *253:21 0.019026
19 *250:23 *402:44 0.000135068
20 *250:31 *463:18 0
21 *933:DIODE *11291:A1 0.000794198
22 *11313:B2 *891:DIODE 0.000206811
23 *11313:B2 *250:29 0.000207759
24 *11313:B2 *250:31 0.000114492
25 *168:31 *11291:A1 0.000933016
26 *168:33 *11291:A1 4.99619e-05
27 *174:104 *11291:A1 0.000110259
28 *193:12 *250:29 0.00216321
29 *195:18 *250:29 0
30 *225:36 *891:DIODE 0
31 *225:36 *250:29 0
32 *249:29 *250:29 0.0101376
*RES
1 *11524:DO[21] *250:5 0.705 
2 *250:5 *250:23 40.773 
3 *250:23 *250:29 18.3022 
4 *250:29 *250:31 1.38 
5 *250:31 *891:DIODE 6.795 
6 *250:31 *888:DIODE 4.74 
7 *250:29 *11291:A1 12.675 
8 *250:5 *890:DIODE 11.365 
*END

*D_NET *251 0.0518442
*CONN
*I *893:DIODE I *D sky130_fd_sc_hd__diode_2
*I *892:DIODE I *D sky130_fd_sc_hd__diode_2
*I *11294:A1 I *D sky130_fd_sc_hd__mux2_1
*I *894:DIODE I *D sky130_fd_sc_hd__diode_2
*I *11524:DO[22] O *D CF_SRAM_1024x32
*CAP
1 *893:DIODE 0.000462063
2 *892:DIODE 0
3 *11294:A1 0.000138616
4 *894:DIODE 0.000338151
5 *11524:DO[22] 5.18675e-05
6 *251:43 0.00105413
7 *251:29 0.0155063
8 *251:17 0.0162968
9 *251:7 0.00188174
10 *893:DIODE *11524:DI[22] 0.00033872
11 *893:DIODE *405:12 0.000205038
12 *894:DIODE *11434:A 0.000202889
13 *894:DIODE *389:18 0
14 *251:7 *11524:DI[22] 4.66742e-05
15 *251:17 *252:17 0.000371173
16 *251:17 *254:13 0.000935747
17 *251:17 *402:44 1.79536e-05
18 *251:29 *11315:A1 0.000208837
19 *251:29 *11524:vpwrac 0.000603528
20 *251:29 *252:29 0.00578104
21 *251:29 *258:26 0.00012887
22 *251:43 *11297:A1 0.000249166
23 *251:43 *252:31 2.75229e-05
24 *1089:DIODE *11294:A1 0.000648912
25 *11294:A0 *11294:A1 4.99619e-05
26 *11316:B2 *894:DIODE 0.000239813
27 *168:27 *251:43 0.000915537
28 *168:29 *11294:A1 1.60203e-05
29 *168:29 *251:43 0.000176472
30 *168:31 *11294:A1 2.30292e-05
31 *174:104 *11294:A1 0.000163199
32 *176:133 *894:DIODE 3.18219e-05
33 *176:133 *251:43 3.18137e-05
34 *176:135 *894:DIODE 1.82476e-05
35 *178:55 *251:43 0
36 *178:62 *251:43 0.000230793
37 *178:69 *251:43 0.000159054
38 *178:76 *251:43 0.000162775
39 *178:80 *251:43 1.05984e-05
40 *179:14 *11294:A1 0.000727285
41 *180:72 *894:DIODE 0
42 *181:18 *894:DIODE 0.000241483
43 *182:91 *251:29 0.000582204
44 *190:90 *251:29 4.3249e-05
45 *249:29 *251:29 0.00226352
46 *250:23 *251:17 0.00026154
*RES
1 *11524:DO[22] *251:7 0.945 
2 *251:7 *251:17 16.668 
3 *251:17 *251:29 47.4303 
4 *251:29 *251:43 20.37 
5 *251:43 *894:DIODE 11.745 
6 *251:43 *11294:A1 11.295 
7 *251:29 *892:DIODE 1.6 
8 *251:7 *893:DIODE 10.675 
*END

*D_NET *252 0.0530151
*CONN
*I *896:DIODE I *D sky130_fd_sc_hd__diode_2
*I *895:DIODE I *D sky130_fd_sc_hd__diode_2
*I *897:DIODE I *D sky130_fd_sc_hd__diode_2
*I *11297:A1 I *D sky130_fd_sc_hd__mux2_1
*I *11524:DO[23] O *D CF_SRAM_1024x32
*CAP
1 *896:DIODE 0.00042145
2 *895:DIODE 0
3 *897:DIODE 0.000348333
4 *11297:A1 0.000537417
5 *11524:DO[23] 9.94688e-05
6 *252:31 0.00115286
7 *252:29 0.017342
8 *252:17 0.0191079
9 *252:7 0.00255389
10 *896:DIODE *407:14 0.000476716
11 *252:7 *11524:DI[23] 4.66742e-05
12 *252:7 *407:14 6.31732e-05
13 *252:17 *254:13 0
14 *252:17 *258:14 0.000997961
15 *252:17 *398:18 0.000488869
16 *252:17 *398:40 7.51814e-05
17 *252:17 *400:34 0.00011559
18 *252:17 *402:44 8.41703e-06
19 *252:17 *407:36 1.38716e-05
20 *252:17 *427:50 0
21 *252:29 *253:21 0
22 *252:29 *253:29 0
23 *252:29 *254:27 0.000560478
24 *252:29 *374:18 3.96676e-05
25 *252:29 *378:16 3.96676e-05
26 *1211:DIODE *897:DIODE 7.23602e-05
27 *1211:DIODE *252:31 0.000265276
28 *168:12 *897:DIODE 6.6641e-05
29 *168:27 *897:DIODE 0.000126725
30 *168:86 *252:29 7.9642e-06
31 *178:62 *11297:A1 0.000343847
32 *178:69 *11297:A1 0.000148178
33 *178:76 *11297:A1 0.000113605
34 *178:80 *11297:A1 0.000161467
35 *178:87 *11297:A1 0.00012438
36 *178:97 *897:DIODE 0
37 *247:13 *252:17 0.000302804
38 *249:29 *252:29 0.000354876
39 *250:23 *252:17 8.41015e-06
40 *250:23 *252:29 0
41 *251:17 *252:17 0.000371173
42 *251:29 *252:29 0.00578104
43 *251:43 *11297:A1 0.000249166
44 *251:43 *252:31 2.75229e-05
*RES
1 *11524:DO[23] *252:7 1.965 
2 *252:7 *252:17 41.6148 
3 *252:17 *252:29 45.4644 
4 *252:29 *252:31 4.59 
5 *252:31 *11297:A1 15.92 
6 *252:31 *897:DIODE 12.08 
7 *252:29 *895:DIODE 1.6 
8 *252:7 *896:DIODE 9.64 
*END

*D_NET *253 0.0664326
*CONN
*I *899:DIODE I *D sky130_fd_sc_hd__diode_2
*I *898:DIODE I *D sky130_fd_sc_hd__diode_2
*I *11300:A1 I *D sky130_fd_sc_hd__mux2_1
*I *901:DIODE I *D sky130_fd_sc_hd__diode_2
*I *11524:DO[24] O *D CF_SRAM_1024x32
*CAP
1 *899:DIODE 0.000455499
2 *898:DIODE 0
3 *11300:A1 0
4 *901:DIODE 0.000683773
5 *11524:DO[24] 5.01334e-05
6 *253:33 0.00160628
7 *253:29 0.00635797
8 *253:21 0.0115215
9 *253:7 0.00659164
10 *899:DIODE *11524:DI[24] 0.000545573
11 *253:7 *11524:DI[24] 4.66742e-05
12 *253:21 *254:13 4.01535e-05
13 *253:21 *258:14 0
14 *253:21 *409:34 0.000108622
15 *253:29 *11351:A 1.7635e-05
16 *253:29 *374:18 1.11399e-05
17 *253:29 *570:16 0.000625288
18 *649:DIODE *253:33 1.24292e-05
19 *650:DIODE *901:DIODE 4.61791e-05
20 *180:81 *901:DIODE 7.58705e-05
21 *180:88 *901:DIODE 4.09349e-05
22 *180:107 *901:DIODE 0.000169091
23 *180:107 *253:33 1.12618e-05
24 *180:114 *901:DIODE 1.87038e-05
25 *180:114 *253:33 2.51168e-05
26 *180:121 *253:33 1.40787e-05
27 *180:128 *253:33 1.48328e-05
28 *180:135 *253:33 1.63363e-05
29 *249:23 *253:21 0.0182999
30 *249:29 *253:29 0
31 *250:23 *253:21 0.019026
32 *252:29 *253:21 0
33 *252:29 *253:29 0
*RES
1 *11524:DO[24] *253:7 0.915 
2 *253:7 *253:21 44.3524 
3 *253:21 *253:29 13.4042 
4 *253:29 *253:33 10.035 
5 *253:33 *901:DIODE 12.43 
6 *253:33 *11300:A1 1.6 
7 *253:29 *898:DIODE 1.6 
8 *253:7 *899:DIODE 10.675 
*END

*D_NET *254 0.0556117
*CONN
*I *913:DIODE I *D sky130_fd_sc_hd__diode_2
*I *909:DIODE I *D sky130_fd_sc_hd__diode_2
*I *908:DIODE I *D sky130_fd_sc_hd__diode_2
*I *912:DIODE I *D sky130_fd_sc_hd__diode_2
*I *914:DIODE I *D sky130_fd_sc_hd__diode_2
*I *910:DIODE I *D sky130_fd_sc_hd__diode_2
*I *915:DIODE I *D sky130_fd_sc_hd__diode_2
*I *904:DIODE I *D sky130_fd_sc_hd__diode_2
*I *907:DIODE I *D sky130_fd_sc_hd__diode_2
*I *906:DIODE I *D sky130_fd_sc_hd__diode_2
*I *905:DIODE I *D sky130_fd_sc_hd__diode_2
*I *903:DIODE I *D sky130_fd_sc_hd__diode_2
*I *902:DIODE I *D sky130_fd_sc_hd__diode_2
*I *11303:A1 I *D sky130_fd_sc_hd__mux2_1
*I *11524:DO[25] O *D CF_SRAM_1024x32
*CAP
1 *913:DIODE 8.82564e-05
2 *909:DIODE 0
3 *908:DIODE 0
4 *912:DIODE 3.32057e-05
5 *914:DIODE 0.000155427
6 *910:DIODE 0
7 *915:DIODE 0
8 *904:DIODE 0
9 *907:DIODE 7.04045e-05
10 *906:DIODE 0
11 *905:DIODE 0.000103594
12 *903:DIODE 0
13 *902:DIODE 0
14 *11303:A1 0.000489921
15 *11524:DO[25] 3.14032e-05
16 *254:127 0.000176513
17 *254:99 0.000190768
18 *254:95 6.85466e-05
19 *254:93 0.000568
20 *254:60 0.000173926
21 *254:58 0.000220399
22 *254:35 0.000592425
23 *254:33 0.000159091
24 *254:31 0.000192189
25 *254:29 0.000284714
26 *254:27 0.00182499
27 *254:23 0.0025982
28 *254:13 0.0126174
29 *254:11 0.0116668
30 *254:5 0.000562561
31 *912:DIODE *433:10 0.000116165
32 *912:DIODE *474:112 0.000107634
33 *913:DIODE *411:22 8.247e-05
34 *254:5 *11524:DI[25] 3.84017e-05
35 *254:11 *411:42 3.81907e-05
36 *254:13 *11524:BEN[18] 0.000328635
37 *254:13 *11524:BEN[24] 0.000109393
38 *254:13 *11524:AD[4] 1.79536e-05
39 *254:13 *11524:DI[14] 1.79483e-05
40 *254:13 *11524:DI[13] 0.000148775
41 *254:13 *258:14 0
42 *254:13 *400:34 0.000110301
43 *254:13 *407:36 8.39586e-05
44 *254:13 *409:34 1.79536e-05
45 *254:13 *411:42 5.08992e-05
46 *254:13 *427:50 4.01535e-05
47 *254:13 *474:98 7.26352e-05
48 *254:13 *491:74 5.84554e-05
49 *254:13 *552:125 0.00011681
50 *254:23 *11524:DI[15] 1.79483e-05
51 *254:23 *548:20 0.0001438
52 *254:23 *558:367 6.32332e-05
53 *254:23 *574:14 0.000559485
54 *254:27 *11315:A1 0.000415762
55 *254:27 *258:26 0.00100511
56 *254:27 *573:14 0.000664318
57 *254:93 *11524:DI[25] 2.49909e-05
58 *254:93 *411:22 0.000512356
59 *254:99 *433:10 0.000139933
60 *254:99 *474:112 0.000141599
61 *254:127 *411:22 8.247e-05
62 *669:DIODE *11303:A1 0.000153217
63 *688:DIODE *254:27 5.3619e-05
64 *694:DIODE *254:27 0.000164874
65 *696:DIODE *254:27 6.96579e-05
66 *11524:CLKin *254:13 0.00019594
67 *11524:R_WB *254:13 1.79536e-05
68 *168:86 *11303:A1 8.65905e-05
69 *182:135 *11303:A1 0.00023682
70 *182:142 *11303:A1 0.00037881
71 *182:149 *11303:A1 0.000153217
72 *190:96 *254:27 0.000604748
73 *190:103 *254:27 0.000272564
74 *190:110 *254:27 0.000164874
75 *190:117 *254:27 0.000164874
76 *190:133 *254:27 6.19997e-05
77 *190:152 *254:27 4.7101e-05
78 *238:69 *254:13 0.000232432
79 *241:51 *254:13 0.000356281
80 *242:15 *254:13 4.01548e-05
81 *243:11 *254:13 0.000440668
82 *243:11 *254:23 0.000412471
83 *244:9 *254:13 0.000114142
84 *244:17 *254:13 0.0003126
85 *245:20 *254:13 0.000519266
86 *247:13 *254:13 0.000515517
87 *247:15 *254:13 0.00951113
88 *247:21 *254:13 8.02365e-05
89 *247:21 *254:23 0.000499198
90 *249:23 *254:13 1.79483e-05
91 *251:17 *254:13 0.000935747
92 *252:17 *254:13 0
93 *252:29 *254:27 0.000560478
94 *253:21 *254:13 4.01535e-05
*RES
1 *11524:DO[25] *254:5 0.7425 
2 *254:5 *254:11 2.885 
3 *254:11 *254:13 217.875 
4 *254:13 *254:23 25.9325 
5 *254:23 *254:27 42.555 
6 *254:27 *254:29 2.865 
7 *254:29 *254:31 0.795 
8 *254:31 *254:33 0.795 
9 *254:33 *254:35 1.485 
10 *254:35 *11303:A1 11.365 
11 *254:35 *902:DIODE 1.6 
12 *254:33 *903:DIODE 1.6 
13 *254:31 *254:58 5.125 
14 *254:58 *254:60 0.795 
15 *254:60 *905:DIODE 2.74 
16 *254:60 *906:DIODE 1.6 
17 *254:58 *907:DIODE 2.395 
18 *254:29 *904:DIODE 1.6 
19 *254:27 *915:DIODE 1.6 
20 *254:5 *254:93 9.2325 
21 *254:93 *254:95 2 
22 *254:95 *254:99 3.635 
23 *254:99 *910:DIODE 1.6 
24 *254:99 *914:DIODE 3.085 
25 *254:95 *912:DIODE 4.98 
26 *254:93 *908:DIODE 1.6 
27 *254:93 *254:127 1.485 
28 *254:127 *909:DIODE 1.6 
29 *254:127 *913:DIODE 3.085 
*END

*D_NET *255 0.0459676
*CONN
*I *916:DIODE I *D sky130_fd_sc_hd__diode_2
*I *11306:A1 I *D sky130_fd_sc_hd__mux2_2
*I *917:DIODE I *D sky130_fd_sc_hd__diode_2
*I *11524:DO[26] O *D CF_SRAM_1024x32
*CAP
1 *916:DIODE 0
2 *11306:A1 0.000367537
3 *917:DIODE 0
4 *11524:DO[26] 0.000611129
5 *255:26 0.0010432
6 *255:22 0.00356164
7 *255:20 0.00426144
8 *255:11 0.00198659
9 *255:11 *11524:DI[26] 9.51551e-05
10 *255:11 *413:22 0.000990366
11 *255:20 *413:22 0.000872084
12 *255:22 *257:22 0.0143156
13 *255:22 *260:22 0.00100083
14 *255:22 *261:22 0.0149024
15 *255:22 *363:40 0.00162311
16 *676:DIODE *11306:A1 0.000145961
17 *184:86 *11306:A1 0.000190539
*RES
1 *11524:DO[26] *255:11 11.685 
2 *255:11 *917:DIODE 1.6 
3 *255:11 *255:20 17.285 
4 *255:20 *255:22 189.06 
5 *255:22 *255:26 11.42 
6 *255:26 *11306:A1 7.15 
7 *255:26 *916:DIODE 1.6 
*END

*D_NET *256 0.0323725
*CONN
*I *919:DIODE I *D sky130_fd_sc_hd__diode_2
*I *918:DIODE I *D sky130_fd_sc_hd__diode_2
*I *11309:A1 I *D sky130_fd_sc_hd__mux2_2
*I *11524:DO[27] O *D CF_SRAM_1024x32
*CAP
1 *919:DIODE 4.49488e-05
2 *918:DIODE 0.000182145
3 *11309:A1 0
4 *11524:DO[27] 0.000685422
5 *256:23 0.000486835
6 *256:19 0.0043371
7 *256:17 0.00432784
8 *256:9 0.0010258
9 *919:DIODE *433:10 0.000109431
10 *919:DIODE *474:112 0.000101467
11 *256:17 *11524:BEN[26] 2.49909e-05
12 *256:17 *433:10 0.000365049
13 *256:17 *474:112 0.000365049
14 *256:19 *11524:BEN[23] 0.000613712
15 *256:19 *11524:BEN[0] 0.000729134
16 *256:19 *356:10 0.000872554
17 *256:19 *396:50 1.93834e-05
18 *256:19 *398:54 0.000871103
19 *256:19 *405:24 0.000228062
20 *256:19 *405:44 0.00161398
21 *256:19 *418:24 0.00132368
22 *256:19 *418:38 0.0007571
23 *256:19 *418:60 0.000358561
24 *256:19 *422:32 0.000473494
25 *256:19 *463:73 0.00150412
26 *256:19 *467:80 6.25986e-05
27 *256:19 *467:82 0.00175918
28 *256:19 *491:92 4.24632e-05
29 *256:19 *549:187 0.000714585
30 *256:19 *552:153 0.000742374
31 *256:19 *552:165 0.000639169
32 *256:19 *552:177 0.000720008
33 *256:19 *552:189 0.000718969
34 *256:19 *555:112 0.000763099
35 *256:19 *555:124 0.000646934
36 *256:19 *574:16 0.00300803
37 *256:19 *576:8 0.000370089
38 *256:23 *11447:A 8.37493e-06
39 *11309:A0 *256:23 0.000376726
40 *11309:S *918:DIODE 1.19928e-05
41 *11309:S *256:23 2.8185e-05
42 *11318:A0 *256:19 0.000338775
43 *186:12 *256:19 0
*RES
1 *11524:DO[27] *256:9 11.912 
2 *256:9 *256:17 11.05 
3 *256:17 *256:19 156.675 
4 *256:19 *256:23 6.245 
5 *256:23 *11309:A1 1.6 
6 *256:23 *918:DIODE 3.43 
7 *256:9 *919:DIODE 4.98 
*END

*D_NET *257 0.0431686
*CONN
*I *920:DIODE I *D sky130_fd_sc_hd__diode_2
*I *11312:A1 I *D sky130_fd_sc_hd__mux2_2
*I *921:DIODE I *D sky130_fd_sc_hd__diode_2
*I *11524:DO[28] O *D CF_SRAM_1024x32
*CAP
1 *920:DIODE 0
2 *11312:A1 0.000151399
3 *921:DIODE 0
4 *11524:DO[28] 0.000687178
5 *257:26 0.00096923
6 *257:22 0.00319855
7 *257:20 0.00390605
8 *257:11 0.00221251
9 *11312:A1 *372:71 6.32176e-05
10 *257:11 *11524:DI[28] 1.48772e-05
11 *257:11 *420:14 6.52933e-05
12 *257:11 *420:16 0.000295036
13 *257:20 *420:14 0.00016281
14 *257:22 *261:22 0.000843075
15 *257:22 *363:40 0.0157927
16 *257:26 *372:71 0.000444407
17 *11312:S *11312:A1 4.66108e-05
18 *255:22 *257:22 0.0143156
*RES
1 *11524:DO[28] *257:11 11.655 
2 *257:11 *921:DIODE 1.6 
3 *257:11 *257:20 17.63 
4 *257:20 *257:22 174.525 
5 *257:22 *257:26 14.525 
6 *257:26 *11312:A1 3.775 
7 *257:26 *920:DIODE 1.6 
*END

*D_NET *258 0.0608904
*CONN
*I *924:DIODE I *D sky130_fd_sc_hd__diode_2
*I *923:DIODE I *D sky130_fd_sc_hd__diode_2
*I *11315:A1 I *D sky130_fd_sc_hd__mux2_1
*I *11524:DO[29] O *D CF_SRAM_1024x32
*CAP
1 *924:DIODE 0.00060998
2 *923:DIODE 0
3 *11315:A1 0.000714486
4 *11524:DO[29] 0.000171099
5 *258:26 0.00257867
6 *258:22 0.00411765
7 *258:20 0.00232327
8 *258:14 0.00478823
9 *258:12 0.00471843
10 *258:10 0.000781079
11 *258:4 0
12 *924:DIODE *11524:BEN[28] 0
13 *924:DIODE *433:26 7.56067e-05
14 *258:10 *11524:BEN[28] 0
15 *258:10 *11524:DI[29] 0
16 *258:10 *433:26 0
17 *258:14 *11524:BEN[24] 0
18 *258:14 *11524:DI[27] 0
19 *258:14 *398:18 0.00152461
20 *258:14 *398:40 4.5636e-05
21 *258:14 *407:36 0
22 *258:14 *411:42 0
23 *258:14 *413:44 0
24 *258:14 *420:38 0
25 *258:14 *422:60 3.97748e-05
26 *258:14 *571:34 0.000764505
27 *258:22 *548:20 4.29824e-05
28 *258:22 *570:18 0.00552887
29 *258:22 *570:26 4.26286e-05
30 *258:22 *571:34 0.000204282
31 *258:26 *573:14 1.92548e-05
32 *11312:A0 *258:22 0.00112051
33 *11321:A0 *258:22 0.000813849
34 *11524:EN *258:14 0.00336553
35 *187:36 *258:22 0.00227618
36 *187:38 *258:22 3.27519e-05
37 *189:10 *258:22 0.00713342
38 *194:18 *258:14 0.0143006
39 *247:15 *258:14 0
40 *251:29 *11315:A1 0.000208837
41 *251:29 *258:26 0.00012887
42 *252:17 *258:14 0.000997961
43 *253:21 *258:14 0
44 *254:13 *258:14 0
45 *254:27 *11315:A1 0.000415762
46 *254:27 *258:26 0.00100511
*RES
1 *11524:DO[29] *258:4 0.18375 
2 *11524:DO[29] *258:10 2.865 
3 *258:10 *258:12 2 
4 *258:12 *258:14 167.385 
5 *258:14 *258:20 5.125 
6 *258:20 *258:22 104.655 
7 *258:22 *258:26 26.255 
8 *258:26 *11315:A1 11.29 
9 *258:26 *923:DIODE 1.6 
10 *258:10 *924:DIODE 10.09 
*END

*D_NET *259 0.0525725
*CONN
*I *932:DIODE I *D sky130_fd_sc_hd__diode_2
*I *931:DIODE I *D sky130_fd_sc_hd__diode_2
*I *930:DIODE I *D sky130_fd_sc_hd__diode_2
*I *929:DIODE I *D sky130_fd_sc_hd__diode_2
*I *928:DIODE I *D sky130_fd_sc_hd__diode_2
*I *11224:A1 I *D sky130_fd_sc_hd__mux2_2
*I *925:DIODE I *D sky130_fd_sc_hd__diode_2
*I *926:DIODE I *D sky130_fd_sc_hd__diode_2
*I *927:DIODE I *D sky130_fd_sc_hd__diode_2
*I *11524:DO[2] O *D CF_SRAM_1024x32
*CAP
1 *932:DIODE 9.33568e-05
2 *931:DIODE 0
3 *930:DIODE 0
4 *929:DIODE 0
5 *928:DIODE 0
6 *11224:A1 0
7 *925:DIODE 0
8 *926:DIODE 0
9 *927:DIODE 0.000126866
10 *11524:DO[2] 7.42508e-05
11 *259:78 0.000186714
12 *259:71 0.000172365
13 *259:64 0.000563274
14 *259:35 0.000236719
15 *259:33 0.00037627
16 *259:31 0.000481076
17 *259:29 0.00060542
18 *259:19 0.00203671
19 *259:17 0.0133747
20 *259:7 0.0122872
21 *932:DIODE *391:42 7.66388e-05
22 *259:7 *11524:BEN[1] 0
23 *259:7 *11524:DI[2] 6.58339e-05
24 *259:7 *391:42 5.83121e-06
25 *259:17 *11524:DI[1] 0
26 *259:17 *391:30 0.00882914
27 *259:17 *391:68 0.00618601
28 *259:64 *11524:BEN[1] 0
29 *259:64 *391:42 0.000502017
30 *259:71 *391:42 8.43862e-05
31 *259:78 *391:42 7.66388e-05
32 *11224:A0 *927:DIODE 8.52883e-05
33 *11224:A0 *259:33 0.000250145
34 *11224:A0 *259:35 0.000147115
35 *111:10 *259:29 0.000330242
36 *143:41 *259:29 0.000328575
37 *214:22 *259:19 0.00120207
38 *237:13 *259:17 1.79536e-05
39 *237:17 *259:17 0
40 *237:23 *259:19 0.00118547
41 *241:53 *259:19 0.00239
42 *242:41 *259:31 0.000137996
43 *242:41 *259:33 3.83194e-05
44 *246:69 *259:19 0
45 *247:15 *259:17 1.79536e-05
*RES
1 *11524:DO[2] *259:7 1.2675 
2 *259:7 *259:17 43.1249 
3 *259:17 *259:19 53.0175 
4 *259:19 *259:29 13.83 
5 *259:29 *259:31 2.52 
6 *259:31 *259:33 3.21 
7 *259:33 *259:35 1.485 
8 *259:35 *927:DIODE 3.085 
9 *259:35 *926:DIODE 1.6 
10 *259:33 *925:DIODE 1.6 
11 *259:31 *11224:A1 1.6 
12 *259:29 *928:DIODE 1.6 
13 *259:7 *259:64 8.73 
14 *259:64 *929:DIODE 1.6 
15 *259:64 *259:71 1.485 
16 *259:71 *930:DIODE 1.6 
17 *259:71 *259:78 1.485 
18 *259:78 *931:DIODE 1.6 
19 *259:78 *932:DIODE 3.085 
*END

*D_NET *260 0.0526025
*CONN
*I *934:DIODE I *D sky130_fd_sc_hd__diode_2
*I *11318:A1 I *D sky130_fd_sc_hd__mux2_2
*I *935:DIODE I *D sky130_fd_sc_hd__diode_2
*I *11524:DO[30] O *D CF_SRAM_1024x32
*CAP
1 *934:DIODE 0
2 *11318:A1 0.000215557
3 *935:DIODE 0
4 *11524:DO[30] 0.000757707
5 *260:26 0.00132719
6 *260:22 0.00559814
7 *260:20 0.0060284
8 *260:11 0.0022996
9 *260:11 *11524:DI[30] 4.17521e-05
10 *260:11 *456:18 3.71082e-05
11 *260:11 *456:43 5.05437e-05
12 *260:20 *456:18 3.64998e-06
13 *260:22 *261:22 0.0173873
14 *260:22 *365:80 0
15 *260:22 *367:76 0.000353879
16 *260:22 *369:81 0.0174542
17 *11318:S *11318:A1 4.66108e-05
18 *255:22 *260:22 0.00100083
*RES
1 *11524:DO[30] *260:11 11.28 
2 *260:11 *935:DIODE 1.6 
3 *260:11 *260:20 16.94 
4 *260:20 *260:22 219.15 
5 *260:22 *260:26 13.49 
6 *260:26 *11318:A1 3.775 
7 *260:26 *934:DIODE 1.6 
*END

*D_NET *261 0.0493801
*CONN
*I *936:DIODE I *D sky130_fd_sc_hd__diode_2
*I *11321:A1 I *D sky130_fd_sc_hd__mux2_2
*I *937:DIODE I *D sky130_fd_sc_hd__diode_2
*I *11524:DO[31] O *D CF_SRAM_1024x32
*CAP
1 *936:DIODE 0
2 *11321:A1 0.000194798
3 *937:DIODE 0
4 *11524:DO[31] 0.000776993
5 *261:26 0.00117155
6 *261:22 0.00462883
7 *261:20 0.0052176
8 *261:11 0.00234251
9 *11321:A1 *369:79 4.66345e-05
10 *261:11 *11524:DI[31] 0
11 *261:11 *465:14 5.16211e-05
12 *261:22 *363:40 0.000955655
13 *261:22 *369:81 0.000392462
14 *261:26 *369:79 0.000421949
15 *11321:S *11321:A1 4.66108e-05
16 *255:22 *261:22 0.0149024
17 *257:22 *261:22 0.000843075
18 *260:22 *261:22 0.0173873
*RES
1 *11524:DO[31] *261:11 11.265 
2 *261:11 *937:DIODE 1.6 
3 *261:11 *261:20 17.285 
4 *261:20 *261:22 206.91 
5 *261:22 *261:26 13.835 
6 *261:26 *11321:A1 3.775 
7 *261:26 *936:DIODE 1.6 
*END

*D_NET *262 0.0471662
*CONN
*I *939:DIODE I *D sky130_fd_sc_hd__diode_2
*I *938:DIODE I *D sky130_fd_sc_hd__diode_2
*I *11227:A1 I *D sky130_fd_sc_hd__mux2_2
*I *11524:DO[3] O *D CF_SRAM_1024x32
*CAP
1 *939:DIODE 0.000475068
2 *938:DIODE 0
3 *11227:A1 0.000224866
4 *11524:DO[3] 7.04828e-05
5 *262:23 0.00125561
6 *262:17 0.0155753
7 *262:7 0.0150901
8 *939:DIODE *11458:A 0
9 *939:DIODE *11524:BEN[2] 0
10 *939:DIODE *385:38 0.000505847
11 *262:7 *11524:BEN[2] 0
12 *262:7 *385:38 6.76956e-05
13 *262:17 *11524:DI[3] 0
14 *262:17 *385:58 0.0064704
15 *262:23 *363:66 0.000241851
16 *11227:S *11227:A1 1.56428e-05
17 *222:28 *262:23 0.00357888
18 *237:17 *262:17 0
19 *246:69 *262:23 0.00357657
20 *247:15 *262:17 1.79536e-05
*RES
1 *11524:DO[3] *262:7 1.2825 
2 *262:7 *262:17 43.4162 
3 *262:17 *262:23 46.0775 
4 *262:23 *11227:A1 3.775 
5 *262:23 *938:DIODE 1.6 
6 *262:7 *939:DIODE 10.33 
*END

*D_NET *263 0.0593784
*CONN
*I *941:DIODE I *D sky130_fd_sc_hd__diode_2
*I *942:DIODE I *D sky130_fd_sc_hd__diode_2
*I *11230:A1 I *D sky130_fd_sc_hd__mux2_2
*I *940:DIODE I *D sky130_fd_sc_hd__diode_2
*I *943:DIODE I *D sky130_fd_sc_hd__diode_2
*I *11524:DO[4] O *D CF_SRAM_1024x32
*CAP
1 *941:DIODE 0.000509917
2 *942:DIODE 0
3 *11230:A1 0
4 *940:DIODE 0
5 *943:DIODE 0.000115494
6 *11524:DO[4] 7.29526e-05
7 *263:29 0.000442557
8 *263:27 0.000543174
9 *263:23 0.00128261
10 *263:17 0.0241154
11 *263:7 0.0236318
12 *941:DIODE *380:70 0.000488787
13 *263:7 *380:70 6.62451e-05
14 *263:17 *11524:DI[3] 0
15 *263:17 *549:157 6.02846e-05
16 *263:23 *363:66 0.000105649
17 *828:DIODE *263:23 0.000172737
18 *11230:A0 *263:29 0.000122325
19 *11230:S *263:27 0.000155497
20 *131:8 *943:DIODE 1.77665e-05
21 *131:8 *263:29 0.000121257
22 *224:36 *263:23 0.00369773
23 *239:77 *263:23 0.00347555
24 *242:31 *263:27 8.23457e-05
25 *244:23 *263:23 1.88904e-05
26 *245:26 *263:23 1.91824e-05
27 *247:15 *263:17 6.02846e-05
*RES
1 *11524:DO[4] *263:7 1.2975 
2 *263:7 *263:17 44.101 
3 *263:17 *263:23 46.2125 
4 *263:23 *263:27 3.645 
5 *263:27 *263:29 4.935 
6 *263:29 *943:DIODE 3.085 
7 *263:29 *940:DIODE 1.6 
8 *263:27 *11230:A1 1.6 
9 *263:23 *942:DIODE 1.6 
10 *263:7 *941:DIODE 10.33 
*END

*D_NET *264 0.048434
*CONN
*I *950:DIODE I *D sky130_fd_sc_hd__diode_2
*I *949:DIODE I *D sky130_fd_sc_hd__diode_2
*I *948:DIODE I *D sky130_fd_sc_hd__diode_2
*I *945:DIODE I *D sky130_fd_sc_hd__diode_2
*I *11233:A1 I *D sky130_fd_sc_hd__mux2_2
*I *946:DIODE I *D sky130_fd_sc_hd__diode_2
*I *947:DIODE I *D sky130_fd_sc_hd__diode_2
*I *11524:DO[5] O *D CF_SRAM_1024x32
*CAP
1 *950:DIODE 0.000120005
2 *949:DIODE 0
3 *948:DIODE 0
4 *945:DIODE 0
5 *11233:A1 0
6 *946:DIODE 0
7 *947:DIODE 0.000140969
8 *11524:DO[5] 5.70364e-05
9 *264:68 0.000223376
10 *264:61 0.000681225
11 *264:35 0.000431769
12 *264:33 0.000522268
13 *264:29 0.00745774
14 *264:19 0.0105612
15 *264:5 0.00396985
16 *264:5 *11524:DI[5] 7.92107e-05
17 *264:19 *376:67 3.75455e-05
18 *264:19 *549:143 0.000208198
19 *264:29 *11524:DI[6] 0.00191709
20 *264:29 *268:39 0.0100084
21 *264:29 *369:28 0
22 *264:29 *372:28 0.00411748
23 *264:61 *11450:A 0
24 *264:61 *11524:DI[5] 1.91597e-05
25 *264:61 *376:87 0.000372118
26 *11233:A0 *264:35 0.000147488
27 *11233:S *947:DIODE 3.64998e-06
28 *11233:S *264:33 1.83756e-05
29 *11233:S *264:35 3.98572e-05
30 *111:10 *264:29 1.79536e-05
31 *133:12 *947:DIODE 3.49355e-05
32 *143:80 *264:29 5.83121e-06
33 *238:81 *264:19 0.00653989
34 *240:22 *264:29 1.93834e-05
35 *247:15 *264:19 0.000426491
36 *248:21 *264:19 0.000255442
*RES
1 *11524:DO[5] *264:5 1.0875 
2 *264:5 *264:19 20.0462 
3 *264:19 *264:29 34.6462 
4 *264:29 *264:33 2.535 
5 *264:33 *264:35 3.555 
6 *264:35 *947:DIODE 3.085 
7 *264:35 *946:DIODE 1.6 
8 *264:33 *11233:A1 1.6 
9 *264:29 *945:DIODE 1.6 
10 *264:5 *264:61 8.955 
11 *264:61 *948:DIODE 1.6 
12 *264:61 *264:68 1.485 
13 *264:68 *949:DIODE 1.6 
14 *264:68 *950:DIODE 3.085 
*END

*D_NET *265 0.0487384
*CONN
*I *11236:A1 I *D sky130_fd_sc_hd__mux2_2
*I *951:DIODE I *D sky130_fd_sc_hd__diode_2
*I *952:DIODE I *D sky130_fd_sc_hd__diode_2
*I *953:DIODE I *D sky130_fd_sc_hd__diode_2
*I *954:DIODE I *D sky130_fd_sc_hd__diode_2
*I *957:DIODE I *D sky130_fd_sc_hd__diode_2
*I *956:DIODE I *D sky130_fd_sc_hd__diode_2
*I *959:DIODE I *D sky130_fd_sc_hd__diode_2
*I *958:DIODE I *D sky130_fd_sc_hd__diode_2
*I *11524:DO[6] O *D CF_SRAM_1024x32
*CAP
1 *11236:A1 1.76463e-05
2 *951:DIODE 0
3 *952:DIODE 0
4 *953:DIODE 0
5 *954:DIODE 5.93001e-05
6 *957:DIODE 0.000114598
7 *956:DIODE 0
8 *959:DIODE 0
9 *958:DIODE 0
10 *11524:DO[6] 0.000150491
11 *265:67 0.000170339
12 *265:65 0.0002194
13 *265:63 0.000506399
14 *265:53 0.0123671
15 *265:37 0.000536548
16 *265:24 0.000564963
17 *265:17 0.000855577
18 *265:11 0.0128145
19 *957:DIODE *372:71 0.000157282
20 *265:11 *11524:BEN[5] 0
21 *265:11 *11524:DI[6] 9.72762e-05
22 *265:11 *372:71 0.000157276
23 *265:11 *549:127 0.000280401
24 *265:17 *11524:BEN[6] 0
25 *265:17 *11524:DI[6] 1.92979e-05
26 *265:17 *549:127 1.79536e-05
27 *265:37 *378:41 0.000130202
28 *265:37 *389:104 0.000131917
29 *265:53 *11524:DI[6] 0.00738591
30 *265:53 *268:39 0.00299578
31 *265:53 *372:28 0.00810614
32 *265:63 *372:28 0.000136769
33 *265:63 *552:12 3.96088e-05
34 *751:DIODE *265:63 8.23457e-05
35 *134:18 *11236:A1 3.75754e-05
36 *135:8 *265:63 8.66915e-05
37 *135:8 *265:65 4.79712e-05
38 *135:8 *265:67 5.16211e-05
39 *138:10 *265:63 3.79555e-05
40 *150:14 *954:DIODE 0.000158976
41 *152:12 *954:DIODE 6.14503e-05
42 *213:33 *11236:A1 3.8923e-05
43 *247:15 *265:11 0.000102184
44 *248:25 *265:53 0
*RES
1 *11524:DO[6] *265:11 6.95 
2 *265:11 *265:17 10.6175 
3 *265:17 *958:DIODE 1.6 
4 *265:17 *265:24 1.485 
5 *265:24 *959:DIODE 1.6 
6 *265:24 *265:37 10.12 
7 *265:37 *956:DIODE 1.6 
8 *265:37 *957:DIODE 3.085 
9 *265:11 *265:53 42.1404 
10 *265:53 *265:63 5.95337 
11 *265:63 *265:65 1.485 
12 *265:65 *265:67 1.485 
13 *265:67 *954:DIODE 7.49 
14 *265:67 *953:DIODE 1.6 
15 *265:65 *952:DIODE 1.6 
16 *265:63 *951:DIODE 1.6 
17 *265:53 *11236:A1 4.5875 
*END

*D_NET *266 0.0486399
*CONN
*I *968:DIODE I *D sky130_fd_sc_hd__diode_2
*I *965:DIODE I *D sky130_fd_sc_hd__diode_2
*I *964:DIODE I *D sky130_fd_sc_hd__diode_2
*I *967:DIODE I *D sky130_fd_sc_hd__diode_2
*I *963:DIODE I *D sky130_fd_sc_hd__diode_2
*I *11239:A1 I *D sky130_fd_sc_hd__mux2_2
*I *960:DIODE I *D sky130_fd_sc_hd__diode_2
*I *962:DIODE I *D sky130_fd_sc_hd__diode_2
*I *961:DIODE I *D sky130_fd_sc_hd__diode_2
*I *11524:DO[7] O *D CF_SRAM_1024x32
*CAP
1 *968:DIODE 0.00011348
2 *965:DIODE 0.000105312
3 *964:DIODE 0
4 *967:DIODE 0
5 *963:DIODE 0
6 *11239:A1 0
7 *960:DIODE 0
8 *962:DIODE 0.000111039
9 *961:DIODE 0
10 *11524:DO[7] 0.000228488
11 *266:83 0.000526282
12 *266:75 0.000574099
13 *266:68 0.000916579
14 *266:36 0.00036341
15 *266:34 0.000509566
16 *266:23 0.000353593
17 *266:21 0.00971641
18 *266:13 0.0107254
19 *965:DIODE *369:79 0.000158435
20 *266:13 *11524:BEN[6] 0
21 *266:13 *11524:BEN[7] 1.79536e-05
22 *266:13 *11524:DI[7] 0.000119756
23 *266:13 *268:23 0.0004873
24 *266:13 *369:63 1.7635e-05
25 *266:13 *369:79 4.66108e-05
26 *266:13 *548:20 1.13272e-05
27 *266:13 *549:115 0.000314522
28 *266:21 *267:55 0.0153911
29 *266:21 *549:101 0.00599693
30 *266:68 *526:24 0.000157219
31 *266:68 *576:8 0.000155552
32 *266:83 *11454:A 0.000117355
33 *266:83 *369:79 0.000444423
34 *266:83 *482:24 0.000233925
35 *130:10 *266:21 1.93834e-05
36 *137:8 *962:DIODE 5.16211e-05
37 *137:8 *266:36 5.16211e-05
38 *168:114 *266:83 0.00036366
39 *238:69 *266:13 0.000183624
40 *238:69 *266:21 2.62637e-05
41 *238:69 *266:68 1.23136e-05
42 *247:15 *266:13 1.76036e-05
*RES
1 *11524:DO[7] *266:13 10.495 
2 *266:13 *266:21 43.965 
3 *266:21 *266:23 1.14 
4 *266:23 *961:DIODE 1.6 
5 *266:23 *266:34 3.585 
6 *266:34 *266:36 3.21 
7 *266:36 *962:DIODE 3.085 
8 *266:36 *960:DIODE 1.6 
9 *266:34 *11239:A1 1.6 
10 *266:21 *963:DIODE 1.6 
11 *266:13 *266:68 7.81103 
12 *266:68 *967:DIODE 1.6 
13 *266:68 *266:75 0.45 
14 *266:75 *266:83 12.43 
15 *266:83 *964:DIODE 1.6 
16 *266:83 *965:DIODE 3.085 
17 *266:75 *968:DIODE 2.74 
*END

*D_NET *267 0.0459797
*CONN
*I *11242:A1 I *D sky130_fd_sc_hd__mux2_2
*I *969:DIODE I *D sky130_fd_sc_hd__diode_2
*I *970:DIODE I *D sky130_fd_sc_hd__diode_2
*I *972:DIODE I *D sky130_fd_sc_hd__diode_2
*I *971:DIODE I *D sky130_fd_sc_hd__diode_2
*I *976:DIODE I *D sky130_fd_sc_hd__diode_2
*I *974:DIODE I *D sky130_fd_sc_hd__diode_2
*I *973:DIODE I *D sky130_fd_sc_hd__diode_2
*I *975:DIODE I *D sky130_fd_sc_hd__diode_2
*I *11524:DO[8] O *D CF_SRAM_1024x32
*CAP
1 *11242:A1 0
2 *969:DIODE 0
3 *970:DIODE 0
4 *972:DIODE 2.13317e-05
5 *971:DIODE 4.34292e-05
6 *976:DIODE 0.000119788
7 *974:DIODE 0
8 *973:DIODE 0
9 *975:DIODE 0.000240228
10 *11524:DO[8] 7.64987e-05
11 *267:63 0.000216178
12 *267:59 0.000299159
13 *267:57 0.000476399
14 *267:55 0.0132163
15 *267:27 0.00023067
16 *267:20 0.000275581
17 *267:9 0.000922369
18 *267:5 0.0134816
19 *971:DIODE *383:50 0.000187064
20 *972:DIODE *383:50 6.45236e-05
21 *975:DIODE *367:74 0.000228228
22 *267:5 *367:74 0
23 *267:9 *367:74 0
24 *267:55 *11515:DI[8] 0
25 *267:55 *268:23 7.48609e-05
26 *267:55 *367:64 0
27 *267:55 *549:101 0
28 *11242:S *267:55 4.6368e-06
29 *126:10 *267:55 1.7635e-05
30 *138:10 *267:55 1.88904e-05
31 *139:16 *267:57 1.26248e-05
32 *139:16 *267:59 1.26248e-05
33 *139:16 *267:63 1.35854e-05
34 *152:14 *971:DIODE 0.000185398
35 *152:14 *972:DIODE 7.23602e-05
36 *247:15 *267:55 7.66406e-05
37 *266:21 *267:55 0.0153911
*RES
1 *11524:DO[8] *267:5 1.0875 
2 *267:5 *267:9 6.855 
3 *267:9 *975:DIODE 5.155 
4 *267:9 *267:20 2.175 
5 *267:20 *973:DIODE 1.6 
6 *267:20 *267:27 1.485 
7 *267:27 *974:DIODE 1.6 
8 *267:27 *976:DIODE 3.085 
9 *267:5 *267:55 48.4635 
10 *267:55 *267:57 3.21 
11 *267:57 *267:59 1.485 
12 *267:59 *267:63 3.485 
13 *267:63 *971:DIODE 5.745 
14 *267:63 *972:DIODE 4.47 
15 *267:59 *970:DIODE 1.6 
16 *267:57 *969:DIODE 1.6 
17 *267:55 *11242:A1 1.6 
*END

*D_NET *268 0.0506332
*CONN
*I *984:DIODE I *D sky130_fd_sc_hd__diode_2
*I *983:DIODE I *D sky130_fd_sc_hd__diode_2
*I *986:DIODE I *D sky130_fd_sc_hd__diode_2
*I *985:DIODE I *D sky130_fd_sc_hd__diode_2
*I *982:DIODE I *D sky130_fd_sc_hd__diode_2
*I *980:DIODE I *D sky130_fd_sc_hd__diode_2
*I *11248:A1 I *D sky130_fd_sc_hd__mux2_2
*I *979:DIODE I *D sky130_fd_sc_hd__diode_2
*I *981:DIODE I *D sky130_fd_sc_hd__diode_2
*I *11524:DO[9] O *D CF_SRAM_1024x32
*CAP
1 *984:DIODE 0.000148325
2 *983:DIODE 0
3 *986:DIODE 2.97212e-05
4 *985:DIODE 5.5126e-05
5 *982:DIODE 0
6 *980:DIODE 0
7 *11248:A1 0
8 *979:DIODE 0
9 *981:DIODE 0.000141248
10 *11524:DO[9] 4.29209e-05
11 *268:76 8.48472e-05
12 *268:74 0.000908199
13 *268:45 0.000455136
14 *268:43 0.000633524
15 *268:41 0.000432587
16 *268:39 0.0105542
17 *268:23 0.0112885
18 *268:5 0.00165004
19 *985:DIODE *569:16 7.0152e-05
20 *986:DIODE *569:16 3.4222e-05
21 *268:23 *11524:BEN[8] 1.59901e-05
22 *268:23 *367:64 0.000105991
23 *268:23 *369:63 2.22315e-05
24 *268:39 *11524:DI[6] 0
25 *268:39 *369:28 0.00370528
26 *268:39 *369:63 0.00477083
27 *268:74 *11524:BEN[8] 0
28 *268:74 *365:78 0
29 *11248:S *268:43 4.66108e-05
30 *11318:A0 *985:DIODE 6.06593e-05
31 *130:10 *268:39 1.88904e-05
32 *144:8 *981:DIODE 3.75937e-05
33 *144:8 *268:45 3.75937e-05
34 *168:114 *985:DIODE 0.000105841
35 *168:114 *986:DIODE 3.86607e-05
36 *238:69 *268:23 0.000731106
37 *247:15 *268:23 0.000840791
38 *248:25 *268:39 0
39 *264:29 *268:39 0.0100084
40 *265:53 *268:39 0.00299578
41 *266:13 *268:23 0.0004873
42 *267:55 *268:23 7.48609e-05
*RES
1 *11524:DO[9] *268:5 0.7425 
2 *268:5 *268:23 20.1476 
3 *268:23 *268:39 45.9036 
4 *268:39 *268:41 1.14 
5 *268:41 *268:43 3.21 
6 *268:43 *268:45 3.21 
7 *268:45 *981:DIODE 3.085 
8 *268:45 *979:DIODE 1.6 
9 *268:43 *11248:A1 1.6 
10 *268:41 *980:DIODE 1.6 
11 *268:39 *982:DIODE 1.6 
12 *268:5 *268:74 9.765 
13 *268:74 *268:76 2 
14 *268:76 *985:DIODE 5.745 
15 *268:76 *986:DIODE 4.47 
16 *268:74 *983:DIODE 1.6 
17 *268:74 *984:DIODE 3.085 
*END

*D_NET *269 0.0449307
*CONN
*I *11215:A1 I *D sky130_fd_sc_hd__mux2_2
*I *987:DIODE I *D sky130_fd_sc_hd__diode_2
*I *988:DIODE I *D sky130_fd_sc_hd__diode_2
*I *11533:DO[0] O *D CF_SRAM_1024x32
*CAP
1 *11215:A1 0.000166046
2 *987:DIODE 0
3 *988:DIODE 0
4 *11533:DO[0] 0.000699208
5 *269:28 0.00126837
6 *269:20 0.00599422
7 *269:18 0.00547907
8 *269:9 0.00128639
9 *11215:A1 *301:65 0.000219382
10 *269:9 *11533:ScanInCC 0
11 *269:9 *11533:DI[0] 8.43113e-05
12 *269:20 *277:26 0.000406078
13 *269:20 *278:18 0.00882937
14 *269:20 *280:20 0.0160087
15 *269:28 *278:18 0.000574246
16 *269:28 *280:20 0.000212144
17 *269:28 *294:32 0.000276152
18 *269:28 *301:65 0.000122184
19 *269:28 *301:67 0.000122184
20 *269:28 *328:27 0.000563078
21 *142:10 *269:28 0.000212378
22 *149:24 *269:28 0.000736388
23 *151:16 *269:28 0.000511001
24 *203:38 *269:28 0.000989733
25 *203:44 *269:28 0.000170109
*RES
1 *11533:DO[0] *269:9 10.5075 
2 *269:9 *988:DIODE 1.6 
3 *269:9 *269:18 7.97 
4 *269:18 *269:20 191.977 
5 *269:20 *269:28 35.9825 
6 *269:28 *987:DIODE 1.6 
7 *269:28 *11215:A1 3.775 
*END

*D_NET *270 0.0263063
*CONN
*I *990:DIODE I *D sky130_fd_sc_hd__diode_2
*I *11251:A1 I *D sky130_fd_sc_hd__mux2_2
*I *991:DIODE I *D sky130_fd_sc_hd__diode_2
*I *11533:DO[10] O *D CF_SRAM_1024x32
*CAP
1 *990:DIODE 3.69588e-05
2 *11251:A1 0.000396366
3 *991:DIODE 0
4 *11533:DO[10] 0.000702162
5 *270:18 0.00260646
6 *270:16 0.00254377
7 *270:7 0.0010728
8 *11251:A1 *11251:A0 4.41506e-05
9 *11251:A1 *11515:DI[30] 1.31242e-06
10 *11251:A1 *272:21 0.000111149
11 *11251:A1 *297:20 0.000111149
12 *11251:A1 *302:64 0.000134118
13 *270:7 *11533:DI[10] 0.000232187
14 *270:18 *272:21 0.00786824
15 *270:18 *297:20 0.00929291
16 *146:8 *990:DIODE 4.66108e-05
17 *149:22 *270:18 0.000295846
18 *203:151 *270:18 0.000810089
*RES
1 *11533:DO[10] *270:7 10.2525 
2 *270:7 *991:DIODE 1.6 
3 *270:7 *270:16 5.555 
4 *270:16 *270:18 106.95 
5 *270:18 *11251:A1 8.88 
6 *270:18 *990:DIODE 4.05 
*END

*D_NET *271 0.0202396
*CONN
*I *993:DIODE I *D sky130_fd_sc_hd__diode_2
*I *11255:A1 I *D sky130_fd_sc_hd__mux2_2
*I *992:DIODE I *D sky130_fd_sc_hd__diode_2
*I *11533:DO[11] O *D CF_SRAM_1024x32
*CAP
1 *993:DIODE 0.000453155
2 *11255:A1 0
3 *992:DIODE 3.34241e-05
4 *11533:DO[11] 0.000329928
5 *271:24 0.00341886
6 *271:16 0.0041481
7 *271:10 0.00153837
8 *271:4 7.37025e-06
9 *992:DIODE *306:42 0.000199496
10 *271:10 *11533:DI[11] 0
11 *271:16 *11533:DI[13] 0.0024331
12 *271:16 *357:10 0.000935239
13 *271:16 *376:48 0.00407347
14 *271:16 *391:88 0.000854284
15 *271:24 *11261:A0 0
16 *271:24 *11533:vpwrpc 9.45844e-06
17 *271:24 *11533:vpwrac 2.16846e-05
18 *271:24 *275:20 0.000380247
19 *271:24 *303:35 0.001267
20 *141:100 *992:DIODE 4.77719e-05
21 *141:109 *992:DIODE 8.86759e-05
*RES
1 *11533:DO[11] *271:4 0.1275 
2 *11533:DO[11] *271:10 4.59 
3 *271:10 *271:16 48.1225 
4 *271:16 *271:24 33.6893 
5 *271:24 *992:DIODE 3.43 
6 *271:24 *11255:A1 1.6 
7 *271:10 *993:DIODE 6.88 
*END

*D_NET *272 0.024507
*CONN
*I *994:DIODE I *D sky130_fd_sc_hd__diode_2
*I *11258:A1 I *D sky130_fd_sc_hd__mux2_2
*I *995:DIODE I *D sky130_fd_sc_hd__diode_2
*I *11533:DO[12] O *D CF_SRAM_1024x32
*CAP
1 *994:DIODE 0
2 *11258:A1 0.000326752
3 *995:DIODE 0
4 *11533:DO[12] 0.000817611
5 *272:25 0.000392392
6 *272:21 0.0020337
7 *272:19 0.00237535
8 *272:10 0.0012184
9 *272:4 6.50316e-06
10 *11258:A1 *304:63 0.000159109
11 *272:10 *11533:BEN[11] 0
12 *272:10 *11533:DI[12] 0
13 *272:21 *296:40 0.000429867
14 *272:21 *297:20 0.00010179
15 *272:21 *297:36 0.000239762
16 *272:21 *302:56 1.46216e-05
17 *272:21 *302:58 9.67888e-05
18 *272:21 *302:64 7.13993e-05
19 *272:25 *304:63 4.01811e-05
20 *11251:A1 *272:21 0.000111149
21 *146:10 *272:21 1.75583e-05
22 *149:22 *272:21 0.000443944
23 *203:24 *272:21 0.00249499
24 *203:151 *272:21 0.00524686
25 *270:18 *272:21 0.00786824
*RES
1 *11533:DO[12] *272:4 0.1125 
2 *11533:DO[12] *272:10 10.11 
3 *272:10 *995:DIODE 1.6 
4 *272:10 *272:19 5.9 
5 *272:19 *272:21 96.75 
6 *272:21 *272:25 2.795 
7 *272:25 *11258:A1 5.155 
8 *272:25 *994:DIODE 1.6 
*END

*D_NET *273 0.0199835
*CONN
*I *11261:A1 I *D sky130_fd_sc_hd__mux2_4
*I *11533:DO[13] O *D CF_SRAM_1024x32
*CAP
1 *11261:A1 0.00303771
2 *11533:DO[13] 0.000785122
3 *273:14 0.00408437
4 *273:12 0.00183179
5 *273:4 0
6 *11261:A1 *11261:A0 0.000322373
7 *273:12 *11533:BEN[12] 0
8 *273:12 *11533:DI[13] 0
9 *273:14 *483:44 0.000697054
10 *273:14 *558:141 0.00259222
11 *273:14 *558:155 0.000132036
12 *273:14 *558:257 0.000530418
13 *273:14 *558:277 0.000654258
14 *273:14 *629:74 0.00026313
15 *273:14 *631:68 0.00437091
16 *153:24 *11261:A1 0.000682149
*RES
1 *11533:DO[13] *273:4 0.113077 
2 *11533:DO[13] *273:12 11.765 
3 *273:12 *273:14 50.34 
4 *273:14 *11261:A1 47.19 
*END

*D_NET *274 0.0195621
*CONN
*I *997:DIODE I *D sky130_fd_sc_hd__diode_2
*I *11264:A1 I *D sky130_fd_sc_hd__mux2_2
*I *996:DIODE I *D sky130_fd_sc_hd__diode_2
*I *11533:DO[14] O *D CF_SRAM_1024x32
*CAP
1 *997:DIODE 0.000351492
2 *11264:A1 0.000288417
3 *996:DIODE 0
4 *11533:DO[14] 0.000449959
5 *274:26 0.00316696
6 *274:24 0.00393404
7 *274:20 0.00176645
8 *274:10 0.00151241
9 *274:4 0
10 *997:DIODE *558:277 0
11 *11264:A1 *11264:A0 2.97746e-05
12 *11264:A1 *11267:A1 0.000179976
13 *274:10 *11533:BEN[13] 0
14 *274:10 *11533:DI[14] 0
15 *274:20 *305:15 0.000588678
16 *274:20 *389:58 6.68675e-05
17 *274:20 *394:68 0.0020442
18 *274:20 *463:36 0.0020442
19 *274:24 *365:48 0.00219286
20 *274:26 *11267:A1 0.000873721
21 *141:121 *11264:A1 7.20612e-05
*RES
1 *11533:DO[14] *274:4 0.133636 
2 *11533:DO[14] *274:10 5.97 
3 *274:10 *274:20 35.445 
4 *274:20 *274:24 27.35 
5 *274:24 *274:26 34.95 
6 *274:26 *996:DIODE 1.6 
7 *274:26 *11264:A1 10.91 
8 *274:10 *997:DIODE 5.5 
*END

*D_NET *275 0.0144632
*CONN
*I *11267:A1 I *D sky130_fd_sc_hd__mux2_4
*I *11533:DO[15] O *D CF_SRAM_1024x32
*CAP
1 *11267:A1 0.00191769
2 *11533:DO[15] 0.00150334
3 *275:24 0.00368458
4 *275:20 0.00327023
5 *275:4 0
6 *11267:A1 *11267:A0 0.000168213
7 *275:20 *11533:DI[15] 0.000310829
8 *275:20 *305:15 0
9 *275:20 *387:80 0.00115448
10 *275:20 *389:66 0.000509987
11 *275:20 *391:88 0.000177835
12 *11264:A1 *11267:A1 0.000179976
13 *11267:S *11267:A1 0.000226413
14 *141:121 *11267:A1 0.000105647
15 *271:24 *275:20 0.000380247
16 *274:26 *11267:A1 0.000873721
*RES
1 *11533:DO[15] *275:4 0.163333 
2 *11533:DO[15] *275:20 39.765 
3 *275:20 *275:24 29.39 
4 *275:24 *11267:A1 35.635 
*END

*D_NET *276 0.048788
*CONN
*I *11270:A1 I *D sky130_fd_sc_hd__mux2_2
*I *998:DIODE I *D sky130_fd_sc_hd__diode_2
*I *999:DIODE I *D sky130_fd_sc_hd__diode_2
*I *11533:DO[16] O *D CF_SRAM_1024x32
*CAP
1 *11270:A1 3.98087e-05
2 *998:DIODE 0.000398284
3 *999:DIODE 0
4 *11533:DO[16] 0.000328445
5 *276:20 0.0138737
6 *276:18 0.0145146
7 *276:9 0.00140743
8 *998:DIODE *298:22 1.23331e-05
9 *998:DIODE *308:50 3.09164e-05
10 *998:DIODE *332:19 2.42236e-05
11 *11270:A1 *308:54 2.49909e-05
12 *276:9 *11533:ScanInDR 0.000999326
13 *276:9 *11533:DI[16] 0.00116668
14 *276:9 *418:106 1.16578e-05
15 *276:20 *291:22 0
16 *276:20 *293:25 0
17 *276:20 *308:50 0.000137571
18 *276:20 *323:19 0.0155088
19 *276:20 *332:19 2.05661e-05
20 *163:10 *998:DIODE 0.000243555
21 *225:24 *998:DIODE 4.51961e-05
*RES
1 *11533:DO[16] *276:9 12.735 
2 *276:9 *999:DIODE 1.6 
3 *276:9 *276:18 13.145 
4 *276:18 *276:20 225.27 
5 *276:20 *998:DIODE 9.27 
6 *276:20 *11270:A1 4.05 
*END

*D_NET *277 0.0518646
*CONN
*I *1001:DIODE I *D sky130_fd_sc_hd__diode_2
*I *11273:A1 I *D sky130_fd_sc_hd__mux2_2
*I *1002:DIODE I *D sky130_fd_sc_hd__diode_2
*I *11533:DO[17] O *D CF_SRAM_1024x32
*CAP
1 *1001:DIODE 0
2 *11273:A1 0.000215633
3 *1002:DIODE 0
4 *11533:DO[17] 0.000708095
5 *277:40 0.00119854
6 *277:26 0.00650371
7 *277:24 0.00602933
8 *277:15 0.00121663
9 *11273:A1 *291:22 0.000120888
10 *11273:A1 *309:59 0.000120789
11 *277:15 *11533:BEN[16] 0
12 *277:15 *11533:WLBI 0.000428764
13 *277:15 *11533:TM 0.000186204
14 *277:15 *11533:DI[17] 3.09088e-05
15 *277:26 *278:18 0
16 *277:26 *280:20 0.0155378
17 *277:26 *294:20 0.0141018
18 *277:26 *330:35 0.000123845
19 *277:40 *291:22 0.00191
20 *277:40 *310:29 0.000552199
21 *151:18 *11273:A1 0.000122548
22 *151:18 *277:40 0.000593097
23 *153:24 *277:26 0.000143244
24 *203:24 *277:40 1.08758e-05
25 *203:151 *277:26 0.00160355
26 *269:20 *277:26 0.000406078
*RES
1 *11533:DO[17] *277:15 16.87 
2 *277:15 *1002:DIODE 1.6 
3 *277:15 *277:24 7.28 
4 *277:24 *277:26 219.15 
5 *277:26 *277:40 31.45 
6 *277:40 *11273:A1 7.155 
7 *277:40 *1001:DIODE 3.6 
*END

*D_NET *278 0.039139
*CONN
*I *11276:A1 I *D sky130_fd_sc_hd__mux2_2
*I *1003:DIODE I *D sky130_fd_sc_hd__diode_2
*I *1004:DIODE I *D sky130_fd_sc_hd__diode_2
*I *11533:DO[18] O *D CF_SRAM_1024x32
*CAP
1 *11276:A1 0.000165632
2 *1003:DIODE 0
3 *1004:DIODE 0
4 *11533:DO[18] 0.000591179
5 *278:20 0.000165632
6 *278:18 0.0110431
7 *278:16 0.011672
8 *278:7 0.00122006
9 *11276:A1 *310:31 0.000231174
10 *278:7 *11533:DI[18] 0.000392901
11 *278:18 *291:22 0
12 *278:18 *328:27 0.0042537
13 *269:20 *278:18 0.00882937
14 *269:28 *278:18 0.000574246
15 *277:26 *278:18 0
*RES
1 *11533:DO[18] *278:7 10.29 
2 *278:7 *1004:DIODE 1.6 
3 *278:7 *278:16 8.66 
4 *278:16 *278:18 241.59 
5 *278:18 *278:20 2 
6 *278:20 *1003:DIODE 1.6 
7 *278:20 *11276:A1 3.775 
*END

*D_NET *279 0.0631965
*CONN
*I *1006:DIODE I *D sky130_fd_sc_hd__diode_2
*I *1005:DIODE I *D sky130_fd_sc_hd__diode_2
*I *11281:A1 I *D sky130_fd_sc_hd__mux2_4
*I *11533:DO[19] O *D CF_SRAM_1024x32
*CAP
1 *1006:DIODE 9.17089e-05
2 *1005:DIODE 0.000137682
3 *11281:A1 1.24577e-05
4 *11533:DO[19] 0.00041099
5 *279:29 0.000193607
6 *279:25 0.00326056
7 *279:23 0.00321709
8 *279:21 0.0030727
9 *279:19 0.0041042
10 *279:15 0.00226229
11 *279:9 0.00173349
12 *1005:DIODE *11281:A0 0.00107784
13 *1005:DIODE *292:37 0.00110449
14 *279:9 *11533:DI[19] 0.000501928
15 *279:15 *11533:DI[17] 0
16 *279:15 *398:80 6.16226e-06
17 *279:15 *629:74 0.00245757
18 *279:15 *630:213 0
19 *279:15 *630:225 0
20 *279:19 *284:21 0.00230869
21 *279:21 *281:20 0.0142361
22 *279:21 *282:22 1.08129e-05
23 *279:21 *284:23 0.0162735
24 *279:21 *285:22 2.87412e-05
25 *279:21 *287:18 0
26 *279:21 *292:19 0.000109656
27 *279:21 *331:67 0.00175609
28 *279:25 *292:25 0.00209693
29 *279:25 *292:37 0.00100967
30 *279:29 *292:37 0.000138941
31 *11281:S *1005:DIODE 2.30292e-05
32 *11281:S *11281:A1 9.03508e-06
33 *11281:S *279:29 8.97042e-05
34 *11533:CLKin *279:15 0
35 *3:35 *1005:DIODE 0.000260947
36 *3:35 *279:25 0.00119987
*RES
1 *11533:DO[19] *279:9 9.255 
2 *279:9 *279:15 32.665 
3 *279:15 *279:19 24.185 
4 *279:19 *279:21 185.235 
5 *279:21 *279:23 2 
6 *279:23 *279:25 57.375 
7 *279:25 *279:29 1.755 
8 *279:29 *11281:A1 1.96 
9 *279:29 *1005:DIODE 11.71 
10 *279:9 *1006:DIODE 2.74 
*END

*D_NET *280 0.0465365
*CONN
*I *11220:A1 I *D sky130_fd_sc_hd__mux2_2
*I *1007:DIODE I *D sky130_fd_sc_hd__diode_2
*I *1008:DIODE I *D sky130_fd_sc_hd__diode_2
*I *11533:DO[1] O *D CF_SRAM_1024x32
*CAP
1 *11220:A1 0.000190497
2 *1007:DIODE 0
3 *1008:DIODE 0
4 *11533:DO[1] 0.000751475
5 *280:22 0.000190497
6 *280:20 0.00406508
7 *280:18 0.00462092
8 *280:9 0.00130732
9 *11220:A1 *312:29 4.77757e-05
10 *280:9 *11533:BEN[0] 0
11 *280:9 *11533:DI[1] 0
12 *280:20 *294:20 6.26995e-05
13 *280:20 *330:35 0.000245189
14 *11220:S *11220:A1 5.23617e-05
15 *142:10 *280:20 0.000865417
16 *151:16 *280:20 0.000531088
17 *203:24 *280:20 0.00113128
18 *203:38 *280:20 0.000715288
19 *224:34 *11220:A1 9.60582e-07
20 *269:20 *280:20 0.0160087
21 *269:28 *280:20 0.000212144
22 *277:26 *280:20 0.0155378
*RES
1 *11533:DO[1] *280:9 10.4925 
2 *280:9 *1008:DIODE 1.6 
3 *280:9 *280:18 7.625 
4 *280:18 *280:20 202.83 
5 *280:20 *280:22 2 
6 *280:22 *1007:DIODE 1.6 
7 *280:22 *11220:A1 3.775 
*END

*D_NET *281 0.0637047
*CONN
*I *11286:A1 I *D sky130_fd_sc_hd__mux2_4
*I *1009:DIODE I *D sky130_fd_sc_hd__diode_2
*I *1010:DIODE I *D sky130_fd_sc_hd__diode_2
*I *11533:DO[20] O *D CF_SRAM_1024x32
*CAP
1 *11286:A1 0.000777549
2 *1009:DIODE 0
3 *1010:DIODE 0
4 *11533:DO[20] 0.000503933
5 *281:30 0.00215422
6 *281:24 0.00390981
7 *281:22 0.00253314
8 *281:20 0.00399257
9 *281:18 0.00577334
10 *281:9 0.0022847
11 *281:9 *11533:DI[20] 0.00067149
12 *281:18 *11533:DI[20] 5.05437e-05
13 *281:18 *400:80 0.000177439
14 *281:20 *282:22 0.0167951
15 *281:24 *282:26 0.00773687
16 *281:30 *11281:A0 7.37282e-05
17 *281:30 *311:19 0.000745309
18 *11281:S *11286:A1 0.00108568
19 *3:35 *11286:A1 0.000165928
20 *166:28 *11286:A1 3.72409e-05
21 *279:21 *281:20 0.0142361
*RES
1 *11533:DO[20] *281:9 10.425 
2 *281:9 *1010:DIODE 1.6 
3 *281:9 *281:18 22.46 
4 *281:18 *281:20 194.925 
5 *281:20 *281:22 2 
6 *281:22 *281:24 70.14 
7 *281:24 *281:30 30.37 
8 *281:30 *1009:DIODE 1.6 
9 *281:30 *11286:A1 12.67 
*END

*D_NET *282 0.0731578
*CONN
*I *11290:A1 I *D sky130_fd_sc_hd__mux2_4
*I *1012:DIODE I *D sky130_fd_sc_hd__diode_2
*I *1013:DIODE I *D sky130_fd_sc_hd__diode_2
*I *11533:DO[21] O *D CF_SRAM_1024x32
*CAP
1 *11290:A1 0.000295915
2 *1012:DIODE 0
3 *1013:DIODE 0
4 *11533:DO[21] 0.000677158
5 *282:34 0.00181385
6 *282:26 0.00285747
7 *282:24 0.00133953
8 *282:22 0.00387569
9 *282:20 0.00564107
10 *282:11 0.00244254
11 *282:11 *11533:BEN[20] 0
12 *282:11 *11533:DI[21] 8.25259e-05
13 *282:22 *285:22 0.017522
14 *282:26 *286:26 0.00883828
15 *282:26 *303:35 0.00177157
16 *1011:DIODE *11290:A1 6.96579e-05
17 *11290:S *11290:A1 4.77719e-05
18 *113:36 *11290:A1 0.000939171
19 *113:36 *282:34 4.82919e-05
20 *174:6 *11290:A1 9.13949e-06
21 *174:8 *11290:A1 4.49945e-05
22 *174:10 *11290:A1 0.000147262
23 *174:29 *11290:A1 0.000151109
24 *279:21 *282:22 1.08129e-05
25 *281:20 *282:22 0.0167951
26 *281:24 *282:26 0.00773687
*RES
1 *11533:DO[21] *282:11 10.71 
2 *282:11 *1013:DIODE 1.6 
3 *282:11 *282:20 22.115 
4 *282:20 *282:22 203.34 
5 *282:22 *282:24 2 
6 *282:24 *282:26 80.145 
7 *282:26 *282:34 26.995 
8 *282:34 *1012:DIODE 1.6 
9 *282:34 *11290:A1 12.19 
*END

*D_NET *283 0.0768435
*CONN
*I *11293:A1 I *D sky130_fd_sc_hd__mux2_4
*I *1016:DIODE I *D sky130_fd_sc_hd__diode_2
*I *1014:DIODE I *D sky130_fd_sc_hd__diode_2
*I *1015:DIODE I *D sky130_fd_sc_hd__diode_2
*I *11533:DO[22] O *D CF_SRAM_1024x32
*CAP
1 *11293:A1 7.17173e-05
2 *1016:DIODE 0.000748347
3 *1014:DIODE 0
4 *1015:DIODE 0
5 *11533:DO[22] 0.000504909
6 *283:41 0.00163034
7 *283:34 0.00273368
8 *283:26 0.00339108
9 *283:24 0.00146767
10 *283:22 0.00613963
11 *283:20 0.00760649
12 *283:11 0.00197177
13 *1016:DIODE *1124:DIODE 0
14 *1016:DIODE *11290:A0 0.000160314
15 *1016:DIODE *315:35 0
16 *11293:A1 *11293:A0 7.4501e-05
17 *283:11 *11533:DI[22] 0.00090774
18 *283:20 *11533:DI[22] 5.05437e-05
19 *283:22 *286:22 0.0189589
20 *283:22 *289:25 0
21 *283:22 *299:18 0.00643006
22 *283:22 *363:66 0.00108366
23 *283:26 *285:26 0.00923784
24 *283:26 *290:29 0.00989285
25 *283:26 *303:35 0.00202803
26 *283:26 *305:15 0.000165061
27 *283:34 *284:31 0.000104153
28 *283:41 *284:31 0.000717913
29 *283:41 *313:47 0.000106052
30 *11293:S *11293:A1 4.69951e-06
31 *113:36 *1016:DIODE 0.000326917
32 *166:10 *1016:DIODE 6.29646e-05
33 *174:57 *1016:DIODE 4.66108e-05
34 *174:67 *1016:DIODE 0.000178805
35 *176:50 *11293:A1 1.06688e-05
36 *176:75 *1016:DIODE 0
37 *200:66 *283:22 2.9648e-05
*RES
1 *11533:DO[22] *283:11 10.695 
2 *283:11 *1015:DIODE 1.6 
3 *283:11 *283:20 17.63 
4 *283:20 *283:22 212.52 
5 *283:22 *283:24 2 
6 *283:24 *283:26 89.805 
7 *283:26 *283:34 28.885 
8 *283:34 *1014:DIODE 1.6 
9 *283:34 *283:41 11.145 
10 *283:41 *1016:DIODE 22.62 
11 *283:41 *11293:A1 2.92 
*END

*D_NET *284 0.0800996
*CONN
*I *1018:DIODE I *D sky130_fd_sc_hd__diode_2
*I *1017:DIODE I *D sky130_fd_sc_hd__diode_2
*I *11296:A1 I *D sky130_fd_sc_hd__mux2_4
*I *1202:DIODE I *D sky130_fd_sc_hd__diode_2
*I *11533:DO[23] O *D CF_SRAM_1024x32
*CAP
1 *1018:DIODE 3.57716e-05
2 *1017:DIODE 0.000625491
3 *11296:A1 0
4 *1202:DIODE 0
5 *11533:DO[23] 0.000511596
6 *284:52 0.000691465
7 *284:45 0.000355532
8 *284:31 0.00229079
9 *284:29 0.00612291
10 *284:23 0.00729336
11 *284:21 0.00432761
12 *284:15 0.00240891
13 *284:13 0.00125297
14 *284:11 0.000547367
15 *1017:DIODE *11296:A0 0.000340058
16 *1017:DIODE *11299:A1 0
17 *1017:DIODE *306:36 0.000431422
18 *1018:DIODE *11533:DI[23] 1.1392e-05
19 *284:11 *11533:DI[23] 0.000387087
20 *284:15 *292:11 0.00529083
21 *284:15 *629:74 0.00528542
22 *284:23 *292:19 0.0150779
23 *284:29 *306:42 0.000636496
24 *284:31 *306:40 0.00261416
25 *284:31 *313:47 0.000155399
26 *284:45 *11293:A0 0.000454024
27 *284:45 *11296:A0 0
28 *284:45 *313:47 0.000141085
29 *284:52 *11293:A0 9.29176e-05
30 *284:52 *11296:A0 1.47256e-05
31 *1200:DIODE *284:31 0.000159697
32 *11296:S *1017:DIODE 5.4155e-06
33 *3:35 *284:31 0.000287052
34 *166:16 *284:31 1.61831e-05
35 *166:16 *284:45 1.91597e-05
36 *166:20 *284:31 1.61831e-05
37 *166:66 *1017:DIODE 4.47209e-05
38 *166:66 *284:45 2.0514e-05
39 *166:66 *284:52 0.000313852
40 *166:87 *1017:DIODE 0.000334157
41 *176:6 *284:31 0.000356395
42 *176:8 *284:31 0.000164874
43 *176:10 *284:31 0.000163568
44 *176:50 *284:31 0.000167449
45 *176:50 *284:45 0.000243551
46 *176:57 *284:45 0.000163568
47 *176:64 *284:45 0.000164874
48 *176:75 *284:45 0.000163199
49 *178:6 *1017:DIODE 0.000384205
50 *178:17 *1017:DIODE 0.000106331
51 *178:24 *1017:DIODE 3.64998e-06
52 *279:19 *284:21 0.00230869
53 *279:21 *284:23 0.0162735
54 *283:34 *284:31 0.000104153
55 *283:41 *284:31 0.000717913
*RES
1 *11533:DO[23] *284:11 10.335 
2 *284:11 *284:13 2 
3 *284:13 *284:15 61.05 
4 *284:15 *284:21 25.84 
5 *284:21 *284:23 182.685 
6 *284:23 *284:29 49.8125 
7 *284:29 *284:31 49.9575 
8 *284:31 *284:45 12.97 
9 *284:45 *1202:DIODE 1.6 
10 *284:45 *284:52 2.865 
11 *284:52 *11296:A1 1.6 
12 *284:52 *1017:DIODE 18.845 
13 *284:11 *1018:DIODE 2.05 
*END

*D_NET *285 0.0837592
*CONN
*I *1019:DIODE I *D sky130_fd_sc_hd__diode_2
*I *1021:DIODE I *D sky130_fd_sc_hd__diode_2
*I *11299:A1 I *D sky130_fd_sc_hd__mux2_4
*I *1020:DIODE I *D sky130_fd_sc_hd__diode_2
*I *11533:DO[24] O *D CF_SRAM_1024x32
*CAP
1 *1019:DIODE 2.52597e-05
2 *1021:DIODE 0.000130127
3 *11299:A1 4.1676e-05
4 *1020:DIODE 0
5 *11533:DO[24] 0.000694262
6 *285:43 0.000736965
7 *285:30 0.00210618
8 *285:26 0.00399019
9 *285:24 0.00250727
10 *285:22 0.00472688
11 *285:20 0.006458
12 *285:11 0.00242538
13 *1021:DIODE *11299:A0 2.92496e-05
14 *285:11 *11533:DI[24] 0
15 *285:22 *287:18 0.0197248
16 *285:26 *290:29 0.00211642
17 *285:26 *305:15 0.00431542
18 *285:26 *311:15 0.00540495
19 *285:30 *11296:A0 7.15894e-05
20 *285:30 *316:35 6.71803e-06
21 *285:43 *11296:A0 8.65961e-05
22 *285:43 *11299:A0 0.00121469
23 *285:43 *313:47 0.00011579
24 *1017:DIODE *11299:A1 0
25 *1221:DIODE *285:30 0
26 *178:158 *11299:A1 0
27 *180:50 *1019:DIODE 2.16917e-05
28 *180:50 *285:43 2.05056e-05
29 *180:52 *1021:DIODE 0
30 *180:163 *1021:DIODE 0
31 *279:21 *285:22 2.87412e-05
32 *282:22 *285:22 0.017522
33 *283:26 *285:26 0.00923784
*RES
1 *11533:DO[24] *285:11 10.6975 
2 *285:11 *1020:DIODE 1.6 
3 *285:11 *285:20 21.77 
4 *285:20 *285:22 229.095 
5 *285:22 *285:24 2 
6 *285:24 *285:26 119.82 
7 *285:26 *285:30 25.055 
8 *285:30 *11299:A1 4.215 
9 *285:30 *285:43 13.49 
10 *285:43 *1021:DIODE 7.49 
11 *285:43 *1019:DIODE 2.05 
*END

*D_NET *286 0.0925021
*CONN
*I *1023:DIODE I *D sky130_fd_sc_hd__diode_2
*I *11302:A1 I *D sky130_fd_sc_hd__mux2_4
*I *1024:DIODE I *D sky130_fd_sc_hd__diode_2
*I *11533:DO[25] O *D CF_SRAM_1024x32
*CAP
1 *1023:DIODE 0.00118067
2 *11302:A1 5.73371e-05
3 *1024:DIODE 0
4 *11533:DO[25] 0.000512512
5 *286:30 0.00282528
6 *286:26 0.00486187
7 *286:24 0.0032746
8 *286:22 0.00489009
9 *286:20 0.00632565
10 *286:11 0.00194807
11 *1023:DIODE *11302:A0 0.000750885
12 *1023:DIODE *306:22 2.66586e-05
13 *1023:DIODE *313:47 0.000149781
14 *286:11 *11533:DI[25] 0.0005722
15 *286:20 *11533:DI[25] 3.72916e-05
16 *286:20 *411:80 0.000193586
17 *286:22 *288:25 0.00395027
18 *286:22 *363:66 0.000954651
19 *286:26 *288:29 0.0153316
20 *286:26 *303:35 0.00316318
21 *286:30 *317:31 0
22 *11302:S *11302:A1 5.18317e-06
23 *11533:R_WB *286:22 0.000284592
24 *182:48 *1023:DIODE 3.04704e-05
25 *182:55 *1023:DIODE 6.90417e-05
26 *182:62 *1023:DIODE 6.6925e-05
27 *182:79 *1023:DIODE 1.56428e-05
28 *200:66 *286:22 0.013227
29 *282:26 *286:26 0.00883828
30 *283:22 *286:22 0.0189589
*RES
1 *11533:DO[25] *286:11 10.722 
2 *286:11 *1024:DIODE 1.6 
3 *286:11 *286:20 17.285 
4 *286:20 *286:22 236.235 
5 *286:22 *286:24 2 
6 *286:24 *286:26 139.14 
7 *286:26 *286:30 25.82 
8 *286:30 *11302:A1 4.47 
9 *286:30 *1023:DIODE 19.575 
*END

*D_NET *287 0.0856392
*CONN
*I *1027:DIODE I *D sky130_fd_sc_hd__diode_2
*I *11305:A1 I *D sky130_fd_sc_hd__mux2_4
*I *1025:DIODE I *D sky130_fd_sc_hd__diode_2
*I *1026:DIODE I *D sky130_fd_sc_hd__diode_2
*I *11533:DO[26] O *D CF_SRAM_1024x32
*CAP
1 *1027:DIODE 0.000231969
2 *11305:A1 0
3 *1025:DIODE 0
4 *1026:DIODE 0
5 *11533:DO[26] 0.000631418
6 *287:45 0.000422112
7 *287:28 0.00135715
8 *287:22 0.00650415
9 *287:20 0.00533715
10 *287:18 0.00499389
11 *287:16 0.00641557
12 *287:7 0.0020531
13 *1027:DIODE *1132:DIODE 2.01504e-05
14 *1027:DIODE *314:29 0.000116644
15 *287:7 *11533:DI[26] 0
16 *287:18 *289:25 0.0214337
17 *287:22 *289:29 0.015356
18 *287:45 *1132:DIODE 0.000509968
19 *672:DIODE *287:45 6.82309e-05
20 *11305:S *287:45 1.39097e-05
21 *166:127 *1027:DIODE 0.000344837
22 *166:127 *287:45 2.83649e-05
23 *184:15 *287:45 7.61456e-05
24 *279:21 *287:18 0
25 *285:22 *287:18 0.0197248
*RES
1 *11533:DO[26] *287:7 10.2937 
2 *287:7 *1026:DIODE 1.6 
3 *287:7 *287:16 21.425 
4 *287:16 *287:18 248.985 
5 *287:18 *287:20 2 
6 *287:20 *287:22 140.175 
7 *287:22 *287:28 21.7 
8 *287:28 *1025:DIODE 1.6 
9 *287:28 *287:45 6.915 
10 *287:45 *11305:A1 1.6 
11 *287:45 *1027:DIODE 6.88 
*END

*D_NET *288 0.102154
*CONN
*I *11308:A1 I *D sky130_fd_sc_hd__mux2_4
*I *1028:DIODE I *D sky130_fd_sc_hd__diode_2
*I *1029:DIODE I *D sky130_fd_sc_hd__diode_2
*I *11533:DO[27] O *D CF_SRAM_1024x32
*CAP
1 *11308:A1 0.000202319
2 *1028:DIODE 3.92715e-05
3 *1029:DIODE 0
4 *11533:DO[27] 0.000727616
5 *288:35 0.00165507
6 *288:29 0.00410369
7 *288:27 0.00269021
8 *288:25 0.0055676
9 *288:23 0.00697933
10 *288:14 0.00213934
11 *288:4 0
12 *11308:A1 *290:33 1.37515e-05
13 *288:14 *11533:DI[27] 0
14 *288:25 *290:25 0.0220355
15 *288:25 *363:66 0.000815207
16 *288:29 *290:29 0.0175391
17 *288:29 *303:35 0.00393657
18 *288:35 *290:33 0.000678055
19 *11533:R_WB *288:25 0.000277392
20 *166:127 *1028:DIODE 1.4399e-05
21 *166:127 *11308:A1 0.00020663
22 *200:66 *288:25 0.0132507
23 *286:22 *288:25 0.00395027
24 *286:26 *288:29 0.0153316
*RES
1 *11533:DO[27] *288:4 0.18375 
2 *11533:DO[27] *288:14 10.575 
3 *288:14 *1029:DIODE 1.6 
4 *288:14 *288:23 16.595 
5 *288:23 *288:25 252.81 
6 *288:25 *288:27 2 
7 *288:27 *288:29 159.15 
8 *288:29 *288:35 25.525 
9 *288:35 *1028:DIODE 2.05 
10 *288:35 *11308:A1 8.39 
*END

*D_NET *289 0.0902711
*CONN
*I *1030:DIODE I *D sky130_fd_sc_hd__diode_2
*I *11311:A1 I *D sky130_fd_sc_hd__mux2_4
*I *1031:DIODE I *D sky130_fd_sc_hd__diode_2
*I *11533:DO[28] O *D CF_SRAM_1024x32
*CAP
1 *1030:DIODE 0
2 *11311:A1 0.000100603
3 *1031:DIODE 0
4 *11533:DO[28] 0.000628163
5 *289:33 0.00124977
6 *289:29 0.0135462
7 *289:27 0.012397
8 *289:25 0.0103938
9 *289:23 0.0120925
10 *289:14 0.00232691
11 *289:4 0
12 *11311:A1 *11311:A0 4.89295e-05
13 *289:14 *11533:DI[28] 0.000224201
14 *289:23 *11533:DI[28] 9.00708e-06
15 *289:25 *299:18 0
16 *289:33 *322:34 0
17 *11311:S *11311:A1 0.000310364
18 *186:8 *11311:A1 0.00015401
19 *283:22 *289:25 0
20 *287:18 *289:25 0.0214337
21 *287:22 *289:29 0.015356
*RES
1 *11533:DO[28] *289:4 0.147 
2 *11533:DO[28] *289:14 10.575 
3 *289:14 *1031:DIODE 1.6 
4 *289:14 *289:23 21.08 
5 *289:23 *289:25 265.305 
6 *289:25 *289:27 2 
7 *289:27 *289:29 167.085 
8 *289:29 *289:33 19.19 
9 *289:33 *11311:A1 7.08 
10 *289:33 *1030:DIODE 3.6 
*END

*D_NET *290 0.107839
*CONN
*I *1032:DIODE I *D sky130_fd_sc_hd__diode_2
*I *11314:A1 I *D sky130_fd_sc_hd__mux2_4
*I *1034:DIODE I *D sky130_fd_sc_hd__diode_2
*I *11533:DO[29] O *D CF_SRAM_1024x32
*CAP
1 *1032:DIODE 0.000431937
2 *11314:A1 0.000141293
3 *1034:DIODE 0
4 *11533:DO[29] 0.000512512
5 *290:33 0.00186478
6 *290:29 0.00414748
7 *290:27 0.00285593
8 *290:25 0.00562881
9 *290:23 0.00697832
10 *290:14 0.00186202
11 *290:4 0
12 *1032:DIODE *306:22 0.00109828
13 *290:14 *11533:DI[29] 0.0005722
14 *290:23 *11533:DI[29] 1.83756e-05
15 *290:25 *293:25 0.0234632
16 *290:25 *363:66 0.000758587
17 *290:29 *303:35 0.00360822
18 *290:29 *305:15 1.44601e-05
19 *290:29 *311:15 0.0014533
20 *11308:A1 *290:33 1.37515e-05
21 *182:79 *1032:DIODE 0.000143637
22 *200:66 *290:25 1.0129e-05
23 *283:26 *290:29 0.00989285
24 *285:26 *290:29 0.00211642
25 *288:25 *290:25 0.0220355
26 *288:29 *290:29 0.0175391
27 *288:35 *290:33 0.000678055
*RES
1 *11533:DO[29] *290:4 0.1225 
2 *11533:DO[29] *290:14 10.575 
3 *290:14 *1034:DIODE 1.6 
4 *290:14 *290:23 16.25 
5 *290:23 *290:25 269.385 
6 *290:25 *290:27 2 
7 *290:27 *290:29 160.53 
8 *290:29 *290:33 26.075 
9 *290:33 *11314:A1 5.49 
10 *290:33 *1032:DIODE 13.71 
*END

*D_NET *291 0.0383195
*CONN
*I *1035:DIODE I *D sky130_fd_sc_hd__diode_2
*I *11223:A1 I *D sky130_fd_sc_hd__mux2_2
*I *1036:DIODE I *D sky130_fd_sc_hd__diode_2
*I *11533:DO[2] O *D CF_SRAM_1024x32
*CAP
1 *1035:DIODE 7.69379e-05
2 *11223:A1 6.75482e-05
3 *1036:DIODE 0
4 *11533:DO[2] 0.000764418
5 *291:24 0.000144486
6 *291:22 0.0153487
7 *291:20 0.0163289
8 *291:11 0.00174464
9 *1035:DIODE *323:71 5.8825e-05
10 *11223:A1 *323:71 8.30403e-05
11 *291:11 *11533:BEN[1] 0
12 *291:11 *11533:DI[2] 0
13 *291:22 *295:28 0
14 *291:22 *310:29 0.000591174
15 *291:22 *328:27 0
16 *11273:A1 *291:22 0.000120888
17 *126:8 *11223:A1 0.000198958
18 *128:8 *11223:A1 8.41307e-05
19 *151:18 *291:22 0.00079677
20 *276:20 *291:22 0
21 *277:40 *291:22 0.00191
22 *278:18 *291:22 0
*RES
1 *11533:DO[2] *291:11 10.6881 
2 *291:11 *1036:DIODE 1.6 
3 *291:11 *291:20 12.11 
4 *291:20 *291:22 211.245 
5 *291:22 *291:24 2 
6 *291:24 *11223:A1 3.775 
7 *291:24 *1035:DIODE 2.74 
*END

*D_NET *292 0.0881246
*CONN
*I *1038:DIODE I *D sky130_fd_sc_hd__diode_2
*I *1037:DIODE I *D sky130_fd_sc_hd__diode_2
*I *11317:A1 I *D sky130_fd_sc_hd__mux2_4
*I *11533:DO[30] O *D CF_SRAM_1024x32
*CAP
1 *1038:DIODE 0
2 *1037:DIODE 0.000253174
3 *11317:A1 4.8043e-05
4 *11533:DO[30] 0.000495462
5 *292:39 0.00377281
6 *292:37 0.00432281
7 *292:25 0.003498
8 *292:19 0.00932141
9 *292:17 0.00862451
10 *292:11 0.00772867
11 *292:9 0.00577879
12 *292:7 0.000495462
13 *1037:DIODE *11317:A0 0.000362862
14 *11317:A1 *11317:A0 4.99619e-05
15 *292:7 *11533:DI[30] 0.000442612
16 *292:11 *400:80 2.39642e-05
17 *292:11 *405:56 0.000134761
18 *292:11 *407:72 7.18452e-06
19 *292:11 *411:80 1.73506e-05
20 *292:11 *413:78 0
21 *292:11 *416:102 0
22 *292:11 *420:77 6.57653e-06
23 *292:11 *433:86 0.000171778
24 *292:11 *456:81 4.19426e-05
25 *292:11 *629:74 0.00122436
26 *292:11 *629:78 4.24562e-05
27 *292:11 *629:189 0.000105159
28 *292:11 *630:74 0.0010415
29 *292:11 *630:86 0.000213712
30 *292:11 *630:201 0.000177906
31 *292:19 *331:67 2.67556e-05
32 *292:25 *330:35 0.00093945
33 *292:37 *11281:A0 2.30292e-05
34 *292:37 *330:35 0.000394658
35 *292:39 *11286:A0 8.9706e-05
36 *292:39 *11314:A0 0.000485424
37 *292:39 *306:36 0.000786681
38 *292:39 *330:35 0.00060355
39 *686:DIODE *292:39 0.000161467
40 *822:DIODE *292:37 0.000164874
41 *1005:DIODE *292:37 0.00110449
42 *1201:DIODE *292:39 7.33728e-05
43 *1222:DIODE *292:39 0.000163293
44 *1236:DIODE *292:37 5.85534e-05
45 *11281:S *292:37 0.000505272
46 *11281:S *292:39 4.36241e-05
47 *11317:S *11317:A1 0
48 *3:35 *292:37 0.000182968
49 *113:59 *292:39 0.00282959
50 *113:68 *11317:A1 0.000164874
51 *113:68 *292:39 7.07354e-05
52 *166:28 *292:37 1.23707e-05
53 *166:28 *292:39 0.00106528
54 *167:6 *292:37 3.13354e-05
55 *167:8 *292:37 0.000111283
56 *167:10 *292:37 6.71438e-05
57 *167:12 *292:37 6.96579e-05
58 *167:14 *292:37 6.96579e-05
59 *167:43 *292:37 0.000560919
60 *167:50 *292:37 0.000164874
61 *167:57 *292:37 0.000353504
62 *167:64 *292:37 0.00016031
63 *171:6 *292:37 4.34332e-05
64 *171:8 *292:37 9.43385e-05
65 *171:10 *292:37 0.000159048
66 *171:12 *292:37 0.000279787
67 *171:36 *292:37 2.86967e-05
68 *171:36 *292:39 0.000737761
69 *171:43 *292:39 0.000153816
70 *171:50 *292:39 0.000160314
71 *171:57 *292:39 0.00016031
72 *178:43 *292:39 0.000113638
73 *178:139 *292:39 0.000315625
74 *180:60 *292:39 0.000500849
75 *190:14 *292:39 8.52845e-05
76 *190:16 *292:39 0.000164358
77 *190:18 *292:39 0.000164874
78 *190:20 *292:39 0.000164874
79 *190:22 *292:39 0.000161985
80 *190:56 *292:39 0.000642255
81 *190:63 *292:39 0.00016436
82 *190:70 *292:39 0.000163199
83 *279:21 *292:19 0.000109656
84 *279:25 *292:25 0.00209693
85 *279:25 *292:37 0.00100967
86 *279:29 *292:37 0.000138941
87 *284:15 *292:11 0.00529083
88 *284:23 *292:19 0.0150779
*RES
1 *11533:DO[30] *292:7 10.125 
2 *292:7 *292:9 2 
3 *292:9 *292:11 131.43 
4 *292:11 *292:17 25.84 
5 *292:17 *292:19 172.485 
6 *292:19 *292:25 49.4675 
7 *292:25 *292:37 33.0375 
8 *292:37 *292:39 84.285 
9 *292:39 *11317:A1 3.7 
10 *292:39 *1037:DIODE 6.535 
11 *292:7 *1038:DIODE 1.6 
*END

*D_NET *293 0.102169
*CONN
*I *11320:A1 I *D sky130_fd_sc_hd__mux2_4
*I *1039:DIODE I *D sky130_fd_sc_hd__diode_2
*I *1040:DIODE I *D sky130_fd_sc_hd__diode_2
*I *11533:DO[31] O *D CF_SRAM_1024x32
*CAP
1 *11320:A1 0.000101425
2 *1039:DIODE 0
3 *1040:DIODE 0
4 *11533:DO[31] 0.000697989
5 *293:43 0.00151237
6 *293:37 0.00587931
7 *293:35 0.00570483
8 *293:29 0.00872578
9 *293:27 0.00748932
10 *293:25 0.0104645
11 *293:23 0.0117792
12 *293:14 0.00200574
13 *293:4 6.9367e-06
14 *11320:A1 *11320:A0 3.00381e-05
15 *293:14 *11533:DI[31] 0
16 *293:25 *298:22 0.000736906
17 *293:25 *300:22 0.00602306
18 *293:25 *323:19 0
19 *293:25 *363:66 0.000705941
20 *293:29 *307:15 8.08855e-05
21 *293:29 *331:59 0.0031469
22 *293:29 *331:63 0.00524316
23 *293:35 *331:59 0.00260584
24 *293:37 *331:55 0.00279221
25 *293:37 *331:59 0.00232343
26 *11320:S *11320:A1 0.000316421
27 *200:66 *293:25 0.000151478
28 *204:14 *293:29 0.000182435
29 *276:20 *293:25 0
30 *290:25 *293:25 0.0234632
*RES
1 *11533:DO[31] *293:4 0.12 
2 *11533:DO[31] *293:14 10.575 
3 *293:14 *1040:DIODE 1.6 
4 *293:14 *293:23 15.905 
5 *293:23 *293:25 290.55 
6 *293:25 *293:27 2 
7 *293:27 *293:29 103.26 
8 *293:29 *293:35 24.4575 
9 *293:35 *293:37 61.6875 
10 *293:37 *293:43 25.015 
11 *293:43 *1039:DIODE 1.6 
12 *293:43 *11320:A1 4.465 
*END

*D_NET *294 0.0470416
*CONN
*I *11226:A1 I *D sky130_fd_sc_hd__mux2_2
*I *1041:DIODE I *D sky130_fd_sc_hd__diode_2
*I *1042:DIODE I *D sky130_fd_sc_hd__diode_2
*I *11533:DO[3] O *D CF_SRAM_1024x32
*CAP
1 *11226:A1 0
2 *1041:DIODE 0.000153368
3 *1042:DIODE 0
4 *11533:DO[3] 0.000774618
5 *294:32 0.000562809
6 *294:20 0.00439522
7 *294:18 0.00447824
8 *294:9 0.00126708
9 *1041:DIODE *11226:A0 0.000118081
10 *294:9 *11533:DI[3] 0
11 *294:20 *295:20 0.011629
12 *294:20 *302:56 0.00150739
13 *294:20 *302:58 5.11729e-05
14 *294:20 *302:64 1.07797e-05
15 *294:20 *330:35 0.000595737
16 *294:32 *11226:A0 7.14699e-05
17 *294:32 *11232:A0 4.28819e-05
18 *126:10 *294:32 8.30853e-06
19 *138:10 *294:32 0.000160651
20 *142:10 *294:20 0.00162863
21 *142:10 *294:32 0.000238664
22 *146:10 *294:20 0.00268143
23 *149:24 *294:32 0.000170541
24 *153:24 *294:20 0.000153926
25 *203:24 *294:20 0.0013256
26 *203:88 *294:32 2.57422e-05
27 *203:92 *1041:DIODE 3.93162e-05
28 *203:151 *294:20 0.000388678
29 *223:22 *294:32 0.000121541
30 *269:28 *294:32 0.000276152
31 *277:26 *294:20 0.0141018
32 *280:20 *294:20 6.26995e-05
*RES
1 *11533:DO[3] *294:9 10.4625 
2 *294:9 *1042:DIODE 1.6 
3 *294:9 *294:18 6.935 
4 *294:18 *294:20 195.435 
5 *294:20 *294:32 15.78 
6 *294:32 *1041:DIODE 3.43 
7 *294:32 *11226:A1 1.6 
*END

*D_NET *295 0.0425388
*CONN
*I *1043:DIODE I *D sky130_fd_sc_hd__diode_2
*I *11229:A1 I *D sky130_fd_sc_hd__mux2_2
*I *1045:DIODE I *D sky130_fd_sc_hd__diode_2
*I *11533:DO[4] O *D CF_SRAM_1024x32
*CAP
1 *1043:DIODE 0.00025187
2 *11229:A1 0
3 *1045:DIODE 0
4 *11533:DO[4] 0.000741195
5 *295:32 0.000311796
6 *295:28 0.00270528
7 *295:26 0.00300862
8 *295:20 0.00297805
9 *295:18 0.00307225
10 *295:9 0.00119866
11 *1043:DIODE *327:60 0.000252719
12 *1043:DIODE *327:62 8.23457e-05
13 *295:9 *11533:DI[4] 6.46139e-05
14 *295:28 *310:29 0.000960118
15 *295:28 *312:29 0.00202962
16 *295:28 *328:27 0.000245208
17 *295:32 *327:62 8.41307e-05
18 *11229:S *295:28 0.000197329
19 *124:10 *295:28 0.000443512
20 *128:10 *295:28 0.000127596
21 *149:24 *295:28 0
22 *151:18 *295:28 0
23 *153:24 *295:20 0.000219453
24 *203:24 *295:20 0.00067665
25 *203:69 *295:28 0.00030001
26 *203:151 *295:20 0.0109587
27 *291:22 *295:28 0
28 *294:20 *295:20 0.011629
*RES
1 *11533:DO[4] *295:9 10.4475 
2 *295:9 *1045:DIODE 1.6 
3 *295:9 *295:18 6.59 
4 *295:18 *295:20 133.47 
5 *295:20 *295:26 7.555 
6 *295:26 *295:28 64.62 
7 *295:28 *295:32 2.795 
8 *295:32 *11229:A1 1.6 
9 *295:32 *1043:DIODE 4.81 
*END

*D_NET *296 0.0409973
*CONN
*I *11232:A1 I *D sky130_fd_sc_hd__mux2_2
*I *1046:DIODE I *D sky130_fd_sc_hd__diode_2
*I *1047:DIODE I *D sky130_fd_sc_hd__diode_2
*I *11533:DO[5] O *D CF_SRAM_1024x32
*CAP
1 *11232:A1 0
2 *1046:DIODE 0.000168101
3 *1047:DIODE 0
4 *11533:DO[5] 0.000688974
5 *296:40 0.0011271
6 *296:20 0.00908576
7 *296:18 0.00823798
8 *296:9 0.000800185
9 *296:9 *11533:DI[5] 0.000204426
10 *296:20 *297:20 0
11 *296:20 *476:64 0.0128822
12 *296:20 *485:86 0.00226321
13 *296:40 *11251:A0 1.08758e-05
14 *296:40 *297:36 0.000556315
15 *296:40 *302:64 0.000338321
16 *11232:S *1046:DIODE 2.49909e-05
17 *134:8 *296:40 0.000513681
18 *146:8 *296:40 0.00033249
19 *146:10 *296:40 0.001904
20 *153:24 *296:40 0.000158482
21 *223:22 *1046:DIODE 3.68704e-05
22 *229:28 *296:40 0.000770485
23 *229:32 *296:40 0.000462996
24 *272:21 *296:40 0.000429867
*RES
1 *11533:DO[5] *296:9 10.4325 
2 *296:9 *1047:DIODE 1.6 
3 *296:9 *296:18 3.14 
4 *296:18 *296:20 148.005 
5 *296:20 *296:40 41.22 
6 *296:40 *1046:DIODE 3.43 
7 *296:40 *11232:A1 1.6 
*END

*D_NET *297 0.0357376
*CONN
*I *11235:A1 I *D sky130_fd_sc_hd__mux2_2
*I *1048:DIODE I *D sky130_fd_sc_hd__diode_2
*I *1049:DIODE I *D sky130_fd_sc_hd__diode_2
*I *11533:DO[6] O *D CF_SRAM_1024x32
*CAP
1 *11235:A1 0.000111001
2 *1048:DIODE 5.95968e-05
3 *1049:DIODE 0
4 *11533:DO[6] 0.000775623
5 *297:36 0.000997755
6 *297:20 0.00888019
7 *297:18 0.00838416
8 *297:9 0.00110674
9 *1048:DIODE *329:47 0.000118081
10 *297:9 *11533:DI[6] 0
11 *297:20 *485:86 0.00112672
12 *297:36 *1198:DIODE 0.000182766
13 *297:36 *11235:A0 8.33341e-05
14 *297:36 *329:47 0.00018955
15 *297:36 *332:50 0.000135234
16 *732:DIODE *297:36 0.000307681
17 *11235:S *11235:A1 7.58269e-05
18 *11235:S *297:36 3.83194e-05
19 *11251:A1 *297:20 0.000111149
20 *149:22 *297:20 0.000295846
21 *149:22 *297:36 0.000114677
22 *203:151 *297:20 0.00115246
23 *229:28 *297:36 0.00130008
24 *270:18 *297:20 0.00929291
25 *272:21 *297:20 0.00010179
26 *272:21 *297:36 0.000239762
27 *296:20 *297:20 0
28 *296:40 *297:36 0.000556315
*RES
1 *11533:DO[6] *297:9 10.4175 
2 *297:9 *1049:DIODE 1.6 
3 *297:9 *297:18 5.21 
4 *297:18 *297:20 143.018 
5 *297:20 *297:36 29.9025 
6 *297:36 *1048:DIODE 2.74 
7 *297:36 *11235:A1 3.265 
*END

*D_NET *298 0.0409949
*CONN
*I *1050:DIODE I *D sky130_fd_sc_hd__diode_2
*I *11238:A1 I *D sky130_fd_sc_hd__mux2_2
*I *1051:DIODE I *D sky130_fd_sc_hd__diode_2
*I *11533:DO[7] O *D CF_SRAM_1024x32
*CAP
1 *1050:DIODE 0
2 *11238:A1 0.000230611
3 *1051:DIODE 0
4 *11533:DO[7] 0.000798984
5 *298:30 0.00182948
6 *298:22 0.00490396
7 *298:20 0.00463396
8 *298:11 0.00212785
9 *11238:A1 *11238:A0 0.000162571
10 *298:11 *11533:DI[7] 0
11 *298:22 *300:22 0.0112016
12 *298:22 *323:19 0.00367766
13 *298:22 *332:19 0.00580692
14 *298:22 *363:66 0.000773236
15 *298:30 *1149:DIODE 5.29707e-05
16 *298:30 *1165:DIODE 0.000153816
17 *298:30 *11238:A0 0.000153816
18 *298:30 *301:41 0.000166872
19 *298:30 *301:45 0.000183738
20 *298:30 *323:35 0.000314491
21 *298:30 *323:37 4.19797e-05
22 *298:30 *323:43 8.86541e-05
23 *298:30 *327:31 0.000119246
24 *298:30 *327:60 0.000113517
25 *298:30 *330:39 3.68999e-05
26 *998:DIODE *298:22 1.23331e-05
27 *11273:S *298:22 0
28 *11273:S *298:30 0.000219588
29 *3:25 *298:22 0.000264073
30 *3:25 *298:30 0.000137349
31 *120:10 *298:30 0.000616037
32 *136:8 *11238:A1 0.000105508
33 *136:8 *298:30 5.9964e-05
34 *159:10 *298:22 0.000277076
35 *159:10 *298:30 0.00099316
36 *200:66 *298:30 0
37 *293:25 *298:22 0.000736906
*RES
1 *11533:DO[7] *298:11 10.7475 
2 *298:11 *1051:DIODE 1.6 
3 *298:11 *298:20 15.215 
4 *298:20 *298:22 146.092 
5 *298:22 *298:30 40.4075 
6 *298:30 *11238:A1 5.875 
7 *298:30 *1050:DIODE 1.6 
*END

*D_NET *299 0.0377574
*CONN
*I *1052:DIODE I *D sky130_fd_sc_hd__diode_2
*I *11241:A1 I *D sky130_fd_sc_hd__mux2_2
*I *1053:DIODE I *D sky130_fd_sc_hd__diode_2
*I *11533:DO[8] O *D CF_SRAM_1024x32
*CAP
1 *1052:DIODE 0
2 *11241:A1 0.000295999
3 *1053:DIODE 0
4 *11533:DO[8] 0.000783958
5 *299:22 0.000824199
6 *299:18 0.00527936
7 *299:16 0.00634259
8 *299:7 0.0023754
9 *11241:A1 *11241:A0 1.33269e-05
10 *11241:A1 *326:58 1.08758e-05
11 *11241:A1 *331:82 2.45737e-05
12 *299:7 *11533:DI[8] 0
13 *299:18 *301:37 3.59513e-05
14 *299:18 *323:35 0.00139648
15 *299:18 *363:66 0.0015251
16 *299:22 *1145:DIODE 0.000155491
17 *299:22 *323:99 0.000371788
18 *299:22 *326:58 2.39856e-05
19 *299:22 *331:71 0.00106402
20 *299:22 *331:80 1.33285e-05
21 *138:8 *11241:A1 6.14306e-05
22 *138:8 *299:22 0.000262696
23 *200:66 *299:18 0.00202087
24 *204:10 *299:18 0.00733795
25 *224:34 *299:18 0.00110793
26 *283:22 *299:18 0.00643006
27 *289:25 *299:18 0
*RES
1 *11533:DO[8] *299:7 10.2825 
2 *299:7 *1053:DIODE 1.6 
3 *299:7 *299:16 17.975 
4 *299:16 *299:18 160.5 
5 *299:18 *299:22 14.87 
6 *299:22 *11241:A1 5.77 
7 *299:22 *1052:DIODE 1.6 
*END

*D_NET *300 0.0334709
*CONN
*I *11246:A1 I *D sky130_fd_sc_hd__mux2_2
*I *1054:DIODE I *D sky130_fd_sc_hd__diode_2
*I *1056:DIODE I *D sky130_fd_sc_hd__diode_2
*I *11533:DO[9] O *D CF_SRAM_1024x32
*CAP
1 *11246:A1 2.82788e-05
2 *1054:DIODE 0.000115086
3 *1056:DIODE 0
4 *11533:DO[9] 0.000788214
5 *300:26 0.000687853
6 *300:22 0.00365428
7 *300:20 0.0041702
8 *300:11 0.00184861
9 *300:11 *11533:BEN[8] 0
10 *300:11 *11533:DI[9] 3.01607e-05
11 *300:22 *1095:DIODE 2.05661e-05
12 *300:22 *301:31 0.00269382
13 *300:22 *308:27 4.45542e-05
14 *300:22 *332:31 0.00015829
15 *300:22 *363:66 0.00050813
16 *300:26 *11246:A0 4.66108e-05
17 *300:26 *332:31 0.000178675
18 *300:26 *332:33 0.00014294
19 *300:26 *332:35 0.000146129
20 *300:26 *332:37 0.00032812
21 *300:26 *332:39 0.000285879
22 *11246:S *1054:DIODE 0.000153816
23 *11273:S *300:22 7.21296e-06
24 *151:16 *300:26 0.000208816
25 *200:66 *300:22 0
26 *293:25 *300:22 0.00602306
27 *298:22 *300:22 0.0112016
*RES
1 *11533:DO[9] *300:11 11.2425 
2 *300:11 *1056:DIODE 1.6 
3 *300:11 *300:20 15.56 
4 *300:20 *300:22 128.88 
5 *300:22 *300:26 13.145 
6 *300:26 *1054:DIODE 3.43 
7 *300:26 *11246:A1 1.96 
*END

*D_NET *301 0.106604
*CONN
*I *1058:DIODE I *D sky130_fd_sc_hd__diode_2
*I *1061:DIODE I *D sky130_fd_sc_hd__diode_2
*I *1065:DIODE I *D sky130_fd_sc_hd__diode_2
*I *11215:A0 I *D sky130_fd_sc_hd__mux2_2
*I *1057:DIODE I *D sky130_fd_sc_hd__diode_2
*I *1060:DIODE I *D sky130_fd_sc_hd__diode_2
*I *1062:DIODE I *D sky130_fd_sc_hd__diode_2
*I *1064:DIODE I *D sky130_fd_sc_hd__diode_2
*I *1067:DIODE I *D sky130_fd_sc_hd__diode_2
*I *1063:DIODE I *D sky130_fd_sc_hd__diode_2
*I *1059:DIODE I *D sky130_fd_sc_hd__diode_2
*I *11542:DO[0] O *D CF_SRAM_1024x32
*CAP
1 *1058:DIODE 0.000653517
2 *1061:DIODE 0
3 *1065:DIODE 0
4 *11215:A0 0
5 *1057:DIODE 0
6 *1060:DIODE 0
7 *1062:DIODE 0
8 *1064:DIODE 0
9 *1067:DIODE 0.000128833
10 *1063:DIODE 0
11 *1059:DIODE 0.000120278
12 *11542:DO[0] 4.82806e-05
13 *301:71 0.000225655
14 *301:69 0.000193644
15 *301:67 0.000144179
16 *301:65 0.000188237
17 *301:63 0.000432374
18 *301:59 0.000291494
19 *301:45 0.000176858
20 *301:41 0.000130832
21 *301:37 0.00071145
22 *301:31 0.00139125
23 *301:23 0.00698151
24 *301:19 0.0160645
25 *301:5 0.0105388
26 *1058:DIODE *11542:ScanInDL 0
27 *1058:DIODE *11542:ScanInCC 0
28 *1058:DIODE *11542:DI[0] 0
29 *1059:DIODE *331:71 0.000154981
30 *301:5 *11542:ScanInCC 0
31 *301:5 *11542:DI[0] 0
32 *301:19 *316:21 3.89348e-05
33 *301:19 *316:35 0
34 *301:19 *318:13 3.89348e-05
35 *301:19 *322:26 0
36 *301:19 *325:26 0
37 *301:19 *328:21 0.0100435
38 *301:23 *302:52 0.00220871
39 *301:23 *304:51 0.00296521
40 *301:23 *308:25 4.70134e-05
41 *301:23 *310:25 0.0251971
42 *301:23 *325:36 0
43 *301:23 *329:27 0.00318021
44 *301:31 *1095:DIODE 0.000160658
45 *301:31 *308:27 0.00252924
46 *301:31 *332:31 5.83121e-06
47 *301:37 *323:35 0.00118877
48 *301:37 *363:66 0.000137349
49 *301:41 *323:35 8.85882e-05
50 *301:45 *323:35 0.000101317
51 *301:63 *326:35 7.44765e-05
52 *301:65 *326:35 3.59784e-05
53 *11215:A1 *301:65 0.000219382
54 *11215:S *301:65 0.000149521
55 *11273:S *301:31 2.39856e-05
56 *113:14 *301:23 0.00138584
57 *188:12 *301:23 0.00134636
58 *190:80 *301:23 0.000320898
59 *192:14 *301:23 0.00382263
60 *196:22 *301:23 0.00648589
61 *200:66 *301:37 0.00192213
62 *203:65 *1067:DIODE 5.83121e-06
63 *203:65 *301:65 2.01504e-05
64 *203:65 *301:67 8.41946e-05
65 *203:65 *301:69 7.94912e-05
66 *203:65 *301:71 7.94912e-05
67 *223:22 *301:37 5.69601e-06
68 *224:34 *301:37 0.000709573
69 *269:28 *301:65 0.000122184
70 *269:28 *301:67 0.000122184
71 *298:30 *301:41 0.000166872
72 *298:30 *301:45 0.000183738
73 *299:18 *301:37 3.59513e-05
74 *300:22 *301:31 0.00269382
*RES
1 *11542:DO[0] *301:5 0.7425 
2 *301:5 *301:19 33.5808 
3 *301:19 *301:23 39.7806 
4 *301:23 *301:31 36.5725 
5 *301:31 *301:37 25.775 
6 *301:37 *301:41 4.145 
7 *301:41 *301:45 4.145 
8 *301:45 *1059:DIODE 3.085 
9 *301:45 *1063:DIODE 1.6 
10 *301:41 *301:59 2 
11 *301:59 *301:63 3.225 
12 *301:63 *301:65 3.9 
13 *301:65 *301:67 1.485 
14 *301:67 *301:69 1.485 
15 *301:69 *301:71 1.485 
16 *301:71 *1067:DIODE 3.085 
17 *301:71 *1064:DIODE 1.6 
18 *301:69 *1062:DIODE 1.6 
19 *301:67 *1060:DIODE 1.6 
20 *301:65 *1057:DIODE 1.6 
21 *301:63 *11215:A0 1.6 
22 *301:59 *1065:DIODE 1.6 
23 *301:37 *1061:DIODE 1.6 
24 *301:5 *1058:DIODE 10.795 
*END

*D_NET *302 0.0646018
*CONN
*I *1070:DIODE I *D sky130_fd_sc_hd__diode_2
*I *1074:DIODE I *D sky130_fd_sc_hd__diode_2
*I *1069:DIODE I *D sky130_fd_sc_hd__diode_2
*I *1068:DIODE I *D sky130_fd_sc_hd__diode_2
*I *11251:A0 I *D sky130_fd_sc_hd__mux2_2
*I *1073:DIODE I *D sky130_fd_sc_hd__diode_2
*I *1072:DIODE I *D sky130_fd_sc_hd__diode_2
*I *1071:DIODE I *D sky130_fd_sc_hd__diode_2
*I *11542:DO[10] O *D CF_SRAM_1024x32
*CAP
1 *1070:DIODE 0.000336394
2 *1074:DIODE 0.000145188
3 *1069:DIODE 0
4 *1068:DIODE 0.000192162
5 *11251:A0 4.685e-05
6 *1073:DIODE 0.000174029
7 *1072:DIODE 0.000147797
8 *1071:DIODE 0
9 *11542:DO[10] 7.73949e-05
10 *302:86 0.000145188
11 *302:64 0.00039472
12 *302:58 0.000191589
13 *302:56 0.000763369
14 *302:52 0.01231
15 *302:48 0.0160063
16 *302:15 0.000414826
17 *302:11 0.00080928
18 *302:7 0.004533
19 *1068:DIODE *476:64 0.000111543
20 *1073:DIODE *11542:DI[10] 0.00011749
21 *302:7 *11542:DI[10] 2.8185e-05
22 *302:11 *11542:DI[10] 0.000420256
23 *302:48 *11542:vpwrpc 0.000465184
24 *302:48 *11542:vpwrac 0.000407719
25 *302:48 *308:21 0.000823328
26 *302:48 *318:31 0.0069798
27 *302:48 *327:9 1.7635e-05
28 *302:48 *329:23 1.79483e-05
29 *302:52 *310:25 9.41606e-05
30 *738:DIODE *1070:DIODE 0.000118081
31 *11251:A1 *11251:A0 4.41506e-05
32 *11251:A1 *302:64 0.000134118
33 *146:8 *1074:DIODE 4.66108e-05
34 *146:10 *302:64 4.90071e-05
35 *190:80 *302:52 0.00414048
36 *192:14 *302:52 0.00155729
37 *196:22 *302:52 0.00648589
38 *203:24 *1070:DIODE 5.83121e-06
39 *203:24 *302:56 0.00147572
40 *228:20 *1068:DIODE 6.33103e-05
41 *272:21 *302:56 1.46216e-05
42 *272:21 *302:58 9.67888e-05
43 *272:21 *302:64 7.13993e-05
44 *294:20 *302:56 0.00150739
45 *294:20 *302:58 5.11729e-05
46 *294:20 *302:64 1.07797e-05
47 *296:40 *11251:A0 1.08758e-05
48 *296:40 *302:64 0.000338321
49 *301:23 *302:52 0.00220871
*RES
1 *11542:DO[10] *302:7 1.4475 
2 *302:7 *302:11 7.365 
3 *302:11 *302:15 3.045 
4 *302:15 *1071:DIODE 1.6 
5 *302:15 *1072:DIODE 3.085 
6 *302:11 *1073:DIODE 3.775 
7 *302:7 *302:48 20.7502 
8 *302:48 *302:52 40.4215 
9 *302:52 *302:56 17.895 
10 *302:56 *302:58 1.2525 
11 *302:58 *302:64 6.08 
12 *302:64 *11251:A0 2.395 
13 *302:64 *1068:DIODE 8.12 
14 *302:58 *302:86 2 
15 *302:86 *1069:DIODE 1.6 
16 *302:86 *1074:DIODE 3.085 
17 *302:56 *1070:DIODE 7.845 
*END

*D_NET *303 0.0929142
*CONN
*I *1078:DIODE I *D sky130_fd_sc_hd__diode_2
*I *1075:DIODE I *D sky130_fd_sc_hd__diode_2
*I *11255:A0 I *D sky130_fd_sc_hd__mux2_2
*I *1076:DIODE I *D sky130_fd_sc_hd__diode_2
*I *11542:DO[11] O *D CF_SRAM_1024x32
*CAP
1 *1078:DIODE 0
2 *1075:DIODE 0
3 *11255:A0 0.000168127
4 *1076:DIODE 0.000721802
5 *11542:DO[11] 0.00224582
6 *303:41 0.000276528
7 *303:39 0.00157063
8 *303:35 0.0275726
9 *303:31 0.0276344
10 *1076:DIODE *11542:DI[11] 0
11 *303:31 *11542:DI[11] 0
12 *303:31 *322:26 0.00179518
13 *303:31 *325:26 1.1508e-05
14 *303:31 *327:9 1.79483e-05
15 *303:31 *328:21 0.00440051
16 *303:31 *329:23 1.79483e-05
17 *303:35 *317:31 0.009631
18 *303:35 *322:34 0.000658188
19 *141:100 *11255:A0 0.000352714
20 *141:100 *303:41 6.47326e-05
21 *271:24 *303:35 0.001267
22 *282:26 *303:35 0.00177157
23 *283:26 *303:35 0.00202803
24 *286:26 *303:35 0.00316318
25 *288:29 *303:35 0.00393657
26 *290:29 *303:35 0.00360822
*RES
1 *11542:DO[11] *1076:DIODE 11.365 
2 *11542:DO[11] *303:31 14.0405 
3 *303:31 *303:35 47.8797 
4 *303:35 *303:39 25.1825 
5 *303:39 *303:41 1.485 
6 *303:41 *11255:A0 5.425 
7 *303:41 *1075:DIODE 1.6 
8 *303:39 *1078:DIODE 1.6 
*END

*D_NET *304 0.0770196
*CONN
*I *1082:DIODE I *D sky130_fd_sc_hd__diode_2
*I *1080:DIODE I *D sky130_fd_sc_hd__diode_2
*I *11258:A0 I *D sky130_fd_sc_hd__mux2_2
*I *1081:DIODE I *D sky130_fd_sc_hd__diode_2
*I *1087:DIODE I *D sky130_fd_sc_hd__diode_2
*I *1079:DIODE I *D sky130_fd_sc_hd__diode_2
*I *1085:DIODE I *D sky130_fd_sc_hd__diode_2
*I *1086:DIODE I *D sky130_fd_sc_hd__diode_2
*I *1084:DIODE I *D sky130_fd_sc_hd__diode_2
*I *1083:DIODE I *D sky130_fd_sc_hd__diode_2
*I *11542:DO[12] O *D CF_SRAM_1024x32
*CAP
1 *1082:DIODE 0
2 *1080:DIODE 0
3 *11258:A0 0
4 *1081:DIODE 8.15055e-05
5 *1087:DIODE 6.28044e-05
6 *1079:DIODE 3.5273e-05
7 *1085:DIODE 0
8 *1086:DIODE 3.82711e-05
9 *1084:DIODE 0.000157761
10 *1083:DIODE 0
11 *11542:DO[12] 0.000165585
12 *304:69 0.000133418
13 *304:65 0.000116846
14 *304:63 0.000222499
15 *304:61 0.000319638
16 *304:59 0.00235881
17 *304:51 0.00801705
18 *304:49 0.00575538
19 *304:47 0.00263953
20 *304:45 0.00263953
21 *304:17 0.000157761
22 *304:15 6.34509e-05
23 *304:11 0.00063437
24 *304:7 0.000774775
25 *1081:DIODE *476:64 0.000111749
26 *1081:DIODE *630:72 2.49909e-05
27 *1081:DIODE *631:68 0.000103905
28 *1086:DIODE *433:76 0.000187766
29 *1086:DIODE *474:112 0.000179922
30 *304:7 *11542:DI[12] 0
31 *304:11 *11542:DI[12] 8.01016e-05
32 *304:15 *433:76 7.06865e-05
33 *304:15 *474:112 7.23602e-05
34 *304:47 *305:13 0.000778579
35 *304:47 *307:13 0.00168461
36 *304:47 *311:11 0.000258189
37 *304:47 *327:19 0.00212429
38 *304:47 *329:23 0
39 *304:47 *331:49 0.000231041
40 *304:47 *331:53 8.76645e-06
41 *304:47 *374:85 0.000126048
42 *304:51 *310:25 0.00247195
43 *304:51 *329:27 0.0255531
44 *304:59 *323:35 0
45 *304:59 *329:33 0.00134243
46 *304:59 *331:67 1.01661e-05
47 *304:69 *476:64 0.000139933
48 *304:69 *631:68 0.000141599
49 *11258:A1 *304:63 0.000159109
50 *113:14 *304:51 0.00618044
51 *151:16 *304:61 4.79712e-05
52 *151:16 *304:63 0.000114839
53 *188:12 *304:51 0.00698068
54 *192:14 *304:51 0.000158772
55 *194:16 *304:47 0.00017606
56 *226:24 *304:59 0
57 *229:28 *1079:DIODE 4.77757e-05
58 *229:28 *1087:DIODE 7.20899e-05
59 *272:25 *304:63 4.01811e-05
60 *301:23 *304:51 0.00296521
*RES
1 *11542:DO[12] *304:7 2.4525 
2 *304:7 *304:11 8.4 
3 *304:11 *304:15 2.87 
4 *304:15 *304:17 2 
5 *304:17 *1083:DIODE 1.6 
6 *304:17 *1084:DIODE 3.085 
7 *304:15 *1086:DIODE 5.745 
8 *304:11 *1085:DIODE 1.6 
9 *304:7 *304:45 2 
10 *304:45 *304:47 69.975 
11 *304:47 *304:49 2 
12 *304:49 *304:51 232.98 
13 *304:51 *304:59 46.51 
14 *304:59 *304:61 1.485 
15 *304:61 *304:63 4.245 
16 *304:63 *304:65 2 
17 *304:65 *304:69 3.635 
18 *304:69 *1079:DIODE 2.05 
19 *304:69 *1087:DIODE 2.395 
20 *304:65 *1081:DIODE 5.43 
21 *304:63 *11258:A0 1.6 
22 *304:61 *1080:DIODE 1.6 
23 *304:59 *1082:DIODE 1.6 
*END

*D_NET *305 0.0598539
*CONN
*I *11261:A0 I *D sky130_fd_sc_hd__mux2_4
*I *11542:DO[13] O *D CF_SRAM_1024x32
*CAP
1 *11261:A0 0.00136264
2 *11542:DO[13] 0.000893394
3 *305:15 0.0150465
4 *305:13 0.0145773
5 *305:13 *11542:DI[13] 0
6 *305:13 *307:13 0.00127383
7 *305:13 *311:11 0.00265119
8 *305:15 *311:15 0.0178644
9 *11261:A1 *11261:A0 0.000322373
10 *271:24 *11261:A0 0
11 *274:20 *305:15 0.000588678
12 *275:20 *305:15 0
13 *283:26 *305:15 0.000165061
14 *285:26 *305:15 0.00431542
15 *290:29 *305:15 1.44601e-05
16 *304:47 *305:13 0.000778579
*RES
1 *11542:DO[13] *305:13 38.3425 
2 *305:13 *305:15 295.77 
3 *305:15 *11261:A0 27.635 
*END

*D_NET *306 0.0721608
*CONN
*I *11264:A0 I *D sky130_fd_sc_hd__mux2_2
*I *11542:DO[14] O *D CF_SRAM_1024x32
*CAP
1 *11264:A0 0.000128661
2 *11542:DO[14] 0.000472697
3 *306:42 0.00998164
4 *306:40 0.0121831
5 *306:36 0.0040404
6 *306:22 0.00496319
7 *306:20 0.0075745
8 *306:16 0.00534574
9 *306:12 0.00149683
10 *306:4 0
11 *306:12 *11542:DI[14] 0
12 *306:16 *11542:BEN[15] 0.000101584
13 *306:16 *405:44 0.00415608
14 *306:16 *463:73 0.0012454
15 *306:16 *467:82 0.000718505
16 *306:16 *558:173 0.000389969
17 *306:16 *558:185 0.000169372
18 *306:22 *11302:A0 0.000176623
19 *306:22 *313:47 0.000611621
20 *306:36 *313:47 0.000132691
21 *992:DIODE *306:42 0.000199496
22 *1017:DIODE *306:36 0.000431422
23 *1023:DIODE *306:22 2.66586e-05
24 *1032:DIODE *306:22 0.00109828
25 *1200:DIODE *306:40 0.000159697
26 *1201:DIODE *306:36 0.000123319
27 *11264:A1 *11264:A0 2.97746e-05
28 *3:35 *306:40 0.000406544
29 *3:35 *306:42 0.000867411
30 *113:59 *306:36 0.00136352
31 *141:100 *306:42 0.00234403
32 *141:109 *306:42 0.000156906
33 *141:121 *306:42 0.000114914
34 *149:22 *306:42 0.00030933
35 *166:20 *306:40 0.000233992
36 *166:28 *306:36 0
37 *166:102 *306:22 0.00136296
38 *176:8 *306:40 3.66286e-05
39 *176:10 *306:40 0.000152151
40 *178:35 *306:36 2.79861e-05
41 *178:158 *306:36 7.99093e-06
42 *180:6 *306:22 8.41307e-05
43 *180:13 *306:22 0.00014294
44 *180:20 *306:22 0.000152328
45 *180:27 *306:22 0.000153217
46 *180:34 *306:22 0.000153217
47 *180:41 *306:22 0.000153217
48 *180:50 *306:22 0.000225586
49 *182:6 *306:22 0.000164874
50 *182:13 *306:22 0.000153217
51 *182:20 *306:22 0.000153217
52 *182:27 *306:22 0.000153217
53 *182:34 *306:22 0.000153217
54 *182:41 *306:22 0.000148555
55 *182:48 *306:22 0.00015005
56 *182:55 *306:22 0.000152943
57 *182:62 *306:22 0.000151541
58 *182:79 *306:22 3.74161e-05
59 *184:36 *306:22 0.00229902
60 *284:29 *306:42 0.000636496
61 *284:31 *306:40 0.00261416
62 *292:39 *306:36 0.000786681
*RES
1 *11542:DO[14] *306:4 0.133636 
2 *11542:DO[14] *306:12 8.66 
3 *306:12 *306:16 49.025 
4 *306:16 *306:20 46.5225 
5 *306:20 *306:22 70.6575 
6 *306:22 *306:36 41.57 
7 *306:36 *306:40 44.1075 
8 *306:40 *306:42 115.853 
9 *306:42 *11264:A0 7.235 
*END

*D_NET *307 0.0677356
*CONN
*I *1090:DIODE I *D sky130_fd_sc_hd__diode_2
*I *11267:A0 I *D sky130_fd_sc_hd__mux2_4
*I *11542:DO[15] O *D CF_SRAM_1024x32
*CAP
1 *1090:DIODE 0
2 *11267:A0 0.000104382
3 *11542:DO[15] 0.000670343
4 *307:19 0.0013163
5 *307:15 0.0153421
6 *307:13 0.0148005
7 *307:13 *11542:DI[15] 0
8 *307:13 *374:85 8.49936e-05
9 *307:13 *565:10 0
10 *307:15 *331:55 0.00340786
11 *307:15 *331:59 0.00277902
12 *307:15 *565:6 0.0129915
13 *11267:A1 *11267:A0 0.000168213
14 *11267:S *11267:A0 0.00016569
15 *204:14 *307:15 0.0128654
16 *293:29 *307:15 8.08855e-05
17 *304:47 *307:13 0.00168461
18 *305:13 *307:13 0.00127383
*RES
1 *11542:DO[15] *307:13 26.4925 
2 *307:13 *307:15 309.225 
3 *307:15 *307:19 21.485 
4 *307:19 *11267:A0 6.99 
5 *307:19 *1090:DIODE 3.6 
*END

*D_NET *308 0.108263
*CONN
*I *1092:DIODE I *D sky130_fd_sc_hd__diode_2
*I *1098:DIODE I *D sky130_fd_sc_hd__diode_2
*I *1093:DIODE I *D sky130_fd_sc_hd__diode_2
*I *1091:DIODE I *D sky130_fd_sc_hd__diode_2
*I *11270:A0 I *D sky130_fd_sc_hd__mux2_2
*I *1094:DIODE I *D sky130_fd_sc_hd__diode_2
*I *1096:DIODE I *D sky130_fd_sc_hd__diode_2
*I *1097:DIODE I *D sky130_fd_sc_hd__diode_2
*I *1095:DIODE I *D sky130_fd_sc_hd__diode_2
*I *11542:DO[16] O *D CF_SRAM_1024x32
*CAP
1 *1092:DIODE 0.000254127
2 *1098:DIODE 0
3 *1093:DIODE 0
4 *1091:DIODE 8.3965e-05
5 *11270:A0 0
6 *1094:DIODE 0
7 *1096:DIODE 0
8 *1097:DIODE 3.98916e-05
9 *1095:DIODE 0.000141285
10 *11542:DO[16] 5.8978e-05
11 *308:56 8.3355e-05
12 *308:54 0.000322555
13 *308:50 0.000326744
14 *308:44 0.000184485
15 *308:42 6.77785e-05
16 *308:27 0.000906073
17 *308:25 0.0055086
18 *308:21 0.0122109
19 *308:7 0.00776533
20 *1091:DIODE *323:35 5.83121e-06
21 *1092:DIODE *11542:ScanInDR 0.000888878
22 *1092:DIODE *11542:DI[16] 0.00108525
23 *1095:DIODE *332:31 0.000120323
24 *1097:DIODE *310:31 0.000155601
25 *308:7 *11542:ScanInDR 8.67659e-05
26 *308:7 *11542:DI[16] 8.40213e-05
27 *308:21 *11542:vpwrpc 2.3093e-05
28 *308:21 *11542:vpwrac 0.00172107
29 *308:21 *310:21 0.018264
30 *308:21 *313:39 0
31 *308:21 *316:21 3.82728e-05
32 *308:21 *318:13 3.82728e-05
33 *308:21 *318:31 0
34 *308:21 *418:99 0.000976472
35 *308:25 *310:25 0.0251587
36 *308:25 *312:23 0.0239142
37 *308:25 *325:36 0
38 *308:42 *323:35 2.49909e-05
39 *308:44 *323:35 8.247e-05
40 *308:50 *332:19 0.000162318
41 *308:54 *11276:A0 3.80305e-05
42 *308:54 *310:31 0.000376515
43 *308:56 *310:31 0.000153816
44 *998:DIODE *308:50 3.09164e-05
45 *11270:A1 *308:54 2.49909e-05
46 *11273:S *1095:DIODE 9.37731e-05
47 *11273:S *308:54 6.00111e-05
48 *3:25 *308:27 0.000106321
49 *141:53 *1097:DIODE 0.000155601
50 *141:53 *308:54 0.000290614
51 *141:53 *308:56 0.00014294
52 *141:60 *308:54 0.000339776
53 *200:66 *1095:DIODE 0.000121102
54 *200:66 *308:27 0.00144894
55 *226:24 *1091:DIODE 0.000153816
56 *226:24 *308:42 3.57349e-05
57 *226:24 *308:44 0.00014294
58 *276:20 *308:50 0.000137571
59 *300:22 *1095:DIODE 2.05661e-05
60 *300:22 *308:27 4.45542e-05
61 *301:23 *308:25 4.70134e-05
62 *301:31 *1095:DIODE 0.000160658
63 *301:31 *308:27 0.00252924
64 *302:48 *308:21 0.000823328
*RES
1 *11542:DO[16] *308:7 1.515 
2 *308:7 *308:21 39.387 
3 *308:21 *308:25 38.3239 
4 *308:25 *308:27 30.3225 
5 *308:27 *1095:DIODE 7.725 
6 *308:27 *308:42 2.45 
7 *308:42 *308:44 1.485 
8 *308:44 *308:50 5.89 
9 *308:50 *308:54 7.365 
10 *308:54 *308:56 1.485 
11 *308:56 *1097:DIODE 3.085 
12 *308:56 *1096:DIODE 1.6 
13 *308:54 *1094:DIODE 1.6 
14 *308:50 *11270:A0 1.6 
15 *308:44 *1091:DIODE 3.085 
16 *308:44 *1093:DIODE 1.6 
17 *308:42 *1098:DIODE 1.6 
18 *308:7 *1092:DIODE 11.71 
*END

*D_NET *309 0.12183
*CONN
*I *1103:DIODE I *D sky130_fd_sc_hd__diode_2
*I *1102:DIODE I *D sky130_fd_sc_hd__diode_2
*I *1107:DIODE I *D sky130_fd_sc_hd__diode_2
*I *1101:DIODE I *D sky130_fd_sc_hd__diode_2
*I *11273:A0 I *D sky130_fd_sc_hd__mux2_2
*I *1104:DIODE I *D sky130_fd_sc_hd__diode_2
*I *1106:DIODE I *D sky130_fd_sc_hd__diode_2
*I *1108:DIODE I *D sky130_fd_sc_hd__diode_2
*I *1109:DIODE I *D sky130_fd_sc_hd__diode_2
*I *1105:DIODE I *D sky130_fd_sc_hd__diode_2
*I *1099:DIODE I *D sky130_fd_sc_hd__diode_2
*I *11542:DO[17] O *D CF_SRAM_1024x32
*CAP
1 *1103:DIODE 0.000279643
2 *1102:DIODE 0
3 *1107:DIODE 0
4 *1101:DIODE 0.000116414
5 *11273:A0 0
6 *1104:DIODE 0
7 *1106:DIODE 0
8 *1108:DIODE 0
9 *1109:DIODE 0.00012229
10 *1105:DIODE 0
11 *1099:DIODE 0.000114552
12 *11542:DO[17] 6.68409e-05
13 *309:116 0.000855663
14 *309:94 0.000360959
15 *309:63 0.000237424
16 *309:61 0.000231184
17 *309:59 0.000508687
18 *309:57 0.000539902
19 *309:55 0.000560175
20 *309:35 0.000303499
21 *309:33 0.000577006
22 *309:29 0.00165886
23 *309:27 0.0209926
24 *309:23 0.0234243
25 *309:7 0.00451366
26 *1103:DIODE *422:78 2.88598e-05
27 *1103:DIODE *433:78 3.67779e-05
28 *309:7 *11542:WLBI 2.37237e-05
29 *309:7 *11542:TM 1.08758e-05
30 *309:7 *11542:DI[17] 5.83203e-05
31 *309:7 *422:91 1.16578e-05
32 *309:23 *11542:DI[17] 1.80702e-05
33 *309:23 *315:29 0.00271987
34 *309:23 *316:21 1.88656e-05
35 *309:23 *318:13 1.7635e-05
36 *309:23 *325:26 0.0177163
37 *309:23 *326:21 0.0120752
38 *309:23 *630:96 0.000267195
39 *309:27 *326:25 0.0249417
40 *309:29 *326:27 0.00141956
41 *309:29 *327:25 0.00469694
42 *309:94 *323:35 7.27298e-06
43 *309:116 *11542:BEN[16] 0
44 *309:116 *11542:WLBI 0.00025403
45 *309:116 *11542:TM 0.000107205
46 *309:116 *11542:DI[17] 0.000104029
47 *309:116 *313:31 0.000133194
48 *309:116 *319:29 0.000134606
49 *11273:A1 *309:59 0.000120789
50 *11273:S *309:57 0.000232581
51 *11273:S *309:59 0.000118081
52 *11542:CLKin *309:23 0.000268917
53 *113:10 *309:55 0
54 *204:10 *309:29 0
55 *204:10 *309:55 0.000187866
56 *225:26 *309:29 0.000315075
57 *226:26 *309:29 0.000321717
*RES
1 *11542:DO[17] *309:7 1.5 
2 *309:7 *309:23 36.3304 
3 *309:23 *309:27 39.6058 
4 *309:27 *309:29 55.0575 
5 *309:29 *309:33 5.21 
6 *309:33 *309:35 2.865 
7 *309:35 *1099:DIODE 3.085 
8 *309:35 *1105:DIODE 1.6 
9 *309:33 *309:55 7.63 
10 *309:55 *309:57 2.865 
11 *309:57 *309:59 5.97 
12 *309:59 *309:61 1.485 
13 *309:61 *309:63 1.485 
14 *309:63 *1109:DIODE 3.085 
15 *309:63 *1108:DIODE 1.6 
16 *309:61 *1106:DIODE 1.6 
17 *309:59 *1104:DIODE 1.6 
18 *309:57 *11273:A0 1.6 
19 *309:55 *309:94 3.21 
20 *309:94 *1101:DIODE 2.74 
21 *309:94 *1107:DIODE 1.6 
22 *309:7 *309:116 14.815 
23 *309:116 *1102:DIODE 1.6 
24 *309:116 *1103:DIODE 8.75 
*END

*D_NET *310 0.119453
*CONN
*I *1114:DIODE I *D sky130_fd_sc_hd__diode_2
*I *1113:DIODE I *D sky130_fd_sc_hd__diode_2
*I *11276:A0 I *D sky130_fd_sc_hd__mux2_2
*I *1110:DIODE I *D sky130_fd_sc_hd__diode_2
*I *1112:DIODE I *D sky130_fd_sc_hd__diode_2
*I *11542:DO[18] O *D CF_SRAM_1024x32
*CAP
1 *1114:DIODE 0.000140117
2 *1113:DIODE 0
3 *11276:A0 2.3016e-05
4 *1110:DIODE 0
5 *1112:DIODE 9.90797e-05
6 *11542:DO[18] 0.000114583
7 *310:52 0.000616308
8 *310:31 0.000503455
9 *310:29 0.00160196
10 *310:25 0.00592864
11 *310:21 0.00980448
12 *310:7 0.00564119
13 *310:7 *11542:BEN[17] 0
14 *310:7 *11542:DI[18] 4.66742e-05
15 *310:7 *427:68 5.74791e-05
16 *310:21 *313:31 1.79483e-05
17 *310:21 *317:21 0.0169248
18 *310:21 *319:29 1.79483e-05
19 *310:21 *321:30 0.0010063
20 *310:21 *427:88 0.00182804
21 *310:25 *312:23 0.0002879
22 *310:52 *11542:BEN[17] 0
23 *310:52 *427:68 0.000392039
24 *1097:DIODE *310:31 0.000155601
25 *11276:A1 *310:31 0.000231174
26 *141:53 *1112:DIODE 8.53224e-05
27 *141:53 *310:31 7.08076e-05
28 *277:40 *310:29 0.000552199
29 *291:22 *310:29 0.000591174
30 *295:28 *310:29 0.000960118
31 *301:23 *310:25 0.0251971
32 *302:52 *310:25 9.41606e-05
33 *304:51 *310:25 0.00247195
34 *308:21 *310:21 0.018264
35 *308:25 *310:25 0.0251587
36 *308:54 *11276:A0 3.80305e-05
37 *308:54 *310:31 0.000376515
38 *308:56 *310:31 0.000153816
*RES
1 *11542:DO[18] *310:7 2.01 
2 *310:7 *310:21 42.1796 
3 *310:21 *310:25 39.0814 
4 *310:25 *310:29 33.5975 
5 *310:29 *310:31 7.695 
6 *310:31 *1112:DIODE 3.085 
7 *310:31 *1110:DIODE 1.6 
8 *310:29 *11276:A0 2.05 
9 *310:7 *310:52 8.04 
10 *310:52 *1113:DIODE 1.6 
11 *310:52 *1114:DIODE 3.085 
*END

*D_NET *311 0.0677733
*CONN
*I *1116:DIODE I *D sky130_fd_sc_hd__diode_2
*I *1115:DIODE I *D sky130_fd_sc_hd__diode_2
*I *11281:A0 I *D sky130_fd_sc_hd__mux2_4
*I *11542:DO[19] O *D CF_SRAM_1024x32
*CAP
1 *1116:DIODE 0.000511077
2 *1115:DIODE 0
3 *11281:A0 0.000285872
4 *11542:DO[19] 0.00027141
5 *311:19 0.00141909
6 *311:15 0.00611302
7 *311:13 0.0049798
8 *311:11 0.00901914
9 *311:9 0.00980163
10 *1116:DIODE *319:27 3.09463e-05
11 *1116:DIODE *398:54 0
12 *1116:DIODE *398:58 0.000205124
13 *311:9 *11542:BEN[18] 0
14 *311:9 *11542:DI[19] 0
15 *311:9 *398:58 0
16 *311:11 *313:31 0.000637248
17 *311:11 *319:27 0.00018783
18 *311:11 *319:29 0
19 *311:11 *319:43 0.000337689
20 *311:11 *327:9 0
21 *311:11 *331:49 0
22 *311:11 *332:11 0.00283402
23 *311:11 *361:10 0
24 *311:11 *398:54 0
25 *311:11 *422:104 0.000230812
26 *311:11 *565:10 0
27 *1005:DIODE *11281:A0 0.00107784
28 *11281:S *11281:A0 0.00111447
29 *3:35 *11281:A0 0.000242102
30 *281:30 *11281:A0 7.37282e-05
31 *281:30 *311:19 0.000745309
32 *285:26 *311:15 0.00540495
33 *290:29 *311:15 0.0014533
34 *292:37 *11281:A0 2.30292e-05
35 *304:47 *311:11 0.000258189
36 *305:13 *311:11 0.00265119
37 *305:15 *311:15 0.0178644
*RES
1 *11542:DO[19] *311:9 6.08 
2 *311:9 *311:11 187.53 
3 *311:11 *311:13 2 
4 *311:13 *311:15 166.05 
5 *311:15 *311:19 24.545 
6 *311:19 *11281:A0 16.365 
7 *311:19 *1115:DIODE 3.6 
8 *311:9 *1116:DIODE 11.73 
*END

*D_NET *312 0.0928807
*CONN
*I *1118:DIODE I *D sky130_fd_sc_hd__diode_2
*I *1117:DIODE I *D sky130_fd_sc_hd__diode_2
*I *11220:A0 I *D sky130_fd_sc_hd__mux2_2
*I *11542:DO[1] O *D CF_SRAM_1024x32
*CAP
1 *1118:DIODE 0.00065316
2 *1117:DIODE 0.000199381
3 *11220:A0 0
4 *11542:DO[1] 4.82806e-05
5 *312:29 0.0015437
6 *312:23 0.00868292
7 *312:19 0.0123378
8 *312:5 0.00570062
9 *1118:DIODE *11542:BEN[0] 0
10 *1118:DIODE *11542:DI[1] 0
11 *312:5 *11542:BEN[0] 0
12 *312:5 *11542:DI[1] 0
13 *312:19 *316:35 0.0140594
14 *312:19 *318:13 8.38755e-05
15 *312:19 *319:29 4.65704e-05
16 *312:19 *320:24 0.0139743
17 *312:23 *325:36 0
18 *312:23 *330:35 0.00418092
19 *312:29 *328:27 0.00375058
20 *11220:A1 *312:29 4.77757e-05
21 *11220:S *312:29 6.69608e-06
22 *124:8 *1117:DIODE 1.1392e-05
23 *167:74 *312:23 0.000124571
24 *176:83 *312:23 0.00119709
25 *295:28 *312:29 0.00202962
26 *308:25 *312:23 0.0239142
27 *310:25 *312:23 0.0002879
*RES
1 *11542:DO[1] *312:5 0.7425 
2 *312:5 *312:19 35.7326 
3 *312:19 *312:23 37.5082 
4 *312:23 *312:29 47.9975 
5 *312:29 *11220:A0 1.6 
6 *312:29 *1117:DIODE 4.12 
7 *312:5 *1118:DIODE 10.81 
*END

*D_NET *313 0.0733397
*CONN
*I *1120:DIODE I *D sky130_fd_sc_hd__diode_2
*I *1119:DIODE I *D sky130_fd_sc_hd__diode_2
*I *11286:A0 I *D sky130_fd_sc_hd__mux2_4
*I *11542:DO[20] O *D CF_SRAM_1024x32
*CAP
1 *1120:DIODE 0.000397109
2 *1119:DIODE 0
3 *11286:A0 0.000495686
4 *11542:DO[20] 4.96194e-05
5 *313:47 0.0077523
6 *313:39 0.017776
7 *313:31 0.0115795
8 *313:5 0.00150684
9 *1120:DIODE *400:54 0.000942409
10 *313:5 *11542:DI[20] 6.31917e-05
11 *313:5 *400:54 2.03411e-05
12 *313:31 *316:17 0.00130488
13 *313:31 *318:13 0.000768691
14 *313:31 *319:27 8.6624e-05
15 *313:31 *319:29 0.00152229
16 *313:31 *422:104 0.000211091
17 *313:31 *427:68 3.96284e-05
18 *313:39 *324:22 0.0173446
19 *313:39 *418:99 0
20 *313:47 *11299:A0 0.000125407
21 *313:47 *11302:A0 0.000219474
22 *313:47 *314:29 0.0010738
23 *313:47 *324:30 0.00171905
24 *313:47 *330:35 0.00103282
25 *1023:DIODE *313:47 0.000149781
26 *3:35 *11286:A0 0.000106897
27 *3:35 *313:47 0.00062598
28 *113:68 *313:47 0.000133246
29 *166:28 *11286:A0 0.000949206
30 *166:102 *313:47 0.000143637
31 *166:114 *313:47 0.000203796
32 *171:67 *313:47 2.49056e-05
33 *174:67 *313:47 0.000541524
34 *178:43 *313:47 0.000205367
35 *180:60 *313:47 0.000531289
36 *182:79 *313:47 0.00123097
37 *184:36 *313:47 0.000321076
38 *283:41 *313:47 0.000106052
39 *284:31 *313:47 0.000155399
40 *284:45 *313:47 0.000141085
41 *285:43 *313:47 0.00011579
42 *292:39 *11286:A0 8.9706e-05
43 *306:22 *313:47 0.000611621
44 *306:36 *313:47 0.000132691
45 *308:21 *313:39 0
46 *309:116 *313:31 0.000133194
47 *310:21 *313:31 1.79483e-05
48 *311:11 *313:31 0.000637248
*RES
1 *11542:DO[20] *313:5 1.0875 
2 *313:5 *313:31 46.01 
3 *313:31 *313:39 40.4149 
4 *313:39 *313:47 19.2164 
5 *313:47 *11286:A0 12.325 
6 *313:47 *1119:DIODE 1.6 
7 *313:5 *1120:DIODE 10.5325 
*END

*D_NET *314 0.0681493
*CONN
*I *1123:DIODE I *D sky130_fd_sc_hd__diode_2
*I *1121:DIODE I *D sky130_fd_sc_hd__diode_2
*I *11290:A0 I *D sky130_fd_sc_hd__mux2_4
*I *11542:DO[21] O *D CF_SRAM_1024x32
*CAP
1 *1123:DIODE 0.000407656
2 *1121:DIODE 0
3 *11290:A0 0.00017766
4 *11542:DO[21] 4.02089e-05
5 *314:29 0.0054256
6 *314:21 0.0150575
7 *314:17 0.0126154
8 *314:7 0.00325379
9 *1123:DIODE *11542:DI[21] 0.000978144
10 *314:7 *11542:DI[21] 8.65905e-05
11 *314:17 *318:11 0.000316678
12 *314:17 *400:80 0
13 *314:17 *402:82 0
14 *314:21 *315:29 0.0153841
15 *314:21 *330:21 0.000115465
16 *314:29 *315:35 0.000266329
17 *314:29 *316:35 0.00839753
18 *314:29 *325:36 0
19 *314:29 *330:35 0
20 *1016:DIODE *11290:A0 0.000160314
21 *1027:DIODE *314:29 0.000116644
22 *113:36 *11290:A0 0.000597442
23 *113:36 *314:29 0.000151563
24 *166:127 *314:29 0.000106915
25 *174:29 *11290:A0 0.000167545
26 *174:36 *11290:A0 9.91257e-05
27 *174:43 *11290:A0 9.91257e-05
28 *174:50 *11290:A0 9.70724e-05
29 *174:57 *11290:A0 6.77417e-05
30 *174:67 *314:29 0.00201057
31 *182:79 *314:29 0.000374599
32 *186:8 *314:29 0.000504228
33 *313:47 *314:29 0.0010738
*RES
1 *11542:DO[21] *314:7 0.93 
2 *314:7 *314:17 13.024 
3 *314:17 *314:21 38.1783 
4 *314:21 *314:29 18.9395 
5 *314:29 *11290:A0 10.675 
6 *314:29 *1121:DIODE 1.6 
7 *314:7 *1123:DIODE 10.675 
*END

*D_NET *315 0.0737322
*CONN
*I *1125:DIODE I *D sky130_fd_sc_hd__diode_2
*I *1124:DIODE I *D sky130_fd_sc_hd__diode_2
*I *11293:A0 I *D sky130_fd_sc_hd__mux2_4
*I *11542:DO[22] O *D CF_SRAM_1024x32
*CAP
1 *1125:DIODE 0.00058093
2 *1124:DIODE 0.000181329
3 *11293:A0 0.000806125
4 *11542:DO[22] 0.000220412
5 *315:35 0.00515076
6 *315:29 0.0145187
7 *315:9 0.0111567
8 *1125:DIODE *11542:DI[22] 0.000119118
9 *1125:DIODE *316:17 8.75806e-05
10 *315:9 *11542:BEN[21] 0
11 *315:9 *11542:DI[22] 0
12 *315:29 *11542:DI[22] 1.79483e-05
13 *315:29 *316:17 1.79483e-05
14 *315:29 *318:13 0.000884349
15 *315:29 *325:26 0.00212598
16 *315:29 *330:21 0.00933698
17 *315:29 *405:56 7.91904e-05
18 *315:35 *316:35 0.000833562
19 *315:35 *318:31 0.00562487
20 *315:35 *319:51 9.4675e-06
21 *315:35 *321:38 0.00262444
22 *315:35 *326:25 0
23 *1016:DIODE *1124:DIODE 0
24 *1016:DIODE *315:35 0
25 *11280:A *315:35 0.000176226
26 *11293:A1 *11293:A0 7.4501e-05
27 *113:57 *1124:DIODE 0
28 *113:57 *315:35 0
29 *166:10 *315:35 0
30 *174:67 *11293:A0 0.00016709
31 *176:50 *11293:A0 2.08249e-05
32 *284:45 *11293:A0 0.000454024
33 *284:52 *11293:A0 9.29176e-05
34 *309:23 *315:29 0.00271987
35 *314:21 *315:29 0.0153841
36 *314:29 *315:35 0.000266329
*RES
1 *11542:DO[22] *315:9 5.435 
2 *315:9 *315:29 48.3135 
3 *315:29 *315:35 18.9253 
4 *315:35 *11293:A0 14.9175 
5 *315:35 *1124:DIODE 5.8725 
6 *315:9 *1125:DIODE 12.765 
*END

*D_NET *316 0.0795679
*CONN
*I *1127:DIODE I *D sky130_fd_sc_hd__diode_2
*I *1126:DIODE I *D sky130_fd_sc_hd__diode_2
*I *11296:A0 I *D sky130_fd_sc_hd__mux2_4
*I *11542:DO[23] O *D CF_SRAM_1024x32
*CAP
1 *1127:DIODE 0.000344733
2 *1126:DIODE 0
3 *11296:A0 0.00101695
4 *11542:DO[23] 8.87254e-05
5 *316:35 0.009274
6 *316:21 0.00934766
7 *316:17 0.00224024
8 *316:7 0.00158308
9 *1127:DIODE *407:50 0.000873503
10 *11296:A0 *11299:A0 2.16833e-05
11 *316:7 *11542:DI[23] 8.57024e-05
12 *316:7 *407:50 0.000109883
13 *316:17 *11542:DI[22] 0.000120564
14 *316:17 *318:11 0.00164716
15 *316:17 *318:13 8.88039e-05
16 *316:17 *319:27 0.00209538
17 *316:17 *400:80 7.96104e-06
18 *316:17 *402:82 1.79536e-05
19 *316:21 *11542:TM 0.000168526
20 *316:21 *318:13 0.00187995
21 *316:21 *319:27 1.79992e-05
22 *316:21 *319:29 0.00393874
23 *316:21 *418:99 1.79483e-05
24 *316:21 *427:88 0.000103683
25 *316:35 *1132:DIODE 0.000147489
26 *316:35 *319:51 0.0177555
27 *316:35 *320:24 0.000322011
28 *316:35 *325:36 0
29 *1017:DIODE *11296:A0 0.000340058
30 *1125:DIODE *316:17 8.75806e-05
31 *1221:DIODE *11296:A0 0
32 *11542:CLKin *316:21 0.00010896
33 *11542:R_WB *316:21 0.00028051
34 *166:87 *11296:A0 0.000364564
35 *186:8 *316:35 0.000181343
36 *284:45 *11296:A0 0
37 *284:52 *11296:A0 1.47256e-05
38 *285:30 *11296:A0 7.15894e-05
39 *285:30 *316:35 6.71803e-06
40 *285:43 *11296:A0 8.65961e-05
41 *301:19 *316:21 3.89348e-05
42 *301:19 *316:35 0
43 *308:21 *316:21 3.82728e-05
44 *309:23 *316:21 1.88656e-05
45 *312:19 *316:35 0.0140594
46 *313:31 *316:17 0.00130488
47 *314:29 *316:35 0.00839753
48 *315:29 *316:17 1.79483e-05
49 *315:35 *316:35 0.000833562
*RES
1 *11542:DO[23] *316:7 1.935 
2 *316:7 *316:17 43.2725 
3 *316:17 *316:21 47.525 
4 *316:21 *316:35 47.2008 
5 *316:35 *11296:A0 17.685 
6 *316:35 *1126:DIODE 3.6 
7 *316:7 *1127:DIODE 9.64 
*END

*D_NET *317 0.07886
*CONN
*I *1129:DIODE I *D sky130_fd_sc_hd__diode_2
*I *1128:DIODE I *D sky130_fd_sc_hd__diode_2
*I *11299:A0 I *D sky130_fd_sc_hd__mux2_4
*I *11542:DO[24] O *D CF_SRAM_1024x32
*CAP
1 *1129:DIODE 0.000453902
2 *1128:DIODE 0
3 *11299:A0 0.000295982
4 *11542:DO[24] 4.77556e-05
5 *317:31 0.00447378
6 *317:21 0.0100138
7 *317:7 0.00633766
8 *1129:DIODE *409:50 0.000311471
9 *317:7 *11542:DI[24] 4.05674e-06
10 *317:7 *409:50 1.90662e-05
11 *317:21 *318:11 0.000132472
12 *317:21 *319:23 0.000132472
13 *317:21 *321:30 0.0214302
14 *317:21 *409:72 0
15 *317:31 *322:34 0.00605269
16 *1021:DIODE *11299:A0 2.92496e-05
17 *11296:A0 *11299:A0 2.16833e-05
18 *166:87 *11299:A0 7.60965e-05
19 *166:102 *11299:A0 0.000109902
20 *180:6 *11299:A0 0.00016031
21 *180:13 *11299:A0 0.000153816
22 *180:20 *11299:A0 0.000163204
23 *180:27 *11299:A0 0.000164874
24 *180:34 *11299:A0 0.000164874
25 *180:41 *11299:A0 0.000164874
26 *180:50 *11299:A0 4.99619e-05
27 *180:163 *11299:A0 0
28 *180:163 *317:31 0
29 *285:43 *11299:A0 0.00121469
30 *286:30 *317:31 0
31 *303:35 *317:31 0.009631
32 *310:21 *317:21 0.0169248
33 *313:47 *11299:A0 0.000125407
*RES
1 *11542:DO[24] *317:7 0.9175 
2 *317:7 *317:21 46.2388 
3 *317:21 *317:31 38.4998 
4 *317:31 *11299:A0 16.47 
5 *317:31 *1128:DIODE 3.6 
6 *317:7 *1129:DIODE 10.675 
*END

*D_NET *318 0.0689713
*CONN
*I *1131:DIODE I *D sky130_fd_sc_hd__diode_2
*I *1130:DIODE I *D sky130_fd_sc_hd__diode_2
*I *11302:A0 I *D sky130_fd_sc_hd__mux2_4
*I *11542:DO[25] O *D CF_SRAM_1024x32
*CAP
1 *1131:DIODE 0.00037386
2 *1130:DIODE 0
3 *11302:A0 0.000479039
4 *11542:DO[25] 5.58779e-05
5 *318:31 0.0097546
6 *318:13 0.0150372
7 *318:11 0.00702524
8 *318:5 0.00169337
9 *1131:DIODE *411:58 0.000948528
10 *1131:DIODE *629:203 0
11 *11302:A0 *11305:A0 7.85898e-05
12 *318:5 *11542:BEN[24] 0
13 *318:5 *11542:DI[25] 7.59424e-05
14 *318:5 *411:58 2.44759e-05
15 *318:11 *319:23 0.00178972
16 *318:11 *407:72 4.01548e-05
17 *318:11 *409:72 0.000109394
18 *318:11 *629:189 1.79536e-05
19 *318:13 *11542:TM 0.000167514
20 *318:13 *319:29 0.000246947
21 *318:13 *319:43 0.000915628
22 *318:13 *323:17 0.000222437
23 *318:13 *326:21 0.000468103
24 *318:13 *327:9 0.0009452
25 *318:13 *328:21 8.58806e-05
26 *318:13 *400:80 1.7635e-05
27 *318:13 *418:99 1.79483e-05
28 *318:13 *427:88 0.000103683
29 *318:31 *11542:BEN[6] 0
30 *318:31 *319:51 0.000975811
31 *318:31 *320:30 0.00497117
32 *318:31 *321:38 0.00122041
33 *318:31 *326:25 0
34 *318:31 *330:21 0
35 *1023:DIODE *11302:A0 0.000750885
36 *11542:CLKin *318:13 0.00010896
37 *11542:R_WB *318:13 0.00028051
38 *166:114 *11302:A0 0
39 *182:6 *11302:A0 0.000164874
40 *182:13 *11302:A0 0.000164874
41 *182:20 *11302:A0 0.000164874
42 *182:27 *11302:A0 0.000164874
43 *182:34 *11302:A0 0.000164874
44 *182:41 *11302:A0 0.000160213
45 *182:48 *11302:A0 8.64421e-05
46 *301:19 *318:13 3.89348e-05
47 *302:48 *318:31 0.0069798
48 *306:22 *11302:A0 0.000176623
49 *308:21 *318:13 3.82728e-05
50 *308:21 *318:31 0
51 *309:23 *318:13 1.7635e-05
52 *312:19 *318:13 8.38755e-05
53 *313:31 *318:13 0.000768691
54 *313:47 *11302:A0 0.000219474
55 *314:17 *318:11 0.000316678
56 *315:29 *318:13 0.000884349
57 *315:35 *318:31 0.00562487
58 *316:17 *318:11 0.00164716
59 *316:17 *318:13 8.88039e-05
60 *316:21 *318:13 0.00187995
61 *317:21 *318:11 0.000132472
*RES
1 *11542:DO[25] *318:5 1.0875 
2 *318:5 *318:11 41.39 
3 *318:11 *318:13 113.955 
4 *318:13 *318:31 35.2536 
5 *318:31 *11302:A0 19.11 
6 *318:31 *1130:DIODE 3.6 
7 *318:5 *1131:DIODE 10.4575 
*END

*D_NET *319 0.0692525
*CONN
*I *1134:DIODE I *D sky130_fd_sc_hd__diode_2
*I *1132:DIODE I *D sky130_fd_sc_hd__diode_2
*I *11305:A0 I *D sky130_fd_sc_hd__mux2_4
*I *11542:DO[26] O *D CF_SRAM_1024x32
*CAP
1 *1134:DIODE 0.000374306
2 *1132:DIODE 0.000519592
3 *11305:A0 6.4971e-05
4 *11542:DO[26] 4.25351e-05
5 *319:51 0.00663797
6 *319:43 0.00919395
7 *319:29 0.00499181
8 *319:27 0.00275874
9 *319:23 0.00306159
10 *319:5 0.00257095
11 *1134:DIODE *11542:BEN[25] 0
12 *1134:DIODE *11542:DI[26] 0.00094675
13 *319:5 *11542:BEN[25] 0
14 *319:5 *11542:DI[26] 0.000106771
15 *319:23 *11542:DI[21] 0.000119756
16 *319:23 *320:20 3.85449e-05
17 *319:23 *321:26 3.02513e-05
18 *319:23 *402:82 2.88598e-05
19 *319:23 *407:72 4.01548e-05
20 *319:23 *409:72 0.000109394
21 *319:23 *411:80 1.7635e-05
22 *319:23 *629:189 1.79536e-05
23 *319:27 *398:80 1.79483e-05
24 *319:43 *323:17 0.000222437
25 *319:43 *326:21 1.79536e-05
26 *319:43 *327:9 0.000445611
27 *319:43 *328:21 0.000730004
28 *319:51 *320:30 0.00514765
29 *319:51 *325:36 0
30 *1027:DIODE *1132:DIODE 2.01504e-05
31 *1116:DIODE *319:27 3.09463e-05
32 *11302:A0 *11305:A0 7.85898e-05
33 *287:45 *1132:DIODE 0.000509968
34 *309:116 *319:29 0.000134606
35 *310:21 *319:29 1.79483e-05
36 *311:11 *319:27 0.00018783
37 *311:11 *319:29 0
38 *311:11 *319:43 0.000337689
39 *312:19 *319:29 4.65704e-05
40 *313:31 *319:27 8.6624e-05
41 *313:31 *319:29 0.00152229
42 *315:35 *319:51 9.4675e-06
43 *316:17 *319:27 0.00209538
44 *316:21 *319:27 1.79992e-05
45 *316:21 *319:29 0.00393874
46 *316:35 *1132:DIODE 0.000147489
47 *316:35 *319:51 0.0177555
48 *317:21 *319:23 0.000132472
49 *318:11 *319:23 0.00178972
50 *318:13 *319:29 0.000246947
51 *318:13 *319:43 0.000915628
52 *318:31 *319:51 0.000975811
*RES
1 *11542:DO[26] *319:5 1.0875 
2 *319:5 *319:23 48.9825 
3 *319:23 *319:27 25.4175 
4 *319:27 *319:29 54.075 
5 *319:29 *319:43 38.2087 
6 *319:43 *319:51 31.1454 
7 *319:51 *11305:A0 4.5975 
8 *319:51 *1132:DIODE 10.605 
9 *319:5 *1134:DIODE 10.4425 
*END

*D_NET *320 0.0611037
*CONN
*I *1136:DIODE I *D sky130_fd_sc_hd__diode_2
*I *1135:DIODE I *D sky130_fd_sc_hd__diode_2
*I *11308:A0 I *D sky130_fd_sc_hd__mux2_4
*I *11542:DO[27] O *D CF_SRAM_1024x32
*CAP
1 *1136:DIODE 0.000415595
2 *1135:DIODE 0
3 *11308:A0 0.000218898
4 *11542:DO[27] 8.02185e-05
5 *320:30 0.00154651
6 *320:24 0.0138781
7 *320:20 0.0143979
8 *320:10 0.00234319
9 *320:4 0
10 *1136:DIODE *11542:DI[27] 4.78613e-05
11 *1136:DIODE *416:82 0.000460414
12 *320:10 *11542:DI[27] 8.61758e-05
13 *320:20 *11542:BEN[27] 0.000287339
14 *320:20 *321:26 0.00216259
15 *320:20 *413:78 0.000261092
16 *11311:S *11308:A0 0.000283172
17 *166:127 *11308:A0 7.27003e-05
18 *186:6 *11308:A0 9.03508e-06
19 *186:8 *11308:A0 9.91257e-05
20 *312:19 *320:24 0.0139743
21 *316:35 *320:24 0.000322011
22 *318:31 *320:30 0.00497117
23 *319:23 *320:20 3.85449e-05
24 *319:51 *320:30 0.00514765
*RES
1 *11542:DO[27] *320:4 0.18375 
2 *11542:DO[27] *320:10 1.485 
3 *320:10 *320:20 16.4925 
4 *320:20 *320:24 45.3273 
5 *320:24 *320:30 9.0591 
6 *320:30 *11308:A0 8.925 
7 *320:30 *1135:DIODE 3.6 
8 *320:10 *1136:DIODE 9.985 
*END

*D_NET *321 0.0621439
*CONN
*I *1138:DIODE I *D sky130_fd_sc_hd__diode_2
*I *1137:DIODE I *D sky130_fd_sc_hd__diode_2
*I *11311:A0 I *D sky130_fd_sc_hd__mux2_4
*I *11542:DO[28] O *D CF_SRAM_1024x32
*CAP
1 *1138:DIODE 0.00046737
2 *1137:DIODE 0
3 *11311:A0 0.000208946
4 *11542:DO[28] 3.82805e-05
5 *321:38 0.00214455
6 *321:30 0.0130789
7 *321:26 0.0125743
8 *321:10 0.00193661
9 *321:4 0
10 *1138:DIODE *11542:DI[28] 0.000472185
11 *321:10 *11542:DI[28] 4.78564e-05
12 *321:26 *11542:BEN[27] 0.000596901
13 *321:26 *413:78 0.000631025
14 *321:38 *326:25 0.000990186
15 *11311:A1 *11311:A0 4.89295e-05
16 *11311:S *11311:A0 4.46754e-05
17 *186:8 *11311:A0 0.000388974
18 *310:21 *321:30 0.0010063
19 *315:35 *321:38 0.00262444
20 *317:21 *321:30 0.0214302
21 *318:31 *321:38 0.00122041
22 *319:23 *321:26 3.02513e-05
23 *320:20 *321:26 0.00216259
*RES
1 *11542:DO[28] *321:4 0.147 
2 *11542:DO[28] *321:10 0.795 
3 *321:10 *321:26 23.283 
4 *321:26 *321:30 45.1551 
5 *321:30 *321:38 12.123 
6 *321:38 *11311:A0 6.925 
7 *321:38 *1137:DIODE 1.6 
8 *321:10 *1138:DIODE 10.675 
*END

*D_NET *322 0.0673308
*CONN
*I *1139:DIODE I *D sky130_fd_sc_hd__diode_2
*I *11314:A0 I *D sky130_fd_sc_hd__mux2_4
*I *1140:DIODE I *D sky130_fd_sc_hd__diode_2
*I *11542:DO[29] O *D CF_SRAM_1024x32
*CAP
1 *1139:DIODE 0
2 *11314:A0 0.000214279
3 *1140:DIODE 0.00041002
4 *11542:DO[29] 2.88882e-05
5 *322:34 0.00550851
6 *322:26 0.0148129
7 *322:5 0.00995755
8 *1140:DIODE *11542:DI[29] 0.000575554
9 *322:5 *11542:DI[29] 4.97169e-05
10 *322:26 *324:20 0
11 *322:26 *325:26 0.0252252
12 *322:26 *328:21 0.000628319
13 *322:26 *433:86 9.53947e-05
14 *322:34 *11542:vpwrpc 0
15 *322:34 *11542:vpwrac 0
16 *113:68 *11314:A0 0.000832982
17 *289:33 *322:34 0
18 *292:39 *11314:A0 0.000485424
19 *301:19 *322:26 0
20 *303:31 *322:26 0.00179518
21 *303:35 *322:34 0.000658188
22 *317:31 *322:34 0.00605269
*RES
1 *11542:DO[29] *322:5 0.7425 
2 *322:5 *1140:DIODE 10.8175 
3 *322:5 *322:26 49.5189 
4 *322:26 *322:34 38.6134 
5 *322:34 *11314:A0 11.91 
6 *322:34 *1139:DIODE 3.6 
*END

*D_NET *323 0.0810981
*CONN
*I *1142:DIODE I *D sky130_fd_sc_hd__diode_2
*I *1147:DIODE I *D sky130_fd_sc_hd__diode_2
*I *1145:DIODE I *D sky130_fd_sc_hd__diode_2
*I *1141:DIODE I *D sky130_fd_sc_hd__diode_2
*I *11223:A0 I *D sky130_fd_sc_hd__mux2_2
*I *1143:DIODE I *D sky130_fd_sc_hd__diode_2
*I *1146:DIODE I *D sky130_fd_sc_hd__diode_2
*I *1148:DIODE I *D sky130_fd_sc_hd__diode_2
*I *1149:DIODE I *D sky130_fd_sc_hd__diode_2
*I *11542:DO[2] O *D CF_SRAM_1024x32
*CAP
1 *1142:DIODE 0.000651331
2 *1147:DIODE 0
3 *1145:DIODE 8.23645e-05
4 *1141:DIODE 0
5 *11223:A0 0
6 *1143:DIODE 0
7 *1146:DIODE 8.27988e-05
8 *1148:DIODE 4.55391e-05
9 *1149:DIODE 0.000100411
10 *11542:DO[2] 5.77811e-05
11 *323:99 0.000273773
12 *323:73 0.000446639
13 *323:71 0.000715727
14 *323:67 0.000534344
15 *323:43 0.000232756
16 *323:37 0.000309805
17 *323:35 0.0012736
18 *323:19 0.00563494
19 *323:17 0.0210921
20 *323:7 0.0172079
21 *1142:DIODE *11542:BEN[1] 0
22 *1142:DIODE *11542:DI[2] 0
23 *1148:DIODE *327:60 2.65814e-06
24 *1149:DIODE *327:29 2.68526e-05
25 *1149:DIODE *327:31 5.83121e-06
26 *1149:DIODE *327:60 9.14354e-05
27 *323:7 *11542:BEN[1] 0
28 *323:7 *11542:DI[2] 0
29 *323:19 *332:19 0.0055665
30 *323:35 *329:35 2.13538e-05
31 *323:35 *363:66 0.00024046
32 *1035:DIODE *323:71 5.8825e-05
33 *1091:DIODE *323:35 5.83121e-06
34 *11223:A1 *323:71 8.30403e-05
35 *128:8 *323:71 4.77719e-05
36 *128:8 *323:73 0.000187286
37 *196:22 *323:35 0.000137349
38 *200:66 *1149:DIODE 0.000100486
39 *200:66 *323:35 0.00128765
40 *200:66 *323:37 0.000116853
41 *200:66 *323:43 0.000141898
42 *203:88 *323:73 0.000181332
43 *203:92 *1146:DIODE 0.000154977
44 *203:92 *323:73 0.000296755
45 *226:24 *323:35 5.44784e-05
46 *276:20 *323:19 0.0155088
47 *293:25 *323:19 0
48 *298:22 *323:19 0.00367766
49 *298:30 *1149:DIODE 5.29707e-05
50 *298:30 *323:35 0.000314491
51 *298:30 *323:37 4.19797e-05
52 *298:30 *323:43 8.86541e-05
53 *299:18 *323:35 0.00139648
54 *299:22 *1145:DIODE 0.000155491
55 *299:22 *323:99 0.000371788
56 *301:37 *323:35 0.00118877
57 *301:41 *323:35 8.85882e-05
58 *301:45 *323:35 0.000101317
59 *304:59 *323:35 0
60 *308:42 *323:35 2.49909e-05
61 *308:44 *323:35 8.247e-05
62 *309:94 *323:35 7.27298e-06
63 *318:13 *323:17 0.000222437
64 *319:43 *323:17 0.000222437
*RES
1 *11542:DO[2] *323:7 0.908077 
2 *323:7 *323:17 46.2356 
3 *323:17 *323:19 178.223 
4 *323:19 *323:35 41.885 
5 *323:35 *323:37 1.38 
6 *323:37 *323:43 2.7 
7 *323:43 *1149:DIODE 6.195 
8 *323:43 *1148:DIODE 4.05 
9 *323:37 *323:67 3.83 
10 *323:67 *323:71 5.46 
11 *323:71 *323:73 6.66 
12 *323:73 *1146:DIODE 3.085 
13 *323:73 *1143:DIODE 1.6 
14 *323:71 *11223:A0 1.6 
15 *323:67 *1141:DIODE 1.6 
16 *323:35 *323:99 5.555 
17 *323:99 *1145:DIODE 3.085 
18 *323:99 *1147:DIODE 1.6 
19 *323:7 *1142:DIODE 10.675 
*END

*D_NET *324 0.0590866
*CONN
*I *1151:DIODE I *D sky130_fd_sc_hd__diode_2
*I *1150:DIODE I *D sky130_fd_sc_hd__diode_2
*I *11317:A0 I *D sky130_fd_sc_hd__mux2_4
*I *11542:DO[30] O *D CF_SRAM_1024x32
*CAP
1 *1151:DIODE 0.000431309
2 *1150:DIODE 0
3 *11317:A0 0.000202616
4 *11542:DO[30] 3.9332e-05
5 *324:30 0.000735232
6 *324:22 0.0144529
7 *324:20 0.0174483
8 *324:10 0.00399474
9 *324:4 3.99102e-06
10 *1151:DIODE *11542:DI[30] 2.49909e-05
11 *1151:DIODE *456:61 0.000489672
12 *324:4 *11542:DI[30] 7.00889e-06
13 *324:10 *11542:DI[30] 5.05437e-05
14 *324:20 *456:81 0.000132472
15 *324:30 *330:35 0.000544287
16 *1037:DIODE *11317:A0 0.000362862
17 *11317:A1 *11317:A0 4.99619e-05
18 *11317:S *11317:A0 0
19 *11320:S *11317:A0 0.000431359
20 *11320:S *324:30 0.000285779
21 *113:68 *11317:A0 4.60584e-05
22 *184:36 *11317:A0 8.7152e-06
23 *184:36 *324:30 1.88602e-05
24 *184:38 *324:30 0.000261942
25 *188:10 *11317:A0 0
26 *313:39 *324:22 0.0173446
27 *313:47 *324:30 0.00171905
28 *322:26 *324:20 0
*RES
1 *11542:DO[30] *324:4 0.105 
2 *11542:DO[30] *324:10 0.795 
3 *324:10 *324:20 15.792 
4 *324:20 *324:22 50.426 
5 *324:22 *324:30 3.8051 
6 *324:30 *11317:A0 10.305 
7 *324:30 *1150:DIODE 3.6 
8 *324:10 *1151:DIODE 10.675 
*END

*D_NET *325 0.0719843
*CONN
*I *1152:DIODE I *D sky130_fd_sc_hd__diode_2
*I *11320:A0 I *D sky130_fd_sc_hd__mux2_4
*I *1153:DIODE I *D sky130_fd_sc_hd__diode_2
*I *11542:DO[31] O *D CF_SRAM_1024x32
*CAP
1 *1152:DIODE 0
2 *11320:A0 0.000244728
3 *1153:DIODE 0.000434847
4 *11542:DO[31] 2.943e-05
5 *325:36 0.00320337
6 *325:26 0.0110801
7 *325:24 0.00837098
8 *325:5 0.000713819
9 *1153:DIODE *11542:BEN[31] 0
10 *1153:DIODE *11542:DI[31] 0.000293312
11 *1153:DIODE *465:50 7.81829e-05
12 *325:5 *11542:BEN[31] 0
13 *325:5 *11542:DI[31] 3.52156e-05
14 *325:24 *11542:BEN[31] 4.56378e-05
15 *325:26 *326:21 2.3093e-05
16 *325:26 *328:21 0
17 *325:36 *330:35 0.000503876
18 *11320:A1 *11320:A0 3.00381e-05
19 *11320:S *11320:A0 3.23663e-05
20 *184:38 *11320:A0 6.25897e-05
21 *184:38 *325:36 0.000776025
22 *194:8 *11320:A0 0.000163199
23 *194:12 *325:36 0.000784559
24 *301:19 *325:26 0
25 *301:23 *325:36 0
26 *303:31 *325:26 1.1508e-05
27 *308:25 *325:36 0
28 *309:23 *325:26 0.0177163
29 *312:23 *325:36 0
30 *314:29 *325:36 0
31 *315:29 *325:26 0.00212598
32 *316:35 *325:36 0
33 *319:51 *325:36 0
34 *322:26 *325:26 0.0252252
*RES
1 *11542:DO[31] *325:5 0.7425 
2 *325:5 *1153:DIODE 10.8475 
3 *325:5 *325:24 4.08827 
4 *325:24 *325:26 52.6655 
5 *325:26 *325:36 10.2916 
6 *325:36 *11320:A0 6.205 
7 *325:36 *1152:DIODE 1.6 
*END

*D_NET *326 0.0960877
*CONN
*I *1158:DIODE I *D sky130_fd_sc_hd__diode_2
*I *1157:DIODE I *D sky130_fd_sc_hd__diode_2
*I *1156:DIODE I *D sky130_fd_sc_hd__diode_2
*I *1154:DIODE I *D sky130_fd_sc_hd__diode_2
*I *11226:A0 I *D sky130_fd_sc_hd__mux2_2
*I *11542:DO[3] O *D CF_SRAM_1024x32
*CAP
1 *1158:DIODE 0.000121368
2 *1157:DIODE 0
3 *1156:DIODE 0
4 *1154:DIODE 0.000140498
5 *11226:A0 8.84659e-05
6 *11542:DO[3] 6.31508e-05
7 *326:74 0.000777809
8 *326:58 0.000844438
9 *326:35 0.00178967
10 *326:27 0.00322926
11 *326:25 0.0141893
12 *326:21 0.0181391
13 *326:7 0.00690139
14 *1154:DIODE *555:20 4.66108e-05
15 *326:7 *11542:DI[3] 0
16 *326:21 *329:23 0.00249631
17 *326:35 *331:71 4.35713e-05
18 *326:74 *11542:DI[3] 0
19 *1041:DIODE *11226:A0 0.000118081
20 *11215:S *326:35 0.000256282
21 *11241:A1 *326:58 1.08758e-05
22 *113:10 *326:27 0.00268847
23 *120:8 *326:35 0.000118081
24 *134:8 *11226:A0 9.14049e-05
25 *134:8 *326:35 0.000202095
26 *203:65 *326:35 0.000411093
27 *203:88 *11226:A0 0.000118081
28 *203:92 *11226:A0 8.35068e-05
29 *204:10 *326:27 0
30 *226:26 *326:27 0.00229983
31 *229:32 *11226:A0 9.30717e-05
32 *229:32 *326:35 0.000195231
33 *229:32 *326:58 0.000146055
34 *229:34 *326:58 0.000242965
35 *294:32 *11226:A0 7.14699e-05
36 *299:22 *326:58 2.39856e-05
37 *301:63 *326:35 7.44765e-05
38 *301:65 *326:35 3.59784e-05
39 *309:23 *326:21 0.0120752
40 *309:27 *326:25 0.0249417
41 *309:29 *326:27 0.00141956
42 *315:35 *326:25 0
43 *318:13 *326:21 0.000468103
44 *318:31 *326:25 0
45 *319:43 *326:21 1.79536e-05
46 *321:38 *326:25 0.000990186
47 *325:26 *326:21 2.3093e-05
*RES
1 *11542:DO[3] *326:7 0.9075 
2 *326:7 *326:21 25.8624 
3 *326:21 *326:25 39.8971 
4 *326:25 *326:27 71.1225 
5 *326:27 *326:35 21.34 
6 *326:35 *11226:A0 6.555 
7 *326:35 *326:58 15.615 
8 *326:58 *1154:DIODE 3.445 
9 *326:58 *1156:DIODE 1.6 
10 *326:7 *326:74 9.075 
11 *326:74 *1157:DIODE 1.6 
12 *326:74 *1158:DIODE 3.085 
*END

*D_NET *327 0.0820161
*CONN
*I *1160:DIODE I *D sky130_fd_sc_hd__diode_2
*I *11229:A0 I *D sky130_fd_sc_hd__mux2_2
*I *1159:DIODE I *D sky130_fd_sc_hd__diode_2
*I *1161:DIODE I *D sky130_fd_sc_hd__diode_2
*I *1162:DIODE I *D sky130_fd_sc_hd__diode_2
*I *1164:DIODE I *D sky130_fd_sc_hd__diode_2
*I *1167:DIODE I *D sky130_fd_sc_hd__diode_2
*I *1163:DIODE I *D sky130_fd_sc_hd__diode_2
*I *1168:DIODE I *D sky130_fd_sc_hd__diode_2
*I *1165:DIODE I *D sky130_fd_sc_hd__diode_2
*I *11542:DO[4] O *D CF_SRAM_1024x32
*CAP
1 *1160:DIODE 0.000566175
2 *11229:A0 0
3 *1159:DIODE 0
4 *1161:DIODE 0
5 *1162:DIODE 0
6 *1164:DIODE 0
7 *1167:DIODE 0.000131942
8 *1163:DIODE 4.93721e-05
9 *1168:DIODE 0
10 *1165:DIODE 8.31371e-05
11 *11542:DO[4] 5.76709e-05
12 *327:68 0.000252895
13 *327:66 0.000247721
14 *327:64 0.000250135
15 *327:62 0.00028506
16 *327:60 0.00051169
17 *327:45 0.000399369
18 *327:31 0.000163631
19 *327:29 0.000500182
20 *327:25 0.00239001
21 *327:23 0.00197032
22 *327:21 0.0173292
23 *327:19 0.0184274
24 *327:15 0.00115456
25 *327:9 0.00190637
26 *327:7 0.00184994
27 *327:5 0.000623846
28 *1160:DIODE *11542:DI[4] 0.000189006
29 *327:5 *11542:DI[4] 3.31409e-05
30 *327:9 *11542:BEN[6] 0.0001577
31 *327:9 *11542:BEN[7] 0.000245518
32 *327:9 *328:21 8.58806e-05
33 *327:9 *329:21 0.00102944
34 *327:9 *329:23 0.00196439
35 *327:9 *330:21 1.79536e-05
36 *327:9 *331:49 0.00299213
37 *327:19 *329:23 0.000280243
38 *327:19 *331:53 0.00358081
39 *327:19 *374:85 0.000126048
40 *327:21 *328:25 0.00452066
41 *327:25 *331:67 0.00661724
42 *1043:DIODE *327:60 0.000252719
43 *1043:DIODE *327:62 8.23457e-05
44 *1148:DIODE *327:60 2.65814e-06
45 *1149:DIODE *327:29 2.68526e-05
46 *1149:DIODE *327:31 5.83121e-06
47 *1149:DIODE *327:60 9.14354e-05
48 *11229:S *327:62 4.78678e-05
49 *120:10 *1163:DIODE 7.89689e-05
50 *120:10 *327:60 6.34101e-06
51 *130:8 *327:60 3.1835e-05
52 *200:66 *1163:DIODE 5.72004e-05
53 *200:66 *327:60 1.67556e-05
54 *223:24 *327:25 0.00100952
55 *225:26 *327:25 0.000596687
56 *295:32 *327:62 8.41307e-05
57 *298:30 *1165:DIODE 0.000153816
58 *298:30 *327:31 0.000119246
59 *298:30 *327:60 0.000113517
60 *302:48 *327:9 1.7635e-05
61 *303:31 *327:9 1.79483e-05
62 *304:47 *327:19 0.00212429
63 *309:29 *327:25 0.00469694
64 *311:11 *327:9 0
65 *318:13 *327:9 0.0009452
66 *319:43 *327:9 0.000445611
*RES
1 *11542:DO[4] *327:5 1.0875 
2 *327:5 *327:7 2 
3 *327:7 *327:9 68.37 
4 *327:9 *327:15 4.87 
5 *327:15 *327:19 48.515 
6 *327:19 *327:21 233.67 
7 *327:21 *327:23 2 
8 *327:23 *327:25 84 
9 *327:25 *327:29 8.315 
10 *327:29 *327:31 1.485 
11 *327:31 *1165:DIODE 3.085 
12 *327:31 *1168:DIODE 1.6 
13 *327:29 *327:45 2 
14 *327:45 *1163:DIODE 5.235 
15 *327:45 *327:60 8.225 
16 *327:60 *327:62 2.865 
17 *327:62 *327:64 1.485 
18 *327:64 *327:66 1.485 
19 *327:66 *327:68 1.485 
20 *327:68 *1167:DIODE 3.085 
21 *327:68 *1164:DIODE 1.6 
22 *327:66 *1162:DIODE 1.6 
23 *327:64 *1161:DIODE 1.6 
24 *327:62 *1159:DIODE 1.6 
25 *327:60 *11229:A0 1.6 
26 *327:5 *1160:DIODE 10.51 
*END

*D_NET *328 0.0896652
*CONN
*I *1170:DIODE I *D sky130_fd_sc_hd__diode_2
*I *1169:DIODE I *D sky130_fd_sc_hd__diode_2
*I *11232:A0 I *D sky130_fd_sc_hd__mux2_2
*I *11542:DO[5] O *D CF_SRAM_1024x32
*CAP
1 *1170:DIODE 0.000565638
2 *1169:DIODE 0
3 *11232:A0 0.000244959
4 *11542:DO[5] 5.11478e-05
5 *328:29 0.000244959
6 *328:27 0.00218578
7 *328:25 0.0257084
8 *328:21 0.0266538
9 *328:7 0.00374788
10 *1170:DIODE *11542:DI[5] 0.000213821
11 *328:7 *11542:DI[5] 2.20732e-05
12 *149:24 *328:27 0.000403673
13 *203:38 *328:27 0.000234352
14 *223:22 *11232:A0 3.84788e-05
15 *269:28 *328:27 0.000563078
16 *278:18 *328:27 0.0042537
17 *291:22 *328:27 0
18 *294:32 *11232:A0 4.28819e-05
19 *295:28 *328:27 0.000245208
20 *301:19 *328:21 0.0100435
21 *303:31 *328:21 0.00440051
22 *312:29 *328:27 0.00375058
23 *318:13 *328:21 8.58806e-05
24 *319:43 *328:21 0.000730004
25 *322:26 *328:21 0.000628319
26 *325:26 *328:21 0
27 *327:9 *328:21 8.58806e-05
28 *327:21 *328:25 0.00452066
*RES
1 *11542:DO[5] *328:7 0.9375 
2 *328:7 *328:21 23.6533 
3 *328:21 *328:25 41.0625 
4 *328:25 *328:27 71.1225 
5 *328:27 *328:29 2 
6 *328:29 *11232:A0 4.48 
7 *328:29 *1169:DIODE 1.6 
8 *328:7 *1170:DIODE 10.675 
*END

*D_NET *329 0.0909425
*CONN
*I *1172:DIODE I *D sky130_fd_sc_hd__diode_2
*I *1178:DIODE I *D sky130_fd_sc_hd__diode_2
*I *1175:DIODE I *D sky130_fd_sc_hd__diode_2
*I *1173:DIODE I *D sky130_fd_sc_hd__diode_2
*I *1171:DIODE I *D sky130_fd_sc_hd__diode_2
*I *11235:A0 I *D sky130_fd_sc_hd__mux2_2
*I *1176:DIODE I *D sky130_fd_sc_hd__diode_2
*I *1179:DIODE I *D sky130_fd_sc_hd__diode_2
*I *1174:DIODE I *D sky130_fd_sc_hd__diode_2
*I *11542:DO[6] O *D CF_SRAM_1024x32
*CAP
1 *1172:DIODE 0.000654804
2 *1178:DIODE 0
3 *1175:DIODE 0
4 *1173:DIODE 0
5 *1171:DIODE 0
6 *11235:A0 0.000106171
7 *1176:DIODE 7.10964e-05
8 *1179:DIODE 7.91174e-05
9 *1174:DIODE 4.55179e-05
10 *11542:DO[6] 0.000162944
11 *329:51 0.000175412
12 *329:47 0.000527427
13 *329:43 0.000576408
14 *329:41 0.000307951
15 *329:39 0.000359878
16 *329:37 0.000236982
17 *329:35 0.000770759
18 *329:33 0.00180621
19 *329:27 0.00950432
20 *329:25 0.00834849
21 *329:23 0.00531624
22 *329:21 0.00589585
23 *329:7 0.00139736
24 *1172:DIODE *11542:DI[6] 0
25 *1176:DIODE *476:64 6.59891e-05
26 *1176:DIODE *631:68 5.8499e-05
27 *329:7 *11542:DI[6] 0
28 *329:21 *11542:BEN[7] 5.83121e-06
29 *329:23 *331:49 7.91584e-06
30 *329:23 *331:53 0.00361312
31 *329:33 *331:67 0.00396104
32 *329:51 *476:64 0.000181229
33 *329:51 *631:68 0.000182579
34 *1048:DIODE *329:47 0.000118081
35 *11235:S *11235:A0 4.66108e-05
36 *113:14 *329:27 4.21973e-05
37 *190:80 *329:27 0.000297847
38 *192:14 *329:27 0.0035033
39 *196:22 *329:27 0.00499683
40 *203:44 *11235:A0 0.000225285
41 *203:44 *329:43 9.47972e-06
42 *224:13 *1176:DIODE 4.66108e-05
43 *224:34 *329:35 0.000397621
44 *224:34 *329:37 0.00014294
45 *224:34 *329:39 0.000144455
46 *224:34 *329:41 0.000329173
47 *224:34 *329:43 4.66108e-05
48 *297:36 *11235:A0 8.33341e-05
49 *297:36 *329:47 0.00018955
50 *301:23 *329:27 0.00318021
51 *302:48 *329:23 1.79483e-05
52 *303:31 *329:23 1.79483e-05
53 *304:47 *329:23 0
54 *304:51 *329:27 0.0255531
55 *304:59 *329:33 0.00134243
56 *323:35 *329:35 2.13538e-05
57 *326:21 *329:23 0.00249631
58 *327:9 *329:21 0.00102944
59 *327:9 *329:23 0.00196439
60 *327:19 *329:23 0.000280243
*RES
1 *11542:DO[6] *329:7 2.5425 
2 *329:7 *329:21 19.3125 
3 *329:21 *329:23 107.332 
4 *329:23 *329:25 2 
5 *329:25 *329:27 232.29 
6 *329:27 *329:33 48.475 
7 *329:33 *329:35 9.075 
8 *329:35 *329:37 1.485 
9 *329:37 *329:39 1.485 
10 *329:39 *329:41 3.21 
11 *329:41 *329:43 0.795 
12 *329:43 *329:47 6.935 
13 *329:47 *329:51 4.145 
14 *329:51 *1174:DIODE 2.05 
15 *329:51 *1179:DIODE 2.395 
16 *329:47 *1176:DIODE 4.92 
17 *329:43 *11235:A0 4.735 
18 *329:41 *1171:DIODE 1.6 
19 *329:39 *1173:DIODE 1.6 
20 *329:37 *1175:DIODE 1.6 
21 *329:35 *1178:DIODE 1.6 
22 *329:7 *1172:DIODE 10.6 
*END

*D_NET *330 0.0862598
*CONN
*I *1181:DIODE I *D sky130_fd_sc_hd__diode_2
*I *1180:DIODE I *D sky130_fd_sc_hd__diode_2
*I *11238:A0 I *D sky130_fd_sc_hd__mux2_2
*I *11542:DO[7] O *D CF_SRAM_1024x32
*CAP
1 *1181:DIODE 0.00065133
2 *1180:DIODE 0
3 *11238:A0 0.000385373
4 *11542:DO[7] 6.47921e-05
5 *330:39 0.000419053
6 *330:35 0.0160047
7 *330:21 0.0223654
8 *330:7 0.00711059
9 *1181:DIODE *11542:DI[7] 0
10 *330:7 *11542:BEN[6] 0
11 *330:7 *11542:DI[7] 0
12 *330:21 *11542:BEN[6] 1.79536e-05
13 *330:21 *631:86 0.00226144
14 *330:35 *411:42 7.66738e-05
15 *11238:A1 *11238:A0 0.000162571
16 *3:35 *330:35 0.00444992
17 *113:59 *330:35 0.000221176
18 *126:10 *330:35 5.66369e-05
19 *132:10 *330:35 0.000185727
20 *138:10 *330:35 5.66369e-05
21 *142:10 *330:35 0.000218928
22 *153:24 *330:35 0.00362994
23 *167:43 *330:35 0.000107586
24 *167:74 *330:35 0.000398204
25 *171:36 *330:35 0.000158587
26 *171:67 *330:35 0.00139264
27 *176:83 *330:35 0.003934
28 *178:43 *330:35 0.000857158
29 *180:60 *330:35 0.00213794
30 *203:24 *330:35 0.000109379
31 *277:26 *330:35 0.000123845
32 *280:20 *330:35 0.000245189
33 *292:25 *330:35 0.00093945
34 *292:37 *330:35 0.000394658
35 *292:39 *330:35 0.00060355
36 *294:20 *330:35 0.000595737
37 *298:30 *11238:A0 0.000153816
38 *298:30 *330:39 3.68999e-05
39 *312:23 *330:35 0.00418092
40 *313:47 *330:35 0.00103282
41 *314:21 *330:21 0.000115465
42 *314:29 *330:35 0
43 *315:29 *330:21 0.00933698
44 *318:31 *330:21 0
45 *324:30 *330:35 0.000544287
46 *325:36 *330:35 0.000503876
47 *327:9 *330:21 1.79536e-05
*RES
1 *11542:DO[7] *330:7 0.9675 
2 *330:7 *330:21 28.1019 
3 *330:21 *330:35 49.3866 
4 *330:35 *330:39 2.45 
5 *330:39 *11238:A0 6.205 
6 *330:39 *1180:DIODE 1.6 
7 *330:7 *1181:DIODE 10.675 
*END

*D_NET *331 0.0854672
*CONN
*I *1183:DIODE I *D sky130_fd_sc_hd__diode_2
*I *1184:DIODE I *D sky130_fd_sc_hd__diode_2
*I *1182:DIODE I *D sky130_fd_sc_hd__diode_2
*I *11241:A0 I *D sky130_fd_sc_hd__mux2_2
*I *1185:DIODE I *D sky130_fd_sc_hd__diode_2
*I *1189:DIODE I *D sky130_fd_sc_hd__diode_2
*I *1187:DIODE I *D sky130_fd_sc_hd__diode_2
*I *1186:DIODE I *D sky130_fd_sc_hd__diode_2
*I *1190:DIODE I *D sky130_fd_sc_hd__diode_2
*I *11542:DO[8] O *D CF_SRAM_1024x32
*CAP
1 *1183:DIODE 0
2 *1184:DIODE 9.49911e-05
3 *1182:DIODE 4.78064e-05
4 *11241:A0 7.53847e-05
5 *1185:DIODE 0
6 *1189:DIODE 0.000186232
7 *1187:DIODE 0.000145535
8 *1186:DIODE 0
9 *1190:DIODE 0.000345969
10 *11542:DO[8] 0.000122582
11 *331:95 0.000169556
12 *331:82 0.000454954
13 *331:80 0.000493197
14 *331:71 0.000971856
15 *331:67 0.00294993
16 *331:65 0.00211846
17 *331:63 0.000933623
18 *331:59 0.00306618
19 *331:57 0.00215354
20 *331:55 0.00344643
21 *331:53 0.00411837
22 *331:49 0.00213373
23 *331:24 0.000361323
24 *331:13 0.000612048
25 *331:11 0.000569466
26 *331:7 0.00189633
27 *1184:DIODE *476:64 0.00018375
28 *1184:DIODE *631:68 0.000175219
29 *1189:DIODE *11542:DI[8] 7.19567e-05
30 *331:7 *11542:DI[8] 4.25379e-05
31 *331:11 *11542:DI[8] 0.000258073
32 *331:95 *476:64 7.06865e-05
33 *331:95 *631:68 7.06865e-05
34 *1059:DIODE *331:71 0.000154981
35 *11241:A1 *11241:A0 1.33269e-05
36 *11241:A1 *331:82 2.45737e-05
37 *138:8 *331:80 0.000107205
38 *138:8 *331:82 0.000335065
39 *204:14 *331:59 0.00718274
40 *204:14 *331:63 0.00308452
41 *279:21 *331:67 0.00175609
42 *292:19 *331:67 2.67556e-05
43 *293:29 *331:59 0.0031469
44 *293:29 *331:63 0.00524316
45 *293:35 *331:59 0.00260584
46 *293:37 *331:55 0.00279221
47 *293:37 *331:59 0.00232343
48 *299:22 *331:71 0.00106402
49 *299:22 *331:80 1.33285e-05
50 *304:47 *331:49 0.000231041
51 *304:47 *331:53 8.76645e-06
52 *304:59 *331:67 1.01661e-05
53 *307:15 *331:55 0.00340786
54 *307:15 *331:59 0.00277902
55 *311:11 *331:49 0
56 *326:35 *331:71 4.35713e-05
57 *327:9 *331:49 0.00299213
58 *327:19 *331:53 0.00358081
59 *327:25 *331:67 0.00661724
60 *329:23 *331:49 7.91584e-06
61 *329:23 *331:53 0.00361312
62 *329:33 *331:67 0.00396104
*RES
1 *11542:DO[8] *331:7 2.1675 
2 *331:7 *331:11 6.675 
3 *331:11 *331:13 0.87 
4 *331:13 *1190:DIODE 5.92 
5 *331:13 *331:24 2.175 
6 *331:24 *1186:DIODE 1.6 
7 *331:24 *1187:DIODE 3.085 
8 *331:11 *1189:DIODE 3.775 
9 *331:7 *331:49 38.2175 
10 *331:49 *331:53 42.7775 
11 *331:53 *331:55 76.5225 
12 *331:55 *331:57 0.36 
13 *331:57 *331:59 108.78 
14 *331:59 *331:63 48.2475 
15 *331:63 *331:65 2 
16 *331:65 *331:67 83.745 
17 *331:67 *331:71 16.595 
18 *331:71 *1185:DIODE 1.6 
19 *331:71 *331:80 1.845 
20 *331:80 *331:82 4.245 
21 *331:82 *11241:A0 2.665 
22 *331:82 *331:95 2.87 
23 *331:95 *1182:DIODE 4.05 
24 *331:95 *1184:DIODE 6.195 
25 *331:80 *1183:DIODE 1.6 
*END

*D_NET *332 0.0580992
*CONN
*I *1192:DIODE I *D sky130_fd_sc_hd__diode_2
*I *1197:DIODE I *D sky130_fd_sc_hd__diode_2
*I *1195:DIODE I *D sky130_fd_sc_hd__diode_2
*I *1193:DIODE I *D sky130_fd_sc_hd__diode_2
*I *1191:DIODE I *D sky130_fd_sc_hd__diode_2
*I *1196:DIODE I *D sky130_fd_sc_hd__diode_2
*I *1194:DIODE I *D sky130_fd_sc_hd__diode_2
*I *1198:DIODE I *D sky130_fd_sc_hd__diode_2
*I *11246:A0 I *D sky130_fd_sc_hd__mux2_2
*I *11542:DO[9] O *D CF_SRAM_1024x32
*CAP
1 *1192:DIODE 0.000505221
2 *1197:DIODE 0
3 *1195:DIODE 0
4 *1193:DIODE 0
5 *1191:DIODE 0
6 *1196:DIODE 0
7 *1194:DIODE 0.000138475
8 *1198:DIODE 0.00046412
9 *11246:A0 2.61242e-05
10 *11542:DO[9] 0.000248509
11 *332:65 0.000312538
12 *332:50 0.00073691
13 *332:39 0.000257989
14 *332:37 0.000298777
15 *332:35 0.000241732
16 *332:33 0.00016071
17 *332:31 0.000323841
18 *332:19 0.00164201
19 *332:17 0.00140279
20 *332:15 0.0143235
21 *332:13 0.0143235
22 *332:11 0.00182385
23 *332:9 0.00182385
24 *332:7 0.00075373
25 *1192:DIODE *11542:BEN[8] 0
26 *1192:DIODE *11542:DI[9] 0
27 *1192:DIODE *416:76 4.05674e-06
28 *1194:DIODE *11515:DI[28] 1.56428e-05
29 *332:7 *11542:BEN[8] 0
30 *332:7 *11542:DI[9] 0
31 *332:11 *361:10 0.00168751
32 *332:11 *565:10 0
33 *998:DIODE *332:19 2.42236e-05
34 *1095:DIODE *332:31 0.000120323
35 *11273:S *332:31 0.00014398
36 *3:25 *332:19 0.000102817
37 *142:8 *332:39 0.000118081
38 *225:11 *1194:DIODE 2.72318e-05
39 *225:11 *332:65 2.62017e-05
40 *225:24 *332:65 2.01259e-05
41 *276:20 *332:19 2.05661e-05
42 *297:36 *1198:DIODE 0.000182766
43 *297:36 *332:50 0.000135234
44 *298:22 *332:19 0.00580692
45 *300:22 *332:31 0.00015829
46 *300:26 *11246:A0 4.66108e-05
47 *300:26 *332:31 0.000178675
48 *300:26 *332:33 0.00014294
49 *300:26 *332:35 0.000146129
50 *300:26 *332:37 0.00032812
51 *300:26 *332:39 0.000285879
52 *301:31 *332:31 5.83121e-06
53 *308:50 *332:19 0.000162318
54 *311:11 *332:11 0.00283402
55 *323:19 *332:19 0.0055665
*RES
1 *11542:DO[9] *332:7 3.7125 
2 *332:7 *332:9 2 
3 *332:9 *332:11 59.01 
4 *332:11 *332:13 2 
5 *332:13 *332:15 243.33 
6 *332:15 *332:17 2 
7 *332:17 *332:19 67.17 
8 *332:19 *332:31 11.205 
9 *332:31 *332:33 1.485 
10 *332:33 *332:35 1.485 
11 *332:35 *332:37 3.21 
12 *332:37 *332:39 2.865 
13 *332:39 *11246:A0 2.05 
14 *332:39 *332:50 3.635 
15 *332:50 *1198:DIODE 8.955 
16 *332:50 *332:65 3.83 
17 *332:65 *1194:DIODE 3.085 
18 *332:65 *1196:DIODE 1.6 
19 *332:37 *1191:DIODE 1.6 
20 *332:35 *1193:DIODE 1.6 
21 *332:33 *1195:DIODE 1.6 
22 *332:31 *1197:DIODE 1.6 
23 *332:7 *1192:DIODE 7.915 
*END

*D_NET *337 0.00427496
*CONN
*I *11323:A I *D sky130_fd_sc_hd__inv_2
*I *11551:X O *D sky130_fd_sc_hd__buf_1
*CAP
1 *11323:A 0.00212627
2 *11551:X 0.00212627
3 wbs_ack_o *11323:A 0
4 *11551:A *11323:A 2.24336e-05
*RES
1 *11551:X *11323:A 39.135 
*END

*D_NET *338 0.0270636
*CONN
*I *11334:A I *D sky130_fd_sc_hd__buf_12
*I *11552:X O *D sky130_fd_sc_hd__buf_12
*CAP
1 *11334:A 0.00157379
2 *11552:X 0.000217079
3 *338:30 0.00476449
4 *338:26 0.00363991
5 *338:22 0.00157416
6 *338:10 0.00134203
7 *11334:A *11336:A 0.000163204
8 *11334:A *11417:A 0.0002014
9 *11334:A *11471:A 0.00218214
10 *11334:A *371:42 0.000115437
11 *11334:A *371:46 0.000492905
12 *11334:A *581:12 0.000240805
13 *338:10 *626:24 0.000289004
14 *338:22 *575:30 0.00063431
15 *338:22 *575:42 0.00198707
16 *338:22 *600:18 0.0016187
17 *338:26 *11328:A 0.000131791
18 *338:26 *567:18 0.000215447
19 *338:30 *11471:A 7.68414e-06
20 *338:30 *371:26 2.19562e-06
21 *338:30 *584:56 7.69887e-05
22 *338:30 *589:14 9.183e-05
23 *338:30 *608:12 4.82919e-05
24 *11211:A *338:22 9.70218e-06
25 *11211:A *338:26 0.000384543
26 *11214:A *338:22 0.00011964
27 *11284:B1 *338:30 0.00154674
28 *11292:A1 *338:30 0.00038879
29 *11324:D *338:22 0.000120655
30 *11397:A *338:26 0.000341885
31 *11397:A *338:30 4.16262e-05
32 *11484:A *338:26 4.66108e-05
33 *110:14 *338:10 3.23391e-05
34 *115:30 *11334:A 0.000988509
35 *117:12 *338:22 0.000187381
36 *117:12 *338:26 3.63206e-05
37 *117:69 *338:26 8.34281e-06
38 *117:69 *338:30 0.000179509
39 *165:22 *338:30 0.000414887
40 *167:166 *11334:A 5.81987e-05
41 *170:18 *338:30 2.8585e-06
42 *172:28 *338:30 0.000127447
43 *201:20 *338:22 0.000416904
44 *202:18 *11334:A 0
*RES
1 *11552:X *338:10 9.785 
2 *338:10 *338:22 45.73 
3 *338:22 *338:26 10.725 
4 *338:26 *338:30 42.72 
5 *338:30 *11334:A 44.825 
*END

*D_NET *339 0.00227551
*CONN
*I *11524:WLBI I *D CF_SRAM_1024x32
*I *11525:LO O *D sky130_fd_sc_hd__conb_1
*CAP
1 *11524:WLBI 0.000346177
2 *11525:LO 0.000346177
3 *11524:WLBI *11524:TM 0.000666947
4 *245:10 *11524:WLBI 8.40213e-05
5 *245:96 *11524:WLBI 0.000767849
6 *245:120 *11524:WLBI 6.43369e-05
*RES
1 *11525:LO *11524:WLBI 11.9237 
*END

*D_NET *340 0.00120707
*CONN
*I *11533:SM I *D CF_SRAM_1024x32
*I *11534:LO O *D sky130_fd_sc_hd__conb_1
*CAP
1 *11533:SM 0.00060169
2 *11534:LO 0.00060169
3 *11533:SM *11533:ScanInDR 3.69379e-06
*RES
1 *11534:LO *11533:SM 11.3313 
*END

*D_NET *341 0.00183467
*CONN
*I *11533:ScanInCC I *D CF_SRAM_1024x32
*I *11535:LO O *D sky130_fd_sc_hd__conb_1
*CAP
1 *11533:ScanInCC 0.00051815
2 *11535:LO 0.00051815
3 *11533:ScanInCC *11533:AD[3] 0.00079837
4 *11533:ScanInCC *11533:AD[9] 0
5 *269:9 *11533:ScanInCC 0
*RES
1 *11535:LO *11533:ScanInCC 11.7025 
*END

*D_NET *342 0.00192156
*CONN
*I *11533:ScanInDL I *D CF_SRAM_1024x32
*I *11536:LO O *D sky130_fd_sc_hd__conb_1
*CAP
1 *11533:ScanInDL 0.000489235
2 *11536:LO 0.000489235
3 *11533:ScanInDL *11533:DI[0] 0.000943094
*RES
1 *11536:LO *11533:ScanInDL 12.2125 
*END

*D_NET *343 0.00186419
*CONN
*I *11533:ScanInDR I *D CF_SRAM_1024x32
*I *11537:LO O *D sky130_fd_sc_hd__conb_1
*CAP
1 *11533:ScanInDR 0.000430587
2 *11537:LO 0.000430587
3 *11533:SM *11533:ScanInDR 3.69379e-06
4 *276:9 *11533:ScanInDR 0.000999326
*RES
1 *11537:LO *11533:ScanInDR 12.415 
*END

*D_NET *344 0.00197442
*CONN
*I *11533:TM I *D CF_SRAM_1024x32
*I *11538:LO O *D sky130_fd_sc_hd__conb_1
*CAP
1 *11533:TM 0.000420515
2 *11538:LO 0.000420515
3 *11533:TM *11533:BEN[16] 0
4 *11533:TM *11533:WLBI 0.000366685
5 *11533:TM *11533:DI[17] 0.000580501
6 *277:15 *11533:TM 0.000186204
*RES
1 *11538:LO *11533:TM 16.6925 
*END

*D_NET *345 0.00204793
*CONN
*I *11533:WLBI I *D CF_SRAM_1024x32
*I *11539:LO O *D sky130_fd_sc_hd__conb_1
*CAP
1 *11533:WLBI 0.000626242
2 *11539:LO 0.000626242
3 *11533:TM *11533:WLBI 0.000366685
4 *277:15 *11533:WLBI 0.000428764
*RES
1 *11539:LO *11533:WLBI 13.9937 
*END

*D_NET *346 0.00132105
*CONN
*I *11542:SM I *D CF_SRAM_1024x32
*I *11543:LO O *D sky130_fd_sc_hd__conb_1
*CAP
1 *11542:SM 0.000659073
2 *11543:LO 0.000659073
3 *11542:SM *11542:ScanInDR 2.90661e-06
*RES
1 *11543:LO *11542:SM 11.3313 
*END

*D_NET *347 0.00151901
*CONN
*I *11542:ScanInCC I *D CF_SRAM_1024x32
*I *11544:LO O *D sky130_fd_sc_hd__conb_1
*CAP
1 *11542:ScanInCC 0.000577408
2 *11544:LO 0.000577408
3 *11542:ScanInCC *11542:AD[3] 0.00036419
4 *1058:DIODE *11542:ScanInCC 0
5 *301:5 *11542:ScanInCC 0
*RES
1 *11544:LO *11542:ScanInCC 11.7025 
*END

*D_NET *348 0.00188797
*CONN
*I *11542:ScanInDL I *D CF_SRAM_1024x32
*I *11545:LO O *D sky130_fd_sc_hd__conb_1
*CAP
1 *11542:ScanInDL 0.000551116
2 *11545:LO 0.000551116
3 *11542:ScanInDL *11542:DI[0] 0.000785737
4 *1058:DIODE *11542:ScanInDL 0
*RES
1 *11545:LO *11542:ScanInDL 12.2125 
*END

*D_NET *349 0.0295471
*CONN
*I *11332:A I *D sky130_fd_sc_hd__buf_12
*I *11553:X O *D sky130_fd_sc_hd__buf_12
*CAP
1 *11332:A 0.000431026
2 *11553:X 0.000200504
3 *349:12 0.00893278
4 *349:10 0.00870226
5 *11332:A *11507:A 0.000310635
6 *11332:A *559:12 9.62058e-05
7 *11332:A *583:26 0.000266545
8 *349:10 *11385:A 2.7881e-05
9 *349:12 *11474:A 9.29698e-05
10 *349:12 *11476:A 7.48407e-05
11 *349:12 *448:16 0.000497165
12 *349:12 *599:12 0.00719091
13 *11307:A1 *11332:A 7.96104e-06
14 *117:104 *349:12 0.000424048
15 *122:93 *349:12 0.00205275
16 *223:32 *11332:A 0.000238605
*RES
1 *11553:X *349:10 8.51 
2 *349:10 *349:12 115.68 
3 *349:12 *11332:A 15.62 
*END

*D_NET *350 0.00197125
*CONN
*I *11542:ScanInDR I *D CF_SRAM_1024x32
*I *11546:LO O *D sky130_fd_sc_hd__conb_1
*CAP
1 *11542:ScanInDR 0.000496349
2 *11546:LO 0.000496349
3 *1092:DIODE *11542:ScanInDR 0.000888878
4 *11542:SM *11542:ScanInDR 2.90661e-06
5 *308:7 *11542:ScanInDR 8.67659e-05
*RES
1 *11546:LO *11542:ScanInDR 12.415 
*END

*D_NET *351 0.00212546
*CONN
*I *11542:TM I *D CF_SRAM_1024x32
*I *11547:LO O *D sky130_fd_sc_hd__conb_1
*CAP
1 *11542:TM 0.000344279
2 *11547:LO 0.000344279
3 *11542:TM *11542:BEN[16] 2.58341e-05
4 *11542:TM *11542:WLBI 0.000516114
5 *11542:TM *11542:DI[17] 3.83194e-05
6 *11542:TM *422:78 0.000402515
7 *309:7 *11542:TM 1.08758e-05
8 *309:116 *11542:TM 0.000107205
9 *316:21 *11542:TM 0.000168526
10 *318:13 *11542:TM 0.000167514
*RES
1 *11547:LO *11542:TM 16.6925 
*END

*D_NET *352 0.00200584
*CONN
*I *11542:WLBI I *D CF_SRAM_1024x32
*I *11548:LO O *D sky130_fd_sc_hd__conb_1
*CAP
1 *11542:WLBI 0.000590581
2 *11548:LO 0.000590581
3 *11542:WLBI *11542:BEN[16] 0
4 *11542:WLBI *422:78 3.0807e-05
5 *11542:TM *11542:WLBI 0.000516114
6 *309:7 *11542:WLBI 2.37237e-05
7 *309:116 *11542:WLBI 0.00025403
*RES
1 *11548:LO *11542:WLBI 13.6488 
*END

*D_NET *353 0.0346048
*CONN
*I *11515:vpwrac I *D CF_SRAM_1024x32
*I *11516:HI O *D sky130_fd_sc_hd__conb_1
*CAP
1 *11515:vpwrac 0.00385896
2 *11516:HI 0.000224682
3 *353:10 0.00670266
4 *353:8 0.00306838
5 *11515:vpwrac *11515:vpwrpc 0
6 *353:8 *354:8 0.00037001
7 *353:8 *394:58 0.000142801
8 *353:10 *11515:DI[8] 9.78088e-05
9 *353:10 *376:46 0.000674238
10 *353:10 *376:48 0.00130986
11 *353:10 *385:81 0.00112722
12 *353:10 *387:58 0.000792094
13 *353:10 *389:36 0.000207749
14 *353:10 *478:46 0.00101941
15 *353:10 *558:47 0.000411361
16 *353:10 *558:57 0.000607307
17 *353:10 *558:69 0.00076732
18 *353:10 *558:81 0.00083348
19 *353:10 *558:93 0.000695343
20 *353:10 *558:107 0.00064936
21 *353:10 *590:14 0.00758912
22 *353:10 *631:24 0.000596828
23 *353:10 *631:36 0.000853534
24 *353:10 *631:50 0.000696609
25 *205:29 *11515:vpwrac 0.000210199
26 *233:17 *353:10 0.00109851
*RES
1 *11516:HI *353:8 8.19 
2 *353:8 *353:10 129.773 
3 *353:10 *11515:vpwrac 10.4682 
*END

*D_NET *354 0.0343905
*CONN
*I *11515:vpwrpc I *D CF_SRAM_1024x32
*I *11517:HI O *D sky130_fd_sc_hd__conb_1
*CAP
1 *11515:vpwrpc 0.00178444
2 *11517:HI 0.000276944
3 *354:10 0.004172
4 *354:8 0.00266451
5 *354:8 *11515:AD[2] 9.46859e-06
6 *354:10 *376:48 0.00417845
7 *354:10 *590:14 0.000245054
8 *11515:vpwrac *11515:vpwrpc 0
9 *144:10 *354:10 2.05661e-05
10 *147:18 *354:10 0.00755907
11 *154:10 *354:10 0.00775391
12 *155:16 *354:10 0.000171313
13 *157:16 *354:10 0.00410182
14 *205:29 *11515:vpwrpc 0.000722029
15 *209:21 *354:10 0.000360915
16 *353:8 *354:8 0.00037001
*RES
1 *11517:HI *354:8 8.19 
2 *354:8 *354:10 139.717 
3 *354:10 *11515:vpwrpc 7.21537 
*END

*D_NET *355 0.0302614
*CONN
*I *11524:vpwrac I *D CF_SRAM_1024x32
*I *11526:HI O *D sky130_fd_sc_hd__conb_1
*CAP
1 *11524:vpwrac 0.00416832
2 *11526:HI 0.000266647
3 *355:22 0.00496272
4 *355:12 0.00197745
5 *355:8 0.00144969
6 *11524:vpwrac *11524:vpwrpc 0.000697155
7 *11524:vpwrac *356:20 5.83121e-06
8 *11524:vpwrac *363:26 0.00169527
9 *11524:vpwrac *537:16 0.00175401
10 *11524:vpwrac *571:16 0.000302804
11 *355:8 *356:8 0.000342989
12 *355:8 *422:32 9.96764e-05
13 *355:12 *422:36 5.18694e-05
14 *355:12 *570:26 9.28098e-05
15 *355:22 *11450:A 0.00185894
16 *355:22 *570:26 0.000547757
17 *355:22 *571:34 1.08758e-05
18 *11309:A0 *355:22 0.000691698
19 *11318:A0 *11524:vpwrac 0.000116216
20 *11321:A0 *355:22 0.00101408
21 *184:56 *355:22 0.00010787
22 *184:62 *355:22 2.97746e-05
23 *186:12 *355:22 8.75156e-06
24 *187:38 *11524:vpwrac 0.000304222
25 *188:16 *355:12 0.00195208
26 *188:16 *355:22 0.000726711
27 *194:18 *355:12 0.00193648
28 *195:10 *11524:vpwrac 0.00175401
29 *195:10 *355:22 0.000316384
30 *238:11 *11524:vpwrac 6.33103e-05
31 *239:65 *11524:vpwrac 0.000351458
32 *251:29 *11524:vpwrac 0.000603528
*RES
1 *11526:HI *355:8 8.88 
2 *355:8 *355:12 42.3375 
3 *355:12 *355:22 38.9575 
4 *355:22 *11524:vpwrac 42.9177 
*END

*D_NET *356 0.0344236
*CONN
*I *11524:vpwrpc I *D CF_SRAM_1024x32
*I *11527:HI O *D sky130_fd_sc_hd__conb_1
*CAP
1 *11524:vpwrpc 0.00135059
2 *11527:HI 0.000199982
3 *356:20 0.00213532
4 *356:10 0.0027331
5 *356:8 0.00214835
6 *11524:vpwrpc *11524:DI[15] 0.00090694
7 *11524:vpwrpc *558:367 0.000905554
8 *356:8 *422:32 0.000232214
9 *356:10 *560:16 0.00417802
10 *356:10 *573:16 0.00598568
11 *356:10 *574:16 0.000212328
12 *356:20 *363:38 0
13 *356:20 *537:16 0.0038954
14 *11318:A0 *356:10 0.00125842
15 *11524:vpwrac *11524:vpwrpc 0.000697155
16 *11524:vpwrac *356:20 5.83121e-06
17 *186:12 *356:10 0.0024399
18 *195:10 *356:20 0.00389707
19 *238:11 *356:20 2.62017e-05
20 *256:19 *356:10 0.000872554
21 *355:8 *356:8 0.000342989
*RES
1 *11527:HI *356:8 7.845 
2 *356:8 *356:10 95.985 
3 *356:10 *356:20 49.4775 
4 *356:20 *11524:vpwrpc 7.1605 
*END

*D_NET *357 0.0280068
*CONN
*I *11533:vpwrac I *D CF_SRAM_1024x32
*I *11540:HI O *D sky130_fd_sc_hd__conb_1
*CAP
1 *11533:vpwrac 0.00194206
2 *11540:HI 0.000233094
3 *357:10 0.00588588
4 *357:8 0.00417692
5 *11533:vpwrac *11533:vpwrpc 0.0017325
6 *357:8 *11533:AD[1] 8.62445e-06
7 *357:8 *11533:AD[2] 0.000126309
8 *357:8 *358:8 0.000574961
9 *357:10 *11533:BEN[0] 0
10 *357:10 *11533:DI[12] 0.00168688
11 *357:10 *11533:DI[13] 0.000965999
12 *357:10 *358:10 0.00581515
13 *357:10 *376:48 0.00184406
14 *357:10 *385:81 0
15 *357:10 *391:88 0.00205749
16 *357:10 *394:68 0
17 *357:10 *463:36 0
18 *357:10 *467:24 0
19 *357:10 *472:24 0
20 *271:16 *357:10 0.000935239
21 *271:24 *11533:vpwrac 2.16846e-05
*RES
1 *11540:HI *357:8 9.915 
2 *357:8 *357:10 133.598 
3 *357:10 *11533:vpwrac 8.4567 
*END

*D_NET *358 0.0267766
*CONN
*I *11533:vpwrpc I *D CF_SRAM_1024x32
*I *11541:HI O *D sky130_fd_sc_hd__conb_1
*CAP
1 *11533:vpwrpc 0.00141372
2 *11541:HI 0.000278344
3 *358:10 0.00572182
4 *358:8 0.00458645
5 *358:8 *11533:AD[2] 2.20732e-05
6 *358:10 *11533:DI[12] 0.0018677
7 *358:10 *11533:DI[11] 0.00147547
8 *358:10 *369:41 0.00123276
9 *358:10 *380:42 0
10 *358:10 *391:88 0.0020462
11 *11533:vpwrac *11533:vpwrpc 0.0017325
12 *271:24 *11533:vpwrpc 9.45844e-06
13 *357:8 *358:8 0.000574961
14 *357:10 *358:10 0.00581515
*RES
1 *11541:HI *358:8 9.57 
2 *358:8 *358:10 135.383 
3 *358:10 *11533:vpwrpc 7.7575 
*END

*D_NET *359 0.0351859
*CONN
*I *11542:vpwrac I *D CF_SRAM_1024x32
*I *11549:HI O *D sky130_fd_sc_hd__conb_1
*CAP
1 *11542:vpwrac 0.00215281
2 *11549:HI 0.000233053
3 *359:10 0.00425754
4 *359:8 0.00233778
5 *11542:vpwrac *11542:vpwrpc 0.000750576
6 *359:8 *361:8 0.000452552
7 *359:10 *361:10 0.0114372
8 *359:10 *565:10 0.0114356
9 *302:48 *11542:vpwrac 0.000407719
10 *308:21 *11542:vpwrac 0.00172107
11 *322:34 *11542:vpwrac 0
*RES
1 *11549:HI *359:8 7.845 
2 *359:8 *359:10 128.753 
3 *359:10 *11542:vpwrac 9.4903 
*END

*D_NET *360 0.0252271
*CONN
*I *11330:A I *D sky130_fd_sc_hd__buf_12
*I *11554:X O *D sky130_fd_sc_hd__buf_12
*CAP
1 *11330:A 0.000762399
2 *11554:X 0.00108335
3 *360:22 0.00262578
4 *360:14 0.00367275
5 *360:10 0.00289272
6 *11330:A *11363:A 1.07628e-05
7 *11330:A *11470:A 0.000114047
8 *11330:A *11507:A 0.000268138
9 *11330:A *474:46 0.000183036
10 *11330:A *614:16 0.000173615
11 *360:10 *11506:A 0.000347305
12 *360:10 *11555:A 4.75991e-05
13 *360:10 *11638:A 0.000838812
14 *360:10 *404:18 0.000142661
15 *360:10 *598:14 0.00393583
16 *360:14 *11584:A 7.27003e-05
17 *360:14 *11611:A 0.000228324
18 *360:14 *11612:A 0.000434806
19 *360:14 *598:14 0.000144983
20 *360:22 *11340:A 8.73389e-06
21 *360:22 *11363:A 0.000135652
22 *360:22 *11462:A 9.76407e-06
23 *360:22 *11466:A 1.90662e-05
24 *360:22 *11567:A 0.000124895
25 *360:22 *11613:A 0.000856387
26 *360:22 *11614:A 0.00019506
27 *360:22 *609:16 0.00258392
28 wbs_dat_o[11] *360:10 0.000142669
29 wbs_dat_o[12] *360:14 0.000234778
30 wbs_dat_o[13] *360:14 0.000234973
31 wbs_dat_o[14] *360:14 0.000262805
32 wbs_dat_o[15] *360:22 6.97024e-05
33 wbs_dat_o[16] *360:22 0.000108561
34 wbs_dat_o[17] *360:22 0.000138808
35 wbs_dat_o[9] *360:10 0.000115146
36 *11307:A1 *11330:A 1.01851e-05
37 *11307:B2 *11330:A 0.000131105
38 *11322:A2 *11330:A 0.000141033
39 *11322:C1 *11330:A 0.000260533
40 *11355:A *360:22 5.05521e-05
41 *11357:A *360:22 5.05521e-05
42 *11361:A *360:22 0.0005334
43 *11419:A *360:14 0.000201508
44 *11423:A *360:14 0.000502814
45 *11473:A *360:14 0.0001249
46 *224:48 *11330:A 0
*RES
1 *11554:X *360:10 39.9325 
2 *360:10 *360:14 31.8525 
3 *360:14 *360:22 44.825 
4 *360:22 *11330:A 18.975 
*END

*D_NET *361 0.0298835
*CONN
*I *11542:vpwrpc I *D CF_SRAM_1024x32
*I *11550:HI O *D sky130_fd_sc_hd__conb_1
*CAP
1 *11542:vpwrpc 0.00120115
2 *11550:HI 0.000218813
3 *361:10 0.00581662
4 *361:8 0.00483428
5 *11542:vpwrpc *374:85 0.000300308
6 *11542:vpwrpc *558:161 0.00193464
7 *361:8 *11542:AD[2] 0.000224904
8 *361:10 *565:10 0.000536618
9 *11542:vpwrac *11542:vpwrpc 0.000750576
10 *302:48 *11542:vpwrpc 0.000465184
11 *308:21 *11542:vpwrpc 2.3093e-05
12 *311:11 *361:10 0
13 *322:34 *11542:vpwrpc 0
14 *332:11 *361:10 0.00168751
15 *359:8 *361:8 0.000452552
16 *359:10 *361:10 0.0114372
*RES
1 *11550:HI *361:8 9.225 
2 *361:8 *361:10 139.208 
3 *361:10 *11542:vpwrpc 7.39523 
*END

*D_NET *362 0.000116022
*CONN
*I *11485:A I *D sky130_fd_sc_hd__dlygate4sd3_1
*I *11328:X O *D sky130_fd_sc_hd__dlygate4sd3_1
*CAP
1 *11485:A 9.71884e-06
2 *11328:X 9.71884e-06
3 *11485:A *11328:A 4.82919e-05
4 *11485:A *448:14 4.82919e-05
*RES
1 *11328:X *11485:A 3.65 
*END

*D_NET *363 0.184027
*CONN
*I *11515:DI[10] I *D CF_SRAM_1024x32
*I *11533:DI[10] I *D CF_SRAM_1024x32
*I *11542:DI[10] I *D CF_SRAM_1024x32
*I *11524:DI[10] I *D CF_SRAM_1024x32
*I *11427:X O *D sky130_fd_sc_hd__buf_12
*CAP
1 *11515:DI[10] 0.00237548
2 *11533:DI[10] 0.00200912
3 *11542:DI[10] 0.00181504
4 *11524:DI[10] 0.000139942
5 *11427:X 0.00179623
6 *363:66 0.0220634
7 *363:64 0.0201495
8 *363:60 0.0126904
9 *363:40 0.0156887
10 *363:38 0.0156379
11 *363:26 0.00819065
12 *363:16 0.0183023
13 *11515:DI[10] *11515:BEN[10] 0
14 *11533:DI[10] *629:74 1.03755e-05
15 *11533:DI[10] *631:68 1.79483e-05
16 *363:16 *365:18 0.0031471
17 *363:16 *463:18 0.00535352
18 *363:26 *548:20 3.06428e-05
19 *363:40 *369:81 0
20 *363:60 *365:18 0.000112641
21 *363:60 *463:18 0.000208241
22 *675:DIODE *363:38 5.74791e-05
23 *765:DIODE *363:38 0.000262805
24 *1073:DIODE *11542:DI[10] 0.00011749
25 *11524:vpwrac *363:26 0.00169527
26 *3:25 *363:66 0.00574538
27 *139:16 *11515:DI[10] 0.000119756
28 *195:18 *363:16 1.17114e-05
29 *196:22 *363:66 0.0131651
30 *200:66 *363:66 0.000729041
31 *204:10 *363:66 0.000823139
32 *206:9 *11515:DI[10] 0.000243678
33 *222:28 *11515:DI[10] 6.32345e-05
34 *222:28 *363:66 0.00185604
35 *224:34 *363:66 0.000153582
36 *224:36 *363:66 0.0013931
37 *225:36 *363:16 1.88656e-05
38 *229:71 *363:16 0
39 *238:11 *363:38 0
40 *239:65 *363:26 0
41 *239:65 *363:60 0
42 *239:65 *363:64 0
43 *239:77 *363:66 0.000118136
44 *244:19 *363:66 0.000437116
45 *246:69 *11515:DI[10] 6.32345e-05
46 *246:69 *363:66 0.000225067
47 *247:15 *363:26 8.6313e-05
48 *255:22 *363:40 0.00162311
49 *257:22 *363:40 0.0157927
50 *261:22 *363:40 0.000955655
51 *262:23 *363:66 0.000241851
52 *263:23 *363:66 0.000105649
53 *270:7 *11533:DI[10] 0.000232187
54 *283:22 *363:66 0.00108366
55 *286:22 *363:66 0.000954651
56 *288:25 *363:66 0.000815207
57 *290:25 *363:66 0.000758587
58 *293:25 *363:66 0.000705941
59 *298:22 *363:66 0.000773236
60 *299:18 *363:66 0.0015251
61 *300:22 *363:66 0.00050813
62 *301:37 *363:66 0.000137349
63 *302:7 *11542:DI[10] 2.8185e-05
64 *302:11 *11542:DI[10] 0.000420256
65 *323:35 *363:66 0.00024046
66 *356:20 *363:38 0
*RES
1 *11427:X *363:16 15.532 
2 *363:16 *363:26 20.321 
3 *363:26 *11524:DI[10] 2.0925 
4 *363:26 *363:38 26.945 
5 *363:38 *363:40 330.33 
6 *363:40 *11542:DI[10] 28.9175 
7 *363:16 *363:60 24.7807 
8 *363:60 *363:64 0.683667 
9 *363:64 *363:66 55.6801 
10 *363:66 *11533:DI[10] 15.9509 
11 *363:60 *11515:DI[10] 29.665 
*END

*D_NET *364 0.00104266
*CONN
*I *11489:A I *D sky130_fd_sc_hd__dlygate4sd3_1
*I *11438:X O *D sky130_fd_sc_hd__dlygate4sd3_1
*CAP
1 *11489:A 7.93893e-05
2 *11438:X 7.93893e-05
3 *11489:A *580:12 2.30292e-05
4 *11489:A *580:24 0.000127305
5 *11489:A *584:34 0.000507048
6 *11213:A *11489:A 4.99619e-05
7 *11214:A *11489:A 8.8266e-05
8 *201:20 *11489:A 8.8266e-05
*RES
1 *11438:X *11489:A 7.79 
*END

*D_NET *365 0.19561
*CONN
*I *11542:DI[9] I *D CF_SRAM_1024x32
*I *11524:DI[9] I *D CF_SRAM_1024x32
*I *11533:DI[9] I *D CF_SRAM_1024x32
*I *11515:DI[9] I *D CF_SRAM_1024x32
*I *11449:X O *D sky130_fd_sc_hd__buf_12
*CAP
1 *11542:DI[9] 0.00217936
2 *11524:DI[9] 4.11867e-05
3 *11533:DI[9] 3.56638e-05
4 *11515:DI[9] 0.000170792
5 *11449:X 0.00391771
6 *365:80 0.0122421
7 *365:78 0.0118409
8 *365:68 0.0117909
9 *365:48 0.0129536
10 *365:46 0.0131965
11 *365:28 0.0160105
12 *365:18 0.0294504
13 *11515:DI[9] *11515:BEN[9] 0
14 *11542:DI[9] *11542:BEN[9] 0
15 *365:18 *463:18 0.000144084
16 *365:28 *11515:BEN[9] 0
17 *365:28 *378:81 0.00030596
18 *365:28 *387:56 0.000300454
19 *365:28 *476:30 9.4688e-05
20 *365:46 *367:40 1.47347e-05
21 *365:48 *367:42 0.0284142
22 *365:68 *11524:BEN[9] 0
23 *365:78 *570:24 0.000118081
24 *365:80 *367:76 0.0281055
25 *365:80 *400:10 0.00932932
26 *365:80 *416:10 0.00296943
27 *365:80 *461:68 0
28 *1192:DIODE *11542:DI[9] 0
29 *135:10 *365:46 0.000881561
30 *139:16 *365:46 2.62017e-05
31 *156:10 *365:46 0.000881561
32 *195:18 *365:18 0.000405168
33 *202:24 *365:28 0.00269835
34 *202:137 *365:28 5.98847e-05
35 *227:27 *365:48 0.000874187
36 *235:7 *365:46 6.99636e-06
37 *236:9 *11515:DI[9] 8.25299e-05
38 *236:9 *365:28 0.00020296
39 *238:69 *365:68 0.000131385
40 *247:15 *365:68 0.00024599
41 *249:29 *365:18 4.75829e-06
42 *260:22 *365:80 0
43 *268:74 *365:78 0
44 *274:24 *365:48 0.00219286
45 *300:11 *11533:DI[9] 3.01607e-05
46 *332:7 *11542:DI[9] 0
47 *363:16 *365:18 0.0031471
48 *363:60 *365:18 0.000112641
*RES
1 *11449:X *365:18 19.1782 
2 *365:18 *365:28 38.7125 
3 *365:28 *11515:DI[9] 2.9775 
4 *365:28 *365:46 17.535 
5 *365:46 *365:48 320.565 
6 *365:48 *11533:DI[9] 2.7425 
7 *365:18 *365:68 23.5941 
8 *365:68 *11524:DI[9] 0.7125 
9 *365:68 *365:78 25.22 
10 *365:78 *365:80 329.565 
11 *365:80 *11542:DI[9] 26.4725 
*END

*D_NET *366 0.00118859
*CONN
*I *11487:A I *D sky130_fd_sc_hd__dlygate4sd3_1
*I *11460:X O *D sky130_fd_sc_hd__dlygate4sd3_1
*CAP
1 *11487:A 0.000337896
2 *11460:X 0.000337896
3 *11487:A *371:26 0
4 *11487:A *597:14 0.000139648
5 wbs_dat_o[8] *11487:A 0.000124471
6 *11392:A *11487:A 0.000125883
7 *11488:A *11487:A 0.000122801
*RES
1 *11460:X *11487:A 14.595 
*END

*D_NET *367 0.206456
*CONN
*I *11542:DI[8] I *D CF_SRAM_1024x32
*I *11524:DI[8] I *D CF_SRAM_1024x32
*I *11533:DI[8] I *D CF_SRAM_1024x32
*I *11515:DI[8] I *D CF_SRAM_1024x32
*I *11471:X O *D sky130_fd_sc_hd__buf_12
*CAP
1 *11542:DI[8] 0.0016576
2 *11524:DI[8] 4.20538e-05
3 *11533:DI[8] 0.000114355
4 *11515:DI[8] 0.012742
5 *11471:X 0.00195639
6 *367:76 0.00819848
7 *367:74 0.00830328
8 *367:64 0.0100349
9 *367:42 0.00587153
10 *367:40 0.00584575
11 *367:18 0.0228402
12 *11515:DI[8] *11515:BEN[8] 0
13 *11515:DI[8] *389:36 0.000172276
14 *11515:DI[8] *558:127 0
15 *367:18 *11617:A 4.34795e-05
16 *367:18 *369:18 0.00682095
17 *367:18 *472:18 0.00681674
18 *367:42 *372:41 0.027716
19 *367:42 *549:44 0.000647694
20 *367:42 *549:62 0.000417048
21 *367:76 *369:81 0.000389993
22 *367:76 *372:73 0.027314
23 *975:DIODE *367:74 0.000228228
24 *1189:DIODE *11542:DI[8] 7.19567e-05
25 *135:10 *367:42 4.74304e-05
26 *137:10 *367:42 0.000237946
27 *139:16 *11515:DI[8] 0.000186795
28 *139:16 *367:40 1.08758e-05
29 *226:34 *367:18 0.000145042
30 *235:7 *367:40 6.52504e-05
31 *235:9 *367:42 1.58435e-05
32 *247:15 *367:64 0.000109393
33 *260:22 *367:76 0.000353879
34 *267:5 *367:74 0
35 *267:9 *367:74 0
36 *267:55 *11515:DI[8] 0
37 *267:55 *367:64 0
38 *268:23 *367:64 0.000105991
39 *299:7 *11533:DI[8] 0
40 *331:7 *11542:DI[8] 4.25379e-05
41 *331:11 *11542:DI[8] 0.000258073
42 *353:10 *11515:DI[8] 9.78088e-05
43 *365:46 *367:40 1.47347e-05
44 *365:48 *367:42 0.0284142
45 *365:80 *367:76 0.0281055
*RES
1 *11471:X *367:18 18.7022 
2 *367:18 *11515:DI[8] 37.2379 
3 *11515:DI[8] *367:40 4.4975 
4 *367:40 *367:42 328.545 
5 *367:42 *11533:DI[8] 3.8975 
6 *367:18 *367:64 23.4625 
7 *367:64 *11524:DI[8] 0.7275 
8 *367:64 *367:74 25.565 
9 *367:74 *367:76 330.075 
10 *367:76 *11542:DI[8] 26.3225 
*END

*D_NET *368 0.000646428
*CONN
*I *11491:A I *D sky130_fd_sc_hd__dlygate4sd3_1
*I *11482:X O *D sky130_fd_sc_hd__dlygate4sd3_1
*CAP
1 *11491:A 0.000147333
2 *11482:X 0.000147333
3 *11491:A *11553:A 0.000156932
4 *11491:A *583:14 6.44553e-05
5 *11491:A *598:14 8.23457e-05
6 *11491:A *599:12 4.80285e-05
*RES
1 *11482:X *11491:A 10.425 
*END

*D_NET *369 0.198446
*CONN
*I *11542:DI[7] I *D CF_SRAM_1024x32
*I *11524:DI[7] I *D CF_SRAM_1024x32
*I *11533:DI[7] I *D CF_SRAM_1024x32
*I *11515:DI[7] I *D CF_SRAM_1024x32
*I *11493:X O *D sky130_fd_sc_hd__buf_12
*CAP
1 *11542:DI[7] 0.00226213
2 *11524:DI[7] 9.52707e-05
3 *11533:DI[7] 0.000218847
4 *11515:DI[7] 0.000127484
5 *11493:X 0.00193998
6 *369:81 0.0110964
7 *369:79 0.0100368
8 *369:63 0.00621216
9 *369:41 0.00610801
10 *369:39 0.00588917
11 *369:28 0.00860539
12 *369:18 0.0153323
13 *11542:DI[7] *11542:BEN[7] 1.04217e-05
14 *369:18 *11511:A 0.000102411
15 *369:18 *467:18 0
16 *369:18 *472:18 0.000560788
17 *369:18 *504:12 0
18 *369:28 *372:28 0
19 *369:28 *389:36 4.0822e-05
20 *369:28 *549:32 0
21 *369:28 *549:101 0.00279606
22 *369:41 *11533:DI[11] 0.00265107
23 *369:41 *372:41 0.000635107
24 *369:41 *380:42 0.0269789
25 *369:41 *383:64 0.00102548
26 *369:41 *387:80 0.00367573
27 *369:41 *389:44 0.0144138
28 *369:41 *549:62 0.000500202
29 *369:63 *549:101 0.00156844
30 *369:81 *372:73 0.0279765
31 *965:DIODE *369:79 0.000158435
32 *1181:DIODE *11542:DI[7] 0
33 *11321:A0 *369:79 0.000218043
34 *11321:A1 *369:79 4.66345e-05
35 *11321:S *369:79 2.76356e-05
36 *135:10 *369:41 0.000419251
37 *156:10 *369:41 0.000762405
38 *174:77 *369:18 1.8608e-05
39 *178:45 *369:18 0.0069648
40 *195:8 *369:79 0.00051374
41 *197:18 *369:41 0.000550186
42 *205:29 *369:41 3.97211e-05
43 *216:29 *369:41 3.97211e-05
44 *226:34 *369:18 0.000283853
45 *227:27 *369:41 3.97211e-05
46 *230:27 *369:41 1.7635e-05
47 *231:11 *369:41 0.000127855
48 *231:13 *369:41 0.000720513
49 *232:21 *369:28 3.97719e-05
50 *234:17 *11515:DI[7] 0.00022953
51 *234:17 *369:28 0.000511165
52 *247:15 *369:63 1.7635e-05
53 *260:22 *369:81 0.0174542
54 *261:22 *369:81 0.000392462
55 *261:26 *369:79 0.000421949
56 *264:29 *369:28 0
57 *266:13 *11524:DI[7] 0.000119756
58 *266:13 *369:63 1.7635e-05
59 *266:13 *369:79 4.66108e-05
60 *266:83 *369:79 0.000444423
61 *268:23 *369:63 2.22315e-05
62 *268:39 *369:28 0.00370528
63 *268:39 *369:63 0.00477083
64 *298:11 *11533:DI[7] 0
65 *330:7 *11542:DI[7] 0
66 *358:10 *369:41 0.00123276
67 *363:40 *369:81 0
68 *367:18 *369:18 0.00682095
69 *367:76 *369:81 0.000389993
*RES
1 *11493:X *369:18 22.5374 
2 *369:18 *369:28 33.5104 
3 *369:28 *11515:DI[7] 2.52 
4 *369:28 *369:39 2 
5 *369:39 *369:41 328.8 
6 *369:41 *11533:DI[7] 5.4575 
7 *369:18 *369:63 20.8192 
8 *369:63 *11524:DI[7] 1.7775 
9 *369:63 *369:79 25.685 
10 *369:79 *369:81 328.035 
11 *369:81 *11542:DI[7] 27.5375 
*END

*D_NET *370 0.00138914
*CONN
*I *11494:A I *D sky130_fd_sc_hd__dlygate4sd3_1
*I *11504:X O *D sky130_fd_sc_hd__dlygate4sd3_1
*CAP
1 *11494:A 0.000269933
2 *11504:X 0.000269933
3 *11494:A *11552:A 0.000139238
4 *11494:A *580:12 4.7101e-05
5 *11494:A *582:10 0
6 *11494:A *601:12 0.0001249
7 *11494:A *626:24 0.000532206
8 *110:14 *11494:A 5.83121e-06
*RES
1 *11504:X *11494:A 14.565 
*END

*D_NET *371 0.0275986
*CONN
*I *11511:A I *D sky130_fd_sc_hd__buf_12
*I *11555:X O *D sky130_fd_sc_hd__buf_12
*CAP
1 *11511:A 0.00024291
2 *11555:X 0.0024214
3 *371:46 0.00146328
4 *371:42 0.00218022
5 *371:26 0.00338124
6 *11511:A *504:12 0.000256064
7 *371:26 *11438:A 0.000551431
8 *371:26 *11460:A 0
9 *371:26 *11510:A 3.54892e-05
10 *371:26 *11555:A 3.04882e-05
11 *371:26 *11562:A 4.35432e-05
12 *371:26 *11591:A 6.61627e-05
13 *371:26 *584:34 0.000431118
14 *371:26 *584:56 0.000276441
15 *371:26 *601:22 1.12578e-05
16 *371:42 *404:22 0.000589125
17 *371:42 *578:12 7.38016e-05
18 *371:42 *605:6 0.00337846
19 *371:46 *614:16 0.000828977
20 *11284:B1 *371:42 0.000112123
21 *11284:B2 *371:42 0.00236627
22 *11298:A1 *371:46 0.000347127
23 *11301:B2 *371:46 0.00257331
24 *11334:A *371:42 0.000115437
25 *11334:A *371:46 0.000492905
26 *11397:A *371:26 0.00013521
27 *11487:A *371:26 0
28 *115:30 *371:46 0.00127249
29 *115:37 *371:46 0.000826273
30 *117:69 *371:26 0.00123422
31 *118:43 *371:26 0.000426304
32 *122:56 *371:26 0.000497676
33 *172:28 *371:46 0.000726114
34 *226:34 *11511:A 9.86058e-05
35 *226:51 *11511:A 8.53113e-06
36 *338:30 *371:26 2.19562e-06
37 *369:18 *11511:A 0.000102411
*RES
1 *11555:X *371:26 48.89 
2 *371:26 *371:42 43.56 
3 *371:42 *371:46 44.195 
4 *371:46 *11511:A 9.57 
*END

*D_NET *372 0.20916
*CONN
*I *11542:DI[6] I *D CF_SRAM_1024x32
*I *11524:DI[6] I *D CF_SRAM_1024x32
*I *11533:DI[6] I *D CF_SRAM_1024x32
*I *11515:DI[6] I *D CF_SRAM_1024x32
*I *11329:X O *D sky130_fd_sc_hd__buf_12
*CAP
1 *11542:DI[6] 0.00223423
2 *11524:DI[6] 0.00645093
3 *11533:DI[6] 0.00015612
4 *11515:DI[6] 7.7279e-05
5 *11329:X 0.00323655
6 *372:73 0.00899608
7 *372:71 0.00802324
8 *372:41 0.00604663
9 *372:39 0.00589051
10 *372:28 0.00638897
11 *372:18 0.0147378
12 *11524:DI[6] *549:127 4.17913e-05
13 *11533:DI[6] *11533:BEN[6] 2.05457e-05
14 *11542:DI[6] *631:110 0
15 *372:18 *11507:A 0.000163985
16 *372:18 *376:18 0.00109833
17 *372:18 *476:30 5.14577e-05
18 *372:28 *378:89 0.000168467
19 *372:28 *389:36 0.000303465
20 *372:41 *380:42 0.0277104
21 *372:41 *549:62 0.000303859
22 *957:DIODE *372:71 0.000157282
23 *1172:DIODE *11542:DI[6] 0
24 *11283:S *372:18 0.00015835
25 *11312:A0 *372:71 0.000805036
26 *11312:A1 *372:71 6.32176e-05
27 *11312:S *372:71 3.96653e-05
28 *144:8 *372:28 0.000111585
29 *156:8 *372:28 0.000478005
30 *174:69 *372:18 0.00815615
31 *189:8 *372:71 0.000656679
32 *228:32 *372:18 6.60326e-05
33 *233:17 *11515:DI[6] 8.88631e-05
34 *233:17 *372:28 5.74791e-05
35 *247:15 *11524:DI[6] 0.000197889
36 *257:26 *372:71 0.000444407
37 *264:29 *11524:DI[6] 0.00191709
38 *264:29 *372:28 0.00411748
39 *265:11 *11524:DI[6] 9.72762e-05
40 *265:11 *372:71 0.000157276
41 *265:17 *11524:DI[6] 1.92979e-05
42 *265:53 *11524:DI[6] 0.00738591
43 *265:53 *372:28 0.00810614
44 *265:63 *372:28 0.000136769
45 *268:39 *11524:DI[6] 0
46 *297:9 *11533:DI[6] 0
47 *329:7 *11542:DI[6] 0
48 *367:42 *372:41 0.027716
49 *367:76 *372:73 0.027314
50 *369:28 *372:28 0
51 *369:41 *372:41 0.000635107
52 *369:81 *372:73 0.0279765
*RES
1 *11329:X *372:18 23.3987 
2 *372:18 *372:28 35.3959 
3 *372:28 *11515:DI[6] 1.485 
4 *372:28 *372:39 2 
5 *372:39 *372:41 328.8 
6 *372:41 *11533:DI[6] 4.7825 
7 *372:18 *11524:DI[6] 26.883 
8 *11524:DI[6] *372:71 26.5325 
9 *372:71 *372:73 328.29 
10 *372:73 *11542:DI[6] 27.2075 
*END

*D_NET *373 0.00160933
*CONN
*I *11469:A I *D sky130_fd_sc_hd__dlygate4sd3_1
*I *11340:X O *D sky130_fd_sc_hd__dlygate4sd3_1
*CAP
1 *11469:A 0.000365769
2 *11340:X 0.000365769
3 *11469:A *11340:A 8.64421e-05
4 *11469:A *11564:A 0.000298393
5 *11469:A *448:16 0.000232403
6 *11469:A *460:12 8.30853e-06
7 *11469:A *609:16 1.98377e-05
8 *122:93 *11469:A 0.000232403
*RES
1 *11340:X *11469:A 15.3 
*END

*D_NET *374 0.15883
*CONN
*I *11533:DI[15] I *D CF_SRAM_1024x32
*I *11542:DI[15] I *D CF_SRAM_1024x32
*I *11524:DI[15] I *D CF_SRAM_1024x32
*I *11515:DI[15] I *D CF_SRAM_1024x32
*I *11351:X O *D sky130_fd_sc_hd__buf_12
*CAP
1 *11533:DI[15] 0.000491694
2 *11542:DI[15] 0.0198931
3 *11524:DI[15] 0.00463332
4 *11515:DI[15] 0.0100158
5 *11351:X 0.00110144
6 *374:85 0.0188251
7 *374:60 0.0121789
8 *374:58 0.0119293
9 *374:18 0.0144406
10 *11515:DI[15] *11515:BEN[15] 0
11 *11515:DI[15] *558:35 5.83121e-06
12 *11515:DI[15] *558:367 0.0216769
13 *11524:DI[15] *11524:BEN[15] 0
14 *11524:DI[15] *558:367 0.00338549
15 *11533:DI[15] *389:66 4.00268e-05
16 *11542:DI[15] *11542:BEN[15] 0
17 *374:60 *376:97 0.00682677
18 *374:60 *378:41 0
19 *374:60 *387:114 0
20 *374:60 *396:52 0.00421285
21 *374:60 *400:50 0.0127087
22 *374:60 *402:10 0.00946292
23 *374:60 *409:10 0
24 *374:60 *577:12 0.00428565
25 *374:85 *558:161 0
26 *826:DIODE *374:58 0.000491427
27 *11269:A1 *11515:DI[15] 0
28 *11524:vpwrpc *11524:DI[15] 0.00090694
29 *11542:vpwrpc *374:85 0.000300308
30 *147:38 *11515:DI[15] 0.000107107
31 *210:11 *11515:DI[15] 0.000105991
32 *243:5 *374:58 6.96092e-05
33 *247:21 *11524:DI[15] 1.79483e-05
34 *252:29 *374:18 3.96676e-05
35 *253:29 *374:18 1.11399e-05
36 *254:23 *11524:DI[15] 1.79483e-05
37 *275:20 *11533:DI[15] 0.000310829
38 *304:47 *374:85 0.000126048
39 *307:13 *11542:DI[15] 0
40 *307:13 *374:85 8.49936e-05
41 *327:19 *374:85 0.000126048
*RES
1 *11351:X *374:18 8.87277 
2 *374:18 *11515:DI[15] 43.8428 
3 *374:18 *11524:DI[15] 15.8667 
4 *11524:DI[15] *374:58 19.5125 
5 *374:58 *374:60 328.545 
6 *374:60 *11542:DI[15] 20.5175 
7 *11542:DI[15] *374:85 49.6122 
8 *374:85 *11533:DI[15] 7.43173 
*END

*D_NET *375 7.07608e-05
*CONN
*I *11496:A I *D sky130_fd_sc_hd__dlygate4sd3_1
*I *11362:X O *D sky130_fd_sc_hd__dlygate4sd3_1
*CAP
1 *11496:A 2.03614e-05
2 *11362:X 2.03614e-05
3 *11496:A *599:12 3.00381e-05
*RES
1 *11362:X *11496:A 3.65 
*END

*D_NET *376 0.197727
*CONN
*I *11542:DI[5] I *D CF_SRAM_1024x32
*I *11524:DI[5] I *D CF_SRAM_1024x32
*I *11533:DI[5] I *D CF_SRAM_1024x32
*I *11515:DI[5] I *D CF_SRAM_1024x32
*I *11373:X O *D sky130_fd_sc_hd__buf_12
*CAP
1 *11542:DI[5] 0.00129481
2 *11524:DI[5] 0.000121923
3 *11533:DI[5] 0.000229706
4 *11515:DI[5] 0.00037792
5 *11373:X 0.0061949
6 *376:97 0.00759525
7 *376:95 0.00767114
8 *376:87 0.00243705
9 *376:67 0.0118132
10 *376:48 0.00786523
11 *376:46 0.00786288
12 *376:28 0.0131688
13 *376:18 0.0293834
14 *11533:DI[5] *11533:BEN[5] 0
15 *376:28 *11524:DI[4] 0
16 *376:28 *380:28 0
17 *376:46 *380:28 6.47753e-05
18 *376:46 *387:58 0.000674238
19 *376:48 *11533:DI[13] 0.000186799
20 *376:48 *383:64 0
21 *376:48 *385:81 0.0245429
22 *376:48 *387:66 0
23 *376:48 *555:41 0.000486142
24 *376:48 *590:14 0.000571987
25 *376:67 *11524:DI[4] 0
26 *376:67 *549:143 5.83416e-05
27 *376:87 *11447:A 0
28 *376:87 *11478:A 3.03775e-05
29 *376:87 *398:10 0.00274316
30 *376:87 *576:8 0.00281462
31 *376:95 *394:106 1.93834e-05
32 *376:95 *398:10 0.00111743
33 *376:95 *418:34 0.000342704
34 *376:95 *422:32 0.000101225
35 *376:95 *463:71 0.000605449
36 *376:95 *465:10 0.00127868
37 *376:97 *391:44 0.00108693
38 *376:97 *394:108 0.00560095
39 *376:97 *400:50 0.00297377
40 *376:97 *402:10 0.00463313
41 *376:97 *422:74 0.0221277
42 *740:DIODE *376:48 9.84957e-05
43 *748:DIODE *376:28 9.22201e-05
44 *801:DIODE *376:28 4.66108e-05
45 *1170:DIODE *11542:DI[5] 0.000213821
46 *150:12 *376:28 5.84826e-05
47 *153:24 *376:28 7.70373e-06
48 *155:16 *376:48 7.21296e-06
49 *157:16 *376:48 0.00632086
50 *158:10 *376:46 6.33103e-05
51 *174:69 *376:18 0
52 *201:167 *376:28 5.66369e-05
53 *229:28 *376:48 0.00143742
54 *232:7 *11515:DI[5] 0.000339757
55 *232:7 *376:28 0.000123042
56 *241:72 *376:28 3.57349e-05
57 *247:15 *376:67 8.93064e-06
58 *264:5 *11524:DI[5] 7.92107e-05
59 *264:19 *376:67 3.75455e-05
60 *264:61 *11524:DI[5] 1.91597e-05
61 *264:61 *376:87 0.000372118
62 *271:16 *376:48 0.00407347
63 *296:9 *11533:DI[5] 0.000204426
64 *328:7 *11542:DI[5] 2.20732e-05
65 *353:10 *376:46 0.000674238
66 *353:10 *376:48 0.00130986
67 *354:10 *376:48 0.00417845
68 *357:10 *376:48 0.00184406
69 *372:18 *376:18 0.00109833
70 *374:60 *376:97 0.00682677
*RES
1 *11373:X *376:18 23.3153 
2 *376:18 *376:28 30.5071 
3 *376:28 *11515:DI[5] 6.5775 
4 *376:28 *376:46 15.15 
5 *376:46 *376:48 321.66 
6 *376:48 *11533:DI[5] 6.935 
7 *376:18 *376:67 23.4699 
8 *376:67 *11524:DI[5] 2.0925 
9 *376:67 *376:87 45.18 
10 *376:87 *376:95 34.24 
11 *376:95 *376:97 275.505 
12 *376:97 *11542:DI[5] 18.32 
*END

*D_NET *377 0.00192015
*CONN
*I *11474:A I *D sky130_fd_sc_hd__dlygate4sd3_1
*I *11384:X O *D sky130_fd_sc_hd__dlygate4sd3_1
*CAP
1 *11474:A 0.000409789
2 *11384:X 0.000409789
3 *11474:A *11384:A 0.000160641
4 *11474:A *11563:A 0.000298053
5 *11474:A *11613:A 0.00016098
6 *11474:A *448:16 0.000263966
7 *11474:A *449:14 8.30853e-06
8 *11474:A *607:16 0.000115655
9 *349:12 *11474:A 9.29698e-05
*RES
1 *11384:X *11474:A 15.9 
*END

*D_NET *378 0.193833
*CONN
*I *11533:DI[14] I *D CF_SRAM_1024x32
*I *11515:DI[14] I *D CF_SRAM_1024x32
*I *11542:DI[14] I *D CF_SRAM_1024x32
*I *11524:DI[14] I *D CF_SRAM_1024x32
*I *11395:X O *D sky130_fd_sc_hd__buf_12
*CAP
1 *11533:DI[14] 0.000653528
2 *11515:DI[14] 0.000750704
3 *11542:DI[14] 0.00132524
4 *11524:DI[14] 0.00569624
5 *11395:X 0.00206631
6 *378:89 0.00689081
7 *378:87 0.00627313
8 *378:81 0.00113613
9 *378:79 0.00141758
10 *378:59 0.0105714
11 *378:41 0.0111624
12 *378:39 0.0107405
13 *378:16 0.0163627
14 *11524:DI[14] *11524:BEN[14] 0
15 *11533:DI[14] *11533:BEN[14] 0
16 *11542:DI[14] *11542:BEN[14] 8.00167e-05
17 *378:41 *380:72 0.00024667
18 *378:41 *385:40 0.00451022
19 *378:41 *387:114 0.0263446
20 *378:41 *389:104 0
21 *378:41 *420:10 0.0118501
22 *378:59 *11524:DI[13] 0
23 *378:59 *383:28 0
24 *378:81 *387:56 0.00053158
25 *378:81 *389:36 8.74345e-06
26 *378:81 *558:127 1.84712e-05
27 *378:89 *11515:AD[1] 0.000148801
28 *378:89 *11515:AD[2] 3.93371e-05
29 *378:89 *11515:ScanInDR 9.21064e-05
30 *378:89 *11515:AD[8] 0
31 *378:89 *11515:DI[3] 1.7635e-05
32 *378:89 *380:28 0.000319302
33 *378:89 *385:79 0.00224544
34 *378:89 *389:36 0.000555272
35 *378:89 *391:86 0.00218864
36 *378:89 *394:58 0.000399387
37 *378:89 *422:60 1.79483e-05
38 *378:89 *461:36 0.000757155
39 *378:89 *463:36 0
40 *378:89 *467:24 1.34984e-05
41 *378:89 *472:24 0.000699145
42 *378:89 *474:78 0.00110998
43 *378:89 *474:80 0.0152431
44 *378:89 *478:46 0
45 *378:89 *478:48 0.0151642
46 *378:89 *549:78 0.000425525
47 *378:89 *558:127 0.000610461
48 *378:89 *558:129 0
49 *820:DIODE *378:39 0.00014294
50 *152:14 *11515:DI[14] 0.000111216
51 *152:14 *378:79 0.000250082
52 *168:86 *378:16 4.72538e-05
53 *182:81 *378:16 0
54 *182:81 *378:59 0
55 *201:167 *11515:DI[14] 0.000108956
56 *201:167 *378:79 0.000257278
57 *206:11 *378:81 0.00244173
58 *210:11 *11515:DI[14] 0.00065252
59 *213:18 *378:89 0.000215588
60 *232:21 *378:81 0.000396092
61 *232:21 *378:89 0.0013584
62 *232:23 *378:81 2.3057e-05
63 *233:19 *378:81 0.0041616
64 *234:17 *378:81 0.000815173
65 *242:5 *378:39 7.98735e-05
66 *242:15 *11524:DI[14] 0.00310978
67 *242:15 *378:59 0.0192185
68 *242:114 *378:39 0.000936147
69 *242:155 *378:39 0.00014294
70 *243:11 *11524:DI[14] 1.79483e-05
71 *252:29 *378:16 3.96676e-05
72 *254:13 *11524:DI[14] 1.79483e-05
73 *265:37 *378:41 0.000130202
74 *274:10 *11533:DI[14] 0
75 *306:12 *11542:DI[14] 0
76 *365:28 *378:81 0.00030596
77 *372:28 *378:89 0.000168467
78 *374:60 *378:41 0
*RES
1 *11395:X *378:16 10.0954 
2 *378:16 *11524:DI[14] 15.5149 
3 *11524:DI[14] *378:39 17.6825 
4 *378:39 *378:41 328.29 
5 *378:41 *11542:DI[14] 18.1175 
6 *378:16 *378:59 32.6806 
7 *378:59 *11515:DI[14] 14.45 
8 *378:59 *378:79 9.9025 
9 *378:79 *378:81 53.655 
10 *378:81 *378:87 4.615 
11 *378:87 *378:89 270.15 
12 *378:89 *11533:DI[14] 10.8725 
*END

*D_NET *379 9.40065e-05
*CONN
*I *11498:A I *D sky130_fd_sc_hd__dlygate4sd3_1
*I *11406:X O *D sky130_fd_sc_hd__dlygate4sd3_1
*CAP
1 *11498:A 7.00326e-06
2 *11406:X 7.00326e-06
3 *11498:A *592:28 4.99619e-05
4 *11498:A *599:12 3.00381e-05
*RES
1 *11406:X *11498:A 3.65 
*END

*D_NET *380 0.200698
*CONN
*I *11542:DI[4] I *D CF_SRAM_1024x32
*I *11524:DI[4] I *D CF_SRAM_1024x32
*I *11533:DI[4] I *D CF_SRAM_1024x32
*I *11515:DI[4] I *D CF_SRAM_1024x32
*I *11417:X O *D sky130_fd_sc_hd__buf_12
*CAP
1 *11542:DI[4] 0.0010736
2 *11524:DI[4] 0.0100115
3 *11533:DI[4] 8.76722e-05
4 *11515:DI[4] 0.000136693
5 *11417:X 0.00385401
6 *380:72 0.00971332
7 *380:70 0.00958552
8 *380:42 0.00652139
9 *380:40 0.00643372
10 *380:28 0.00998315
11 *380:18 0.0227661
12 *11524:DI[4] *11524:BEN[4] 1.16721e-05
13 *11524:DI[4] *549:143 0.000128086
14 *11524:DI[4] *549:157 0.000108433
15 *380:18 *11615:A 9.58678e-06
16 *380:18 *478:18 0.000195198
17 *380:18 *483:18 0.00922695
18 *380:28 *389:36 0.000128361
19 *380:28 *549:78 8.50117e-05
20 *380:72 *385:40 0.0270492
21 *380:72 *389:104 0.0228108
22 *746:DIODE *380:28 0
23 *941:DIODE *380:70 0.000488787
24 *1160:DIODE *11542:DI[4] 0.000189006
25 *153:24 *380:28 3.92756e-05
26 *158:10 *380:28 7.45953e-05
27 *170:89 *380:18 0
28 *171:69 *380:18 0
29 *202:18 *380:18 0.00333418
30 *221:32 *380:18 8.66976e-06
31 *231:11 *11515:DI[4] 3.58019e-05
32 *231:11 *380:28 1.11884e-05
33 *238:81 *380:28 0.000866729
34 *247:15 *11524:DI[4] 0.000245517
35 *263:7 *380:70 6.62451e-05
36 *295:9 *11533:DI[4] 6.46139e-05
37 *327:5 *11542:DI[4] 3.31409e-05
38 *358:10 *380:42 0
39 *369:41 *380:42 0.0269789
40 *372:41 *380:42 0.0277104
41 *376:28 *11524:DI[4] 0
42 *376:28 *380:28 0
43 *376:46 *380:28 6.47753e-05
44 *376:67 *11524:DI[4] 0
45 *378:41 *380:72 0.00024667
46 *378:89 *380:28 0.000319302
*RES
1 *11417:X *380:18 23.9563 
2 *380:18 *380:28 33.8446 
3 *380:28 *11515:DI[4] 2.2125 
4 *380:28 *380:40 2 
5 *380:40 *380:42 330.33 
6 *380:42 *11533:DI[4] 3.7775 
7 *380:18 *11524:DI[4] 29.171 
8 *11524:DI[4] *380:70 16.4975 
9 *380:70 *380:72 329.565 
10 *380:72 *11542:DI[4] 15.8525 
*END

*D_NET *381 0.00154699
*CONN
*I *11476:A I *D sky130_fd_sc_hd__dlygate4sd3_1
*I *11426:X O *D sky130_fd_sc_hd__dlygate4sd3_1
*CAP
1 *11476:A 0.000351662
2 *11426:X 0.000351662
3 *11476:A *11426:A 0.000456155
4 *11476:A *11561:A 0.000108588
5 *11476:A *11612:A 0
6 *11476:A *448:16 0.000198252
7 *11476:A *599:12 5.83121e-06
8 *349:12 *11476:A 7.48407e-05
*RES
1 *11426:X *11476:A 15.645 
*END

*D_NET *382 0.0249148
*CONN
*I *11204:C I *D sky130_fd_sc_hd__and4b_2
*I *11200:A I *D sky130_fd_sc_hd__nand2_2
*I *11556:X O *D sky130_fd_sc_hd__clkbuf_2
*CAP
1 *11204:C 0.00148565
2 *11200:A 7.48814e-05
3 *11556:X 0.000207448
4 *382:47 0.00208448
5 *382:20 0.0010298
6 *382:16 0.00230389
7 *382:14 0.00215525
8 *11200:A *575:26 0.00015896
9 *11200:A *591:28 0.000196376
10 *11200:A *591:51 6.27288e-05
11 *11200:A *601:12 1.08758e-05
12 *11204:C *11204:D 0.000601946
13 *11204:C *591:51 0.000352721
14 *382:16 *586:22 0.00217908
15 *382:16 *591:14 0.00205425
16 *382:16 *595:16 4.57056e-05
17 *382:16 *627:14 0.000544934
18 *382:20 *11585:A 1.2973e-05
19 *382:20 *579:10 5.93761e-05
20 *382:20 *598:12 0.000280503
21 *382:47 *575:26 1.88656e-05
22 *382:47 *579:10 7.53153e-05
23 *382:47 *598:12 0.000264407
24 *382:47 *601:10 3.60913e-05
25 *382:47 *625:20 0.000798377
26 *382:47 *628:12 0.00184431
27 wbs_dat_o[3] *382:20 0.000555628
28 *11266:A1 *382:47 0.000518027
29 *11414:A *382:20 0
30 *11556:A *382:14 4.91189e-05
31 *11597:A *382:14 0
32 *112:8 *11204:C 3.81908e-06
33 *123:16 *382:47 5.88283e-05
34 *148:38 *11204:C 9.19821e-05
35 *201:48 *382:47 8.36257e-05
36 *206:11 *11204:C 0.00239049
37 *210:11 *11204:C 0
38 *233:19 *11204:C 0.00222408
*RES
1 *11556:X *382:14 9.2525 
2 *382:14 *382:16 56.5125 
3 *382:16 *382:20 10.52 
4 *382:20 *11200:A 6.135 
5 *382:20 *382:47 26.2578 
6 *382:47 *11204:C 44.1 
*END

*D_NET *383 0.190609
*CONN
*I *11542:DI[13] I *D CF_SRAM_1024x32
*I *11524:DI[13] I *D CF_SRAM_1024x32
*I *11533:DI[13] I *D CF_SRAM_1024x32
*I *11515:DI[13] I *D CF_SRAM_1024x32
*I *11428:X O *D sky130_fd_sc_hd__buf_12
*CAP
1 *11542:DI[13] 0.00115614
2 *11524:DI[13] 0.00714576
3 *11533:DI[13] 0.00102635
4 *11515:DI[13] 0.000894768
5 *11428:X 0.00128076
6 *383:100 0.0141063
7 *383:98 0.0137695
8 *383:64 0.00588513
9 *383:62 0.00533657
10 *383:58 0.00174942
11 *383:50 0.00224997
12 *383:28 0.018812
13 *383:18 0.0245461
14 *11515:DI[13] *558:57 4.03077e-05
15 *11524:DI[13] *11524:BEN[13] 0
16 *11533:DI[13] *11533:DI[12] 0.00012722
17 *11533:DI[13] *387:80 6.36438e-07
18 *11533:DI[13] *389:66 0.00152344
19 *11533:DI[13] *391:88 0.000433195
20 *11542:DI[13] *11542:BEN[13] 7.37942e-05
21 *383:18 *11428:A 1.7635e-05
22 *383:18 *11432:A 1.88656e-05
23 *383:18 *387:18 0.00297047
24 *383:28 *387:18 9.6585e-05
25 *383:28 *474:46 0.000174537
26 *383:50 *549:32 4.24632e-05
27 *383:50 *558:127 2.99228e-05
28 *383:50 *588:22 0.00399058
29 *383:58 *558:127 0.00207344
30 *383:58 *558:129 0.000851478
31 *383:58 *631:12 0.00063538
32 *383:62 *11515:DI[2] 5.04828e-05
33 *383:64 *387:66 0.00710708
34 *383:64 *387:80 0.00212527
35 *383:64 *389:44 0.0144105
36 *383:64 *391:88 0.00195999
37 *383:64 *629:44 0.000914052
38 *383:100 *389:104 0.026233
39 *383:100 *405:8 0.00966349
40 *383:100 *478:80 0
41 *804:DIODE *383:98 0.00014294
42 *971:DIODE *383:50 0.000187064
43 *972:DIODE *383:50 6.45236e-05
44 *11260:A1 *11515:DI[13] 3.91191e-05
45 *150:12 *383:58 0.000399998
46 *152:12 *383:50 3.02513e-05
47 *152:12 *383:58 0.00189806
48 *152:14 *383:50 0.000166977
49 *180:62 *383:18 0.0013225
50 *180:62 *383:28 0.00028423
51 *197:18 *383:64 0.00298366
52 *201:167 *383:58 0
53 *205:29 *383:64 3.97211e-05
54 *209:21 *11515:DI[13] 6.70161e-05
55 *216:29 *383:64 3.97211e-05
56 *227:27 *383:64 3.97211e-05
57 *234:19 *383:50 0.00345857
58 *241:5 *383:98 6.57805e-05
59 *241:9 *383:98 0.000947804
60 *242:15 *11524:DI[13] 0
61 *243:11 *11524:DI[13] 0.000148775
62 *243:15 *383:28 0
63 *254:13 *11524:DI[13] 0.000148775
64 *271:16 *11533:DI[13] 0.0024331
65 *273:12 *11533:DI[13] 0
66 *305:13 *11542:DI[13] 0
67 *357:10 *11533:DI[13] 0.000965999
68 *369:41 *383:64 0.00102548
69 *376:48 *11533:DI[13] 0.000186799
70 *376:48 *383:64 0
71 *378:59 *11524:DI[13] 0
72 *378:59 *383:28 0
*RES
1 *11428:X *383:18 11.8419 
2 *383:18 *383:28 30.9681 
3 *383:28 *11515:DI[13] 10.3524 
4 *383:28 *383:50 47.81 
5 *383:50 *383:58 45.4625 
6 *383:58 *383:62 8.66 
7 *383:62 *383:64 208.568 
8 *383:64 *11533:DI[13] 40.265 
9 *383:18 *11524:DI[13] 19.805 
10 *11524:DI[13] *383:98 15.9425 
11 *383:98 *383:100 328.29 
12 *383:100 *11542:DI[13] 16.4075 
*END

*D_NET *384 0.00232141
*CONN
*I *11502:A I *D sky130_fd_sc_hd__dlygate4sd3_1
*I *11429:X O *D sky130_fd_sc_hd__dlygate4sd3_1
*CAP
1 *11502:A 0.000385523
2 *11429:X 0.000385523
3 *11502:A *11429:A 4.77757e-05
4 *11502:A *575:26 0.000439006
5 *11502:A *591:28 0.000197269
6 *11502:A *595:16 0.000171672
7 *11502:A *623:18 8.17064e-05
8 *11324:D *11502:A 8.72302e-05
9 *11381:A *11502:A 0.000525705
*RES
1 *11429:X *11502:A 19.155 
*END

*D_NET *385 0.198242
*CONN
*I *11533:DI[3] I *D CF_SRAM_1024x32
*I *11515:DI[3] I *D CF_SRAM_1024x32
*I *11542:DI[3] I *D CF_SRAM_1024x32
*I *11524:DI[3] I *D CF_SRAM_1024x32
*I *11430:X O *D sky130_fd_sc_hd__buf_12
*CAP
1 *11533:DI[3] 0.000398991
2 *11515:DI[3] 0.000356916
3 *11542:DI[3] 0.00115144
4 *11524:DI[3] 0.0106912
5 *11430:X 0.0046911
6 *385:81 0.00672519
7 *385:79 0.00700923
8 *385:58 0.00783739
9 *385:40 0.0107169
10 *385:38 0.0105123
11 *385:16 0.0212329
12 *11515:DI[3] *11413:A 2.18119e-05
13 *11515:DI[3] *389:36 9.22294e-06
14 *11524:DI[3] *11524:BEN[3] 0
15 *11524:DI[3] *571:34 0
16 *11533:DI[3] *11533:BEN[3] 0
17 *385:16 *11614:A 0
18 *385:16 *391:20 0.000449715
19 *385:16 *485:16 0.010168
20 *385:38 *11456:A 0
21 *385:40 *387:114 0.000500526
22 *385:40 *391:44 0
23 *385:40 *420:10 0.0118501
24 *385:58 *391:20 2.57683e-05
25 *385:58 *485:16 0.000208241
26 *385:79 *11515:ScanInCC 6.39431e-05
27 *385:79 *11515:DI[1] 8.38966e-05
28 *385:79 *387:64 0.000121027
29 *385:79 *389:36 0.00120721
30 *385:81 *389:58 0.00214407
31 *385:81 *394:60 0.0128589
32 *385:81 *394:66 3.72985e-05
33 *385:81 *394:68 0.0096193
34 *385:81 *478:46 1.99922e-05
35 *699:DIODE *385:79 3.9232e-05
36 *743:DIODE *11515:DI[3] 0.000509897
37 *939:DIODE *385:38 0.000505847
38 *11298:B2 *385:16 0.000124864
39 *230:7 *11515:DI[3] 0.000255288
40 *247:15 *11524:DI[3] 6.32332e-05
41 *262:7 *385:38 6.76956e-05
42 *262:17 *11524:DI[3] 0
43 *262:17 *385:58 0.0064704
44 *263:17 *11524:DI[3] 0
45 *294:9 *11533:DI[3] 0
46 *326:7 *11542:DI[3] 0
47 *326:74 *11542:DI[3] 0
48 *353:10 *385:81 0.00112722
49 *357:10 *385:81 0
50 *376:48 *385:81 0.0245429
51 *378:41 *385:40 0.00451022
52 *378:89 *11515:DI[3] 1.7635e-05
53 *378:89 *385:79 0.00224544
54 *380:72 *385:40 0.0270492
*RES
1 *11430:X *385:16 25.5065 
2 *385:16 *11524:DI[3] 29.2775 
3 *11524:DI[3] *385:38 16.8275 
4 *385:38 *385:40 328.545 
5 *385:40 *11542:DI[3] 17.3375 
6 *385:16 *385:58 21.6682 
7 *385:58 *11515:DI[3] 9.5825 
8 *385:58 *385:79 32.4175 
9 *385:79 *385:81 302.79 
10 *385:81 *11533:DI[3] 8.3675 
*END

*D_NET *386 0.000605658
*CONN
*I *11480:A I *D sky130_fd_sc_hd__dlygate4sd3_1
*I *11431:X O *D sky130_fd_sc_hd__dlygate4sd3_1
*CAP
1 *11480:A 0.000264048
2 *11431:X 0.000264048
3 *11480:A *11560:A 0
4 *11480:A *11595:A 2.76e-05
5 *11480:A *601:24 4.99619e-05
6 *11423:A *11480:A 0
7 *11475:A *11480:A 0
*RES
1 *11431:X *11480:A 11.07 
*END

*D_NET *387 0.198184
*CONN
*I *11542:DI[12] I *D CF_SRAM_1024x32
*I *11524:DI[12] I *D CF_SRAM_1024x32
*I *11533:DI[12] I *D CF_SRAM_1024x32
*I *11515:DI[12] I *D CF_SRAM_1024x32
*I *11432:X O *D sky130_fd_sc_hd__buf_12
*CAP
1 *11542:DI[12] 0.00135766
2 *11524:DI[12] 0.000124109
3 *11533:DI[12] 0.000718904
4 *11515:DI[12] 0.00062619
5 *11432:X 0.00247082
6 *387:114 0.0106487
7 *387:112 0.0103035
8 *387:100 0.00459616
9 *387:80 0.00180657
10 *387:66 0.00431174
11 *387:64 0.00334747
12 *387:58 0.00144418
13 *387:56 0.00228606
14 *387:28 0.0105677
15 *387:18 0.0149066
16 *11515:DI[12] *389:24 0
17 *11515:DI[12] *558:69 0.000149385
18 *11533:DI[12] *11533:DI[11] 1.38495e-05
19 *11533:DI[12] *391:88 0.000340804
20 *11542:DI[12] *11542:BEN[12] 0
21 *387:18 *11432:A 1.43521e-05
22 *387:28 *389:24 0
23 *387:56 *549:32 0.000125497
24 *387:56 *558:127 0.000690012
25 *387:56 *588:22 0.000219242
26 *387:58 *389:36 0.00529465
27 *387:58 *631:24 0.000596828
28 *387:58 *631:36 0.000861842
29 *387:58 *631:50 0.000704917
30 *387:64 *11515:ScanInCC 1.61872e-05
31 *387:66 *391:88 0.00298575
32 *387:66 *629:44 0.000914052
33 *387:80 *11533:DI[11] 1.03833e-05
34 *387:80 *389:66 2.38115e-05
35 *387:80 *391:88 0.000183034
36 *387:100 *548:20 5.05066e-06
37 *387:114 *391:44 0.0207647
38 *387:114 *402:10 0
39 *699:DIODE *387:64 0.000167337
40 *796:DIODE *387:112 0.00014356
41 *11260:A1 *11515:DI[12] 0.000651026
42 *11533:DI[13] *11533:DI[12] 0.00012722
43 *11533:DI[13] *387:80 6.36438e-07
44 *149:22 *387:80 0
45 *155:16 *387:66 0.014288
46 *178:91 *387:18 0
47 *180:62 *387:18 8.7705e-05
48 *180:62 *387:28 0.000255422
49 *197:18 *387:66 0.00133109
50 *206:11 *387:56 0.00126209
51 *232:23 *11515:DI[12] 6.6649e-05
52 *233:17 *387:58 0.00103426
53 *234:17 *387:56 0.000496698
54 *236:11 *387:56 0.00201571
55 *240:10 *11524:DI[12] 0
56 *240:20 *387:28 0.0178152
57 *240:20 *387:100 0.00271255
58 *240:90 *387:112 0
59 *240:94 *387:112 0.00022645
60 *241:51 *387:28 5.93578e-05
61 *241:51 *387:100 0.00193652
62 *243:15 *387:100 0
63 *247:15 *387:100 1.79483e-05
64 *249:29 *387:18 2.90882e-05
65 *272:10 *11533:DI[12] 0
66 *275:20 *387:80 0.00115448
67 *304:7 *11542:DI[12] 0
68 *304:11 *11542:DI[12] 8.01016e-05
69 *353:10 *387:58 0.000792094
70 *357:10 *11533:DI[12] 0.00168688
71 *358:10 *11533:DI[12] 0.0018677
72 *365:28 *387:56 0.000300454
73 *369:41 *387:80 0.00367573
74 *374:60 *387:114 0
75 *376:46 *387:58 0.000674238
76 *376:48 *387:66 0
77 *378:41 *387:114 0.0263446
78 *378:81 *387:56 0.00053158
79 *383:18 *387:18 0.00297047
80 *383:28 *387:18 9.6585e-05
81 *383:64 *387:66 0.00710708
82 *383:64 *387:80 0.00212527
83 *385:40 *387:114 0.000500526
84 *385:79 *387:64 0.000121027
*RES
1 *11432:X *387:18 14.0086 
2 *387:18 *387:28 31.1733 
3 *387:28 *11515:DI[12] 11.2726 
4 *387:28 *387:56 42.6075 
5 *387:56 *387:58 62.07 
6 *387:58 *387:64 6.865 
7 *387:64 *387:66 165.473 
8 *387:66 *387:80 44.9978 
9 *387:80 *11533:DI[12] 28.415 
10 *387:18 *387:100 16.2592 
11 *387:100 *11524:DI[12] 1.8075 
12 *387:100 *387:112 16.25 
13 *387:112 *387:114 329.565 
14 *387:114 *11542:DI[12] 18.4925 
*END

*D_NET *388 0.00154245
*CONN
*I *11483:A I *D sky130_fd_sc_hd__dlygate4sd3_1
*I *11433:X O *D sky130_fd_sc_hd__dlygate4sd3_1
*CAP
1 *11483:A 0.000467842
2 *11433:X 0.000467842
3 *11483:A *578:12 4.04686e-05
4 *11483:A *589:14 0.000381273
5 *11483:A *601:24 2.68526e-05
6 wbs_dat_o[12] *11483:A 0
7 *11479:A *11483:A 0.000158174
*RES
1 *11433:X *11483:A 14.88 
*END

*D_NET *389 0.19113
*CONN
*I *11542:DI[11] I *D CF_SRAM_1024x32
*I *11524:DI[11] I *D CF_SRAM_1024x32
*I *11533:DI[11] I *D CF_SRAM_1024x32
*I *11515:DI[11] I *D CF_SRAM_1024x32
*I *11434:X O *D sky130_fd_sc_hd__buf_12
*CAP
1 *11542:DI[11] 0.00120392
2 *11524:DI[11] 0.00694984
3 *11533:DI[11] 0.000853725
4 *11515:DI[11] 0.000386684
5 *11434:X 0.00214977
6 *389:104 0.0101337
7 *389:102 0.00972879
8 *389:66 0.00136693
9 *389:58 0.00149096
10 *389:44 0.00363569
11 *389:42 0.00291832
12 *389:36 0.00253639
13 *389:24 0.0154741
14 *389:18 0.021112
15 *11524:DI[11] *11524:BEN[11] 0
16 *11524:DI[11] *548:20 8.96218e-05
17 *11533:DI[11] *391:88 0.00033767
18 *11542:DI[11] *11542:BEN[11] 0
19 *389:24 *558:81 8.52211e-05
20 *389:36 *11515:DI[1] 8.50117e-05
21 *389:36 *478:46 6.45647e-05
22 *389:36 *549:78 0.000854579
23 *389:36 *558:81 0.000284439
24 *389:36 *558:93 0.000390264
25 *389:36 *558:107 0.000362092
26 *389:42 *11515:AD[3] 3.37655e-05
27 *389:42 *11515:AD[9] 0.00011043
28 *389:42 *478:28 8.43478e-06
29 *389:44 *391:88 0.00205888
30 *389:58 *394:66 0.00214407
31 *389:66 *391:88 0.000283551
32 *781:DIODE *389:102 0.00014294
33 *894:DIODE *389:18 0
34 *1076:DIODE *11542:DI[11] 0
35 *11257:A1 *11515:DI[11] 0.000382989
36 *11515:DI[3] *389:36 9.22294e-06
37 *11515:DI[12] *389:24 0
38 *11515:DI[8] *389:36 0.000172276
39 *11533:DI[12] *11533:DI[11] 1.38495e-05
40 *11533:DI[15] *389:66 4.00268e-05
41 *11533:DI[13] *389:66 0.00152344
42 *178:55 *389:18 0.000219862
43 *180:62 *389:18 0.004579
44 *232:21 *389:36 0.00017841
45 *232:23 *389:24 0.000150181
46 *232:23 *389:36 0.00252411
47 *233:17 *389:36 3.3516e-05
48 *239:5 *389:102 9.20181e-05
49 *239:9 *389:102 0.000913325
50 *239:43 *389:102 0.00014294
51 *239:65 *11524:DI[11] 0
52 *239:65 *389:24 0
53 *240:20 *11524:DI[11] 0
54 *247:15 *11524:DI[11] 0.00024599
55 *249:29 *389:18 4.75829e-06
56 *265:37 *389:104 0.000131917
57 *271:10 *11533:DI[11] 0
58 *274:20 *389:58 6.68675e-05
59 *275:20 *389:66 0.000509987
60 *303:31 *11542:DI[11] 0
61 *353:10 *389:36 0.000207749
62 *358:10 *11533:DI[11] 0.00147547
63 *369:28 *389:36 4.0822e-05
64 *369:41 *11533:DI[11] 0.00265107
65 *369:41 *389:44 0.0144138
66 *372:28 *389:36 0.000303465
67 *378:41 *389:104 0
68 *378:81 *389:36 8.74345e-06
69 *378:89 *389:36 0.000555272
70 *380:28 *389:36 0.000128361
71 *380:72 *389:104 0.0228108
72 *383:64 *389:44 0.0144105
73 *383:100 *389:104 0.026233
74 *385:79 *389:36 0.00120721
75 *385:81 *389:58 0.00214407
76 *387:28 *389:24 0
77 *387:58 *389:36 0.00529465
78 *387:80 *11533:DI[11] 1.03833e-05
79 *387:80 *389:66 2.38115e-05
*RES
1 *11434:X *389:18 14.9814 
2 *389:18 *389:24 31.6378 
3 *389:24 *11515:DI[11] 8.8325 
4 *389:24 *389:36 94.455 
5 *389:36 *389:42 8.245 
6 *389:42 *389:44 162.285 
7 *389:44 *389:58 38.645 
8 *389:58 *389:66 22.675 
9 *389:66 *11533:DI[11] 35.6825 
10 *389:18 *11524:DI[11] 22.1449 
11 *11524:DI[11] *389:102 16.2575 
12 *389:102 *389:104 328.29 
13 *389:104 *11542:DI[11] 16.7825 
*END

*D_NET *390 0.000475324
*CONN
*I *11513:A I *D sky130_fd_sc_hd__dlygate4sd3_1
*I *11435:X O *D sky130_fd_sc_hd__dlygate4sd3_1
*CAP
1 *11513:A 0.00010967
2 *11435:X 0.00010967
3 *11513:A *600:16 5.8166e-05
4 *11513:A *626:8 8.40269e-05
5 *11231:B2 *11513:A 0.00011379
*RES
1 *11435:X *11513:A 9.375 
*END

*D_NET *391 0.211191
*CONN
*I *11533:DI[2] I *D CF_SRAM_1024x32
*I *11515:DI[2] I *D CF_SRAM_1024x32
*I *11542:DI[2] I *D CF_SRAM_1024x32
*I *11524:DI[2] I *D CF_SRAM_1024x32
*I *11436:X O *D sky130_fd_sc_hd__buf_12
*CAP
1 *11533:DI[2] 0.000418047
2 *11515:DI[2] 0.000456007
3 *11542:DI[2] 0.00123503
4 *11524:DI[2] 9.80497e-05
5 *11436:X 0.00707964
6 *391:88 0.0244643
7 *391:86 0.0251852
8 *391:68 0.00827353
9 *391:44 0.0100114
10 *391:42 0.00970224
11 *391:30 0.0066374
12 *391:20 0.0193716
13 *11542:DI[2] *11542:BEN[2] 0
14 *391:20 *11341:A 8.32056e-05
15 *391:20 *11343:A 0.000102863
16 *391:20 *485:16 0
17 *391:20 *491:22 0.00148659
18 *391:44 *394:108 0.00562858
19 *391:44 *402:10 0.00103944
20 *391:44 *422:74 0.0241634
21 *391:68 *11524:DI[1] 0
22 *391:68 *394:24 0
23 *391:68 *485:16 0
24 *391:68 *491:22 2.36153e-05
25 *391:68 *558:129 5.93477e-05
26 *391:86 *11515:AD[9] 0.000121141
27 *391:86 *461:36 0.000254248
28 *391:86 *463:22 4.30278e-06
29 *391:86 *467:22 6.60741e-06
30 *391:86 *472:22 4.0358e-05
31 *391:86 *558:129 0.00063632
32 *391:88 *555:41 0.000113124
33 *391:88 *629:44 0.000177535
34 *736:DIODE *11515:DI[2] 0.000317484
35 *736:DIODE *391:68 0.000115779
36 *932:DIODE *391:42 7.66388e-05
37 *1142:DIODE *11542:DI[2] 0
38 *11533:DI[12] *391:88 0.000340804
39 *11533:DI[11] *391:88 0.00033767
40 *11533:DI[13] *391:88 0.000433195
41 *143:10 *391:20 0.000143244
42 *155:16 *391:88 0.00320269
43 *157:16 *391:88 0.00271625
44 *197:18 *391:88 0.00013888
45 *201:167 *391:68 8.31339e-05
46 *202:137 *391:30 0.00301337
47 *227:7 *11515:DI[2] 0.000148874
48 *229:28 *391:88 0.000246743
49 *237:13 *391:30 3.97719e-05
50 *237:17 *391:30 0
51 *237:17 *391:68 0
52 *247:15 *391:30 4.01535e-05
53 *259:7 *11524:DI[2] 6.58339e-05
54 *259:7 *391:42 5.83121e-06
55 *259:17 *391:30 0.00882914
56 *259:17 *391:68 0.00618601
57 *259:64 *391:42 0.000502017
58 *259:71 *391:42 8.43862e-05
59 *259:78 *391:42 7.66388e-05
60 *271:16 *391:88 0.000854284
61 *275:20 *391:88 0.000177835
62 *291:11 *11533:DI[2] 0
63 *323:7 *11542:DI[2] 0
64 *357:10 *391:88 0.00205749
65 *358:10 *391:88 0.0020462
66 *376:97 *391:44 0.00108693
67 *378:89 *391:86 0.00218864
68 *383:62 *11515:DI[2] 5.04828e-05
69 *383:64 *391:88 0.00195999
70 *385:16 *391:20 0.000449715
71 *385:40 *391:44 0
72 *385:58 *391:20 2.57683e-05
73 *387:66 *391:88 0.00298575
74 *387:80 *391:88 0.000183034
75 *387:114 *391:44 0.0207647
76 *389:44 *391:88 0.00205888
77 *389:66 *391:88 0.000283551
*RES
1 *11436:X *391:20 26.9117 
2 *391:20 *391:30 27.0361 
3 *391:30 *11524:DI[2] 1.7025 
4 *391:30 *391:42 16.595 
5 *391:42 *391:44 328.545 
6 *391:44 *11542:DI[2] 18.7325 
7 *391:20 *391:68 26.6734 
8 *391:68 *11515:DI[2] 8.6025 
9 *391:68 *391:86 29.3823 
10 *391:86 *391:88 51.2012 
11 *391:88 *11533:DI[2] 5.81153 
*END

*D_NET *392 0.00112185
*CONN
*I *11338:A I *D sky130_fd_sc_hd__dlygate4sd3_1
*I *11437:X O *D sky130_fd_sc_hd__dlygate4sd3_1
*CAP
1 *11338:A 0.000394086
2 *11437:X 0.000394086
3 *11338:A *11569:A 0
4 *11338:A *11618:A 0
5 *11338:A *592:20 8.53307e-05
6 *11324:RESET_B *11338:A 0.000224042
7 *11337:A *11338:A 2.43084e-05
*RES
1 *11437:X *11338:A 14.43 
*END

*D_NET *393 0.0392606
*CONN
*I *11441:A I *D sky130_fd_sc_hd__buf_12
*I *11557:X O *D sky130_fd_sc_hd__buf_12
*CAP
1 *11441:A 0.000104708
2 *11557:X 0.00109208
3 *393:16 0.00559831
4 *393:14 0.00551441
5 *393:12 0.00385905
6 *393:10 0.00493032
7 *11441:A *396:20 0
8 *393:10 *11440:A 0
9 *393:10 *11557:A 0.000120186
10 wbs_dat_o[0] *393:10 2.68721e-05
11 *11324:CLK *393:12 0.00189686
12 *3:23 *393:12 0.000321076
13 *127:14 *393:12 0.00111356
14 *145:41 *393:16 0.000259167
15 *225:30 *393:16 0.00833819
16 *227:27 *393:12 0.000102021
17 *228:26 *393:12 0.00166029
18 *228:26 *393:16 0.000176551
19 *233:27 *393:12 0.00414689
*RES
1 *11557:X *393:10 23.555 
2 *393:10 *393:12 78.9375 
3 *393:12 *393:14 0.36 
4 *393:14 *393:16 78.5925 
5 *393:16 *11441:A 7.235 
*END

*D_NET *394 0.218093
*CONN
*I *11542:DI[1] I *D CF_SRAM_1024x32
*I *11524:DI[1] I *D CF_SRAM_1024x32
*I *11533:DI[1] I *D CF_SRAM_1024x32
*I *11515:DI[1] I *D CF_SRAM_1024x32
*I *11439:X O *D sky130_fd_sc_hd__buf_12
*CAP
1 *11542:DI[1] 0.00141164
2 *11524:DI[1] 0.0116356
3 *11533:DI[1] 0.000409035
4 *11515:DI[1] 0.00067586
5 *11439:X 0.0102488
6 *394:108 0.0203018
7 *394:106 0.0200719
8 *394:68 0.00336179
9 *394:66 0.0036324
10 *394:60 0.00408289
11 *394:58 0.00426631
12 *394:37 0
13 *394:24 0.00934209
14 *394:18 0.0285059
15 *11542:DI[1] *11542:BEN[0] 1.93765e-05
16 *11542:DI[1] *427:64 1.79483e-05
17 *394:58 *11515:AD[2] 0.000103491
18 *394:58 *11515:AD[4] 5.16211e-05
19 *394:58 *11515:AD[5] 8.35068e-05
20 *394:58 *11515:DI[0] 0.000150792
21 *394:58 *396:102 0.000687968
22 *394:58 *461:36 0.000390182
23 *394:58 *558:129 0.000283754
24 *394:58 *631:66 0.00120382
25 *394:60 *433:46 8.50173e-05
26 *394:60 *463:36 0.00249529
27 *394:60 *465:36 4.08276e-05
28 *394:60 *478:46 0.00182608
29 *394:60 *552:84 0.000819694
30 *394:60 *555:41 0.00033769
31 *394:60 *555:53 0.000605204
32 *394:60 *555:70 0.000763144
33 *394:60 *629:10 0.000600158
34 *394:60 *629:30 0.000415096
35 *394:60 *630:10 0.000555968
36 *394:60 *630:22 0.000695343
37 *394:60 *630:36 0.000588923
38 *394:66 *463:36 0.00223416
39 *394:68 *11533:BEN[8] 0.000585388
40 *394:68 *11533:BEN[0] 0.000329381
41 *394:68 *463:36 0.00102577
42 *394:68 *558:289 0.000705693
43 *394:68 *558:301 0.000695526
44 *394:68 *558:313 0.000791332
45 *394:68 *558:325 0.000723006
46 *394:68 *631:211 0.000711261
47 *394:68 *631:223 0.000614573
48 *394:68 *631:235 0.000695526
49 *394:68 *631:248 0.000673592
50 *394:68 *631:265 0.000614573
51 *394:106 *418:34 1.79536e-05
52 *394:106 *422:24 0.000119762
53 *394:108 *396:52 0.0300042
54 *394:108 *422:74 0.00524446
55 *710:DIODE *11515:DI[1] 0.000257152
56 *1118:DIODE *11542:DI[1] 0
57 *11295:B2 *394:18 0.000123409
58 *141:24 *394:60 0.000172676
59 *141:34 *394:60 0.000362615
60 *167:86 *394:18 7.33639e-05
61 *197:16 *394:58 1.28019e-05
62 *201:167 *394:58 0.000327832
63 *216:7 *11515:DI[1] 0.000148874
64 *222:17 *394:60 0.00051382
65 *237:13 *11524:DI[1] 0.000172276
66 *247:15 *11524:DI[1] 0.000178632
67 *248:7 *394:106 6.76956e-05
68 *248:21 *11524:DI[1] 0
69 *248:61 *394:106 0.000464688
70 *259:17 *11524:DI[1] 0
71 *274:20 *394:68 0.0020442
72 *280:9 *11533:DI[1] 0
73 *312:5 *11542:DI[1] 0
74 *353:8 *394:58 0.000142801
75 *357:10 *394:68 0
76 *376:95 *394:106 1.93834e-05
77 *376:97 *394:108 0.00560095
78 *378:89 *394:58 0.000399387
79 *385:79 *11515:DI[1] 8.38966e-05
80 *385:81 *394:60 0.0128589
81 *385:81 *394:66 3.72985e-05
82 *385:81 *394:68 0.0096193
83 *389:36 *11515:DI[1] 8.50117e-05
84 *389:58 *394:66 0.00214407
85 *391:44 *394:108 0.00562858
86 *391:68 *11524:DI[1] 0
87 *391:68 *394:24 0
*RES
1 *11439:X *394:18 28.6488 
2 *394:18 *394:24 18.5503 
3 *394:24 *11515:DI[1] 11.0066 
4 *11515:DI[1] *394:37 0.163333 
5 *394:24 *394:58 37.6675 
6 *394:58 *394:60 150.428 
7 *394:60 *394:66 27.525 
8 *394:66 *394:68 128.497 
9 *394:68 *11533:DI[1] 8.7425 
10 *394:18 *11524:DI[1] 31.5755 
11 *11524:DI[1] *394:106 14.0292 
12 *394:106 *394:108 55.5079 
13 *394:108 *11542:DI[1] 13.1973 
*END

*D_NET *395 0.000510675
*CONN
*I *11345:A I *D sky130_fd_sc_hd__dlygate4sd3_1
*I *11440:X O *D sky130_fd_sc_hd__dlygate4sd3_1
*CAP
1 *11345:A 0.000240093
2 *11440:X 0.000240093
3 *11345:A *11440:A 3.04882e-05
*RES
1 *11440:X *11345:A 10.065 
*END

*D_NET *396 0.234242
*CONN
*I *11533:DI[0] I *D CF_SRAM_1024x32
*I *11515:DI[0] I *D CF_SRAM_1024x32
*I *11542:DI[0] I *D CF_SRAM_1024x32
*I *11524:DI[0] I *D CF_SRAM_1024x32
*I *11441:X O *D sky130_fd_sc_hd__buf_12
*CAP
1 *11533:DI[0] 0.000368899
2 *11515:DI[0] 0.000652587
3 *11542:DI[0] 0.00134993
4 *11524:DI[0] 6.41657e-05
5 *11441:X 0.0098806
6 *396:104 0.00645735
7 *396:102 0.00677261
8 *396:78 0.00612522
9 *396:52 0.0148227
10 *396:50 0.0147164
11 *396:35 0
12 *396:30 0.0102302
13 *396:20 0.0235916
14 *11515:DI[0] *11515:ScanInDL 0
15 *11515:DI[0] *478:28 4.91194e-05
16 *11542:DI[0] *405:44 3.47296e-05
17 *11542:DI[0] *427:64 4.51822e-05
18 *396:30 *478:28 0.00115785
19 *396:30 *478:66 0.00419093
20 *396:50 *422:32 8.41703e-06
21 *396:52 *400:50 0.00491136
22 *396:52 *402:10 0.00117129
23 *396:52 *402:58 0.00402463
24 *396:52 *407:10 0.000921635
25 *396:52 *407:46 0.00303835
26 *396:52 *409:10 0.00109729
27 *396:52 *409:46 0.00292051
28 *396:52 *411:54 0.00260494
29 *396:52 *413:54 0.00260494
30 *396:78 *478:28 0.0104838
31 *396:102 *11515:DI[16] 0.000191335
32 *396:102 *418:48 0.000220017
33 *396:102 *478:28 8.58806e-05
34 *396:102 *491:44 0.000100952
35 *396:102 *631:66 1.02032e-05
36 *396:102 *631:68 0.00140666
37 *396:104 *461:36 0.0262273
38 *396:104 *483:44 0.00579409
39 *396:104 *558:129 0.0118999
40 *396:104 *629:72 1.71207e-05
41 *396:104 *629:74 0.0142928
42 *699:DIODE *11515:DI[0] 0.000423882
43 *1058:DIODE *11542:DI[0] 0
44 *11441:A *396:20 0
45 *11533:ScanInDL *11533:DI[0] 0.000943094
46 *11542:ScanInDL *11542:DI[0] 0.000785737
47 *167:76 *396:20 0
48 *167:76 *396:78 0
49 *167:86 *396:20 0
50 *201:167 *11515:DI[0] 5.8595e-05
51 *201:167 *396:102 0.00124811
52 *205:7 *11515:DI[0] 0.000148874
53 *212:12 *396:102 0.000193011
54 *218:32 *396:20 0
55 *228:22 *396:102 0.000218215
56 *237:7 *11524:DI[0] 6.58339e-05
57 *237:7 *396:50 2.49909e-05
58 *237:13 *396:30 3.97719e-05
59 *237:57 *396:50 0.000348739
60 *247:15 *396:30 4.01535e-05
61 *256:19 *396:50 1.93834e-05
62 *269:9 *11533:DI[0] 8.43113e-05
63 *301:5 *11542:DI[0] 0
64 *374:60 *396:52 0.00421285
65 *394:58 *11515:DI[0] 0.000150792
66 *394:58 *396:102 0.000687968
67 *394:108 *396:52 0.0300042
*RES
1 *11441:X *396:20 32.2686 
2 *396:20 *396:30 30.4156 
3 *396:30 *11524:DI[0] 1.14 
4 *11524:DI[0] *396:35 0.133636 
5 *396:30 *396:50 11.1296 
6 *396:50 *396:52 55.5079 
7 *396:52 *11542:DI[0] 13.5521 
8 *396:20 *396:78 17.4426 
9 *396:78 *11515:DI[0] 14.405 
10 *396:78 *396:102 31.8625 
11 *396:102 *396:104 302.025 
12 *396:104 *11533:DI[0] 11.3525 
*END

*D_NET *397 0.000780949
*CONN
*I *11347:A I *D sky130_fd_sc_hd__dlygate4sd3_1
*I *11442:X O *D sky130_fd_sc_hd__dlygate4sd3_1
*CAP
1 *11347:A 0.000316037
2 *11442:X 0.000316037
3 *11347:A *504:12 0
4 *11347:A *610:24 5.27885e-05
5 *11347:A *617:14 5.92178e-05
6 wbs_dat_o[19] *11347:A 3.68682e-05
*RES
1 *11442:X *11347:A 12.105 
*END

*D_NET *398 0.162026
*CONN
*I *11533:DI[19] I *D CF_SRAM_1024x32
*I *11542:DI[19] I *D CF_SRAM_1024x32
*I *11524:DI[19] I *D CF_SRAM_1024x32
*I *11515:DI[19] I *D CF_SRAM_1024x32
*I *11443:X O *D sky130_fd_sc_hd__buf_12
*CAP
1 *11533:DI[19] 0.00032922
2 *11542:DI[19] 0.00019515
3 *11524:DI[19] 0.000221417
4 *11515:DI[19] 0.000887208
5 *11443:X 0.00017865
6 *398:80 0.0202607
7 *398:58 0.0203006
8 *398:54 0.00753596
9 *398:52 0.00763322
10 *398:40 0.000518341
11 *398:28 0.0186129
12 *398:18 0.0190126
13 *398:16 0.00155117
14 *398:10 0.00153898
15 *398:8 0.00142758
16 *398:8 *11443:A 8.40213e-05
17 *398:10 *418:34 0.00031539
18 *398:10 *422:32 0.00105528
19 *398:10 *572:24 0.00278847
20 *398:10 *576:8 0.000508527
21 *398:16 *461:66 0.000188805
22 *398:16 *478:78 0.000229309
23 *398:18 *11524:AD[2] 0.00017042
24 *398:18 *11524:AD[6] 4.69148e-06
25 *398:18 *422:60 3.97748e-05
26 *398:18 *461:54 6.32577e-05
27 *398:18 *463:55 1.23312e-05
28 *398:18 *467:58 6.63219e-06
29 *398:28 *400:34 0
30 *398:28 *476:62 1.7635e-05
31 *398:28 *631:68 1.88904e-05
32 *398:54 *405:24 0.000415253
33 *398:54 *405:44 0.0266785
34 *398:54 *467:82 0.00208616
35 *398:54 *565:10 0.00829928
36 *398:80 *629:74 0
37 *1116:DIODE *398:54 0
38 *1116:DIODE *398:58 0.000205124
39 *11318:A0 *398:54 0.00136813
40 *11524:EN *398:18 0.00139562
41 *186:12 *398:54 0.00598793
42 *215:11 *11515:DI[19] 0
43 *246:63 *398:18 0.00175488
44 *247:13 *398:18 0.00073642
45 *247:15 *398:18 0
46 *252:17 *398:18 0.000488869
47 *252:17 *398:40 7.51814e-05
48 *256:19 *398:54 0.000871103
49 *258:14 *398:18 0.00152461
50 *258:14 *398:40 4.5636e-05
51 *279:9 *11533:DI[19] 0.000501928
52 *279:15 *398:80 6.16226e-06
53 *311:9 *11542:DI[19] 0
54 *311:9 *398:58 0
55 *311:11 *398:54 0
56 *319:27 *398:80 1.79483e-05
57 *376:87 *398:10 0.00274316
58 *376:95 *398:10 0.00111743
*RES
1 *11443:X *398:8 6.12 
2 *398:8 *398:10 54.42 
3 *398:10 *398:16 10.315 
4 *398:16 *398:18 48.9375 
5 *398:18 *398:28 46.213 
6 *398:28 *11515:DI[19] 10.98 
7 *398:18 *398:40 2.9975 
8 *398:40 *11524:DI[19] 3.465 
9 *398:40 *398:52 5.9 
10 *398:52 *398:54 328.29 
11 *398:54 *398:58 5.9 
12 *398:58 *11542:DI[19] 2.805 
13 *398:58 *398:80 49.1667 
14 *398:80 *11533:DI[19] 8.07 
*END

*D_NET *399 0.000591074
*CONN
*I *11352:A I *D sky130_fd_sc_hd__dlygate4sd3_1
*I *11444:X O *D sky130_fd_sc_hd__dlygate4sd3_1
*CAP
1 *11352:A 0.000199528
2 *11444:X 0.000199528
3 *11352:A *11432:A 0
4 *11352:A *11570:A 3.04882e-05
5 *11352:A *620:12 0.000161529
*RES
1 *11444:X *11352:A 10.575 
*END

*D_NET *400 0.172669
*CONN
*I *11533:DI[20] I *D CF_SRAM_1024x32
*I *11542:DI[20] I *D CF_SRAM_1024x32
*I *11515:DI[20] I *D CF_SRAM_1024x32
*I *11524:DI[20] I *D CF_SRAM_1024x32
*I *11445:X O *D sky130_fd_sc_hd__buf_12
*CAP
1 *11533:DI[20] 0.000497447
2 *11542:DI[20] 7.75493e-05
3 *11515:DI[20] 0.000739092
4 *11524:DI[20] 9.22676e-05
5 *11445:X 0.000685375
6 *400:80 0.0180532
7 *400:54 0.0185649
8 *400:50 0.0100034
9 *400:48 0.00907176
10 *400:34 0.0184905
11 *400:16 0.0192604
12 *400:14 0.001993
13 *400:10 0.00306047
14 *400:8 0.00316954
15 *11515:DI[20] *476:62 0.000194202
16 *11515:DI[20] *631:68 0.000196458
17 *400:10 *411:10 0.000406086
18 *400:10 *416:10 0.00683913
19 *400:50 *402:18 0.000209179
20 *400:50 *402:58 0.0280754
21 *400:50 *409:10 0
22 *400:50 *422:74 0
23 *886:DIODE *11524:DI[20] 1.3582e-05
24 *886:DIODE *400:16 9.5149e-05
25 *1120:DIODE *400:54 0.000942409
26 *217:11 *11515:DI[20] 0.00045018
27 *217:20 *11515:DI[20] 1.1392e-05
28 *249:23 *400:34 0.000295773
29 *252:17 *400:34 0.00011559
30 *254:13 *400:34 0.000110301
31 *281:9 *11533:DI[20] 0.00067149
32 *281:18 *11533:DI[20] 5.05437e-05
33 *281:18 *400:80 0.000177439
34 *292:11 *400:80 2.39642e-05
35 *313:5 *11542:DI[20] 6.31917e-05
36 *313:5 *400:54 2.03411e-05
37 *314:17 *400:80 0
38 *316:17 *400:80 7.96104e-06
39 *318:13 *400:80 1.7635e-05
40 *365:80 *400:10 0.00932932
41 *374:60 *400:50 0.0127087
42 *376:97 *400:50 0.00297377
43 *396:52 *400:50 0.00491136
44 *398:28 *400:34 0
*RES
1 *11445:X *400:8 13.02 
2 *400:8 *400:10 106.695 
3 *400:10 *400:14 7.625 
4 *400:14 *400:16 16.32 
5 *400:16 *11524:DI[20] 1.5 
6 *400:16 *400:34 48.3332 
7 *400:34 *11515:DI[20] 15.3425 
8 *400:14 *400:48 2 
9 *400:48 *400:50 329.82 
10 *400:50 *400:54 18.665 
11 *400:54 *11542:DI[20] 1.44 
12 *400:54 *400:80 48.8263 
13 *400:80 *11533:DI[20] 11.445 
*END

*D_NET *401 0.000481849
*CONN
*I *11354:A I *D sky130_fd_sc_hd__dlygate4sd3_1
*I *11446:X O *D sky130_fd_sc_hd__dlygate4sd3_1
*CAP
1 *11354:A 0.000188811
2 *11446:X 0.000188811
3 *11354:A *11434:A 0.000104227
4 *11354:A *537:10 0
*RES
1 *11446:X *11354:A 10.62 
*END

*D_NET *402 0.176884
*CONN
*I *11533:DI[21] I *D CF_SRAM_1024x32
*I *11542:DI[21] I *D CF_SRAM_1024x32
*I *11515:DI[21] I *D CF_SRAM_1024x32
*I *11524:DI[21] I *D CF_SRAM_1024x32
*I *11447:X O *D sky130_fd_sc_hd__buf_12
*CAP
1 *11533:DI[21] 0.000424674
2 *11542:DI[21] 0.0187611
3 *11515:DI[21] 0.000782913
4 *11524:DI[21] 9.98884e-05
5 *11447:X 0.000234194
6 *402:82 0.0181945
7 *402:58 0.00767795
8 *402:53 6.9367e-06
9 *402:44 0.0188935
10 *402:22 0.0196665
11 *402:18 0.0082954
12 *402:10 0.00300972
13 *402:8 0.00308429
14 *402:18 *409:10 8.56227e-05
15 *402:44 *476:62 1.7635e-05
16 *402:44 *631:68 1.88904e-05
17 *402:58 *409:10 0.000864662
18 *402:58 *409:46 0.000256005
19 *402:58 *411:18 0.000100156
20 *402:58 *411:54 0.0259459
21 *402:82 *405:56 0
22 *402:82 *629:74 0
23 *890:DIODE *11524:DI[21] 1.24302e-05
24 *890:DIODE *402:22 9.55469e-05
25 *1123:DIODE *11542:DI[21] 0.000978144
26 *218:11 *11515:DI[21] 0.000259859
27 *218:20 *11515:DI[21] 4.87485e-06
28 *250:23 *402:44 0.000135068
29 *251:17 *402:44 1.79536e-05
30 *252:17 *402:44 8.41703e-06
31 *282:11 *11533:DI[21] 8.25259e-05
32 *314:7 *11542:DI[21] 8.65905e-05
33 *314:17 *402:82 0
34 *316:17 *402:82 1.79536e-05
35 *319:23 *11542:DI[21] 0.000119756
36 *319:23 *402:82 2.88598e-05
37 *374:60 *402:10 0.00946292
38 *376:97 *402:10 0.00463313
39 *387:114 *402:10 0
40 *391:44 *402:10 0.00103944
41 *396:52 *402:10 0.00117129
42 *396:52 *402:58 0.00402463
43 *400:50 *402:18 0.000209179
44 *400:50 *402:58 0.0280754
*RES
1 *11447:X *402:8 6.81 
2 *402:8 *402:10 108.48 
3 *402:10 *402:18 7.54 
4 *402:18 *402:22 18.665 
5 *402:22 *11524:DI[21] 1.515 
6 *402:22 *402:44 48.2707 
7 *402:44 *11515:DI[21] 10.92 
8 *11515:DI[21] *402:53 0.12 
9 *402:18 *402:58 329.82 
10 *402:58 *11542:DI[21] 20.36 
11 *11542:DI[21] *402:82 49.7167 
12 *402:82 *11533:DI[21] 9.815 
*END

*D_NET *403 0.00193648
*CONN
*I *11360:A I *D sky130_fd_sc_hd__dlygate4sd3_1
*I *11448:X O *D sky130_fd_sc_hd__dlygate4sd3_1
*CAP
1 *11360:A 0.000784251
2 *11448:X 0.000784251
3 *11360:A *11351:A 0
4 *11360:A *11451:A 0
5 *11360:A *11623:A 2.68464e-05
6 *11360:A *617:16 0.000190907
7 wbs_dat_o[22] *11360:A 0.00015022
*RES
1 *11448:X *11360:A 17.22 
*END

*D_NET *404 0.0219213
*CONN
*I *11427:A I *D sky130_fd_sc_hd__buf_12
*I *11558:X O *D sky130_fd_sc_hd__buf_12
*CAP
1 *11427:A 2.62445e-05
2 *11558:X 0.000610978
3 *404:24 0.00145673
4 *404:22 0.00313208
5 *404:18 0.00231257
6 *404:18 *11328:A 0.000159894
7 *404:18 *11506:A 0.000145184
8 *404:18 *11558:A 2.89429e-05
9 *404:18 *567:18 0.00013521
10 *404:22 *605:6 9.80943e-06
11 *404:24 *11449:A 0.000358525
12 *404:24 *11471:A 0.000988255
13 *404:24 *605:6 0.00300301
14 *11247:A *404:24 8.05167e-05
15 *11284:B2 *404:22 0.00393949
16 *11316:B2 *11427:A 5.26511e-05
17 *11316:B2 *404:24 0.00076097
18 *11322:A2 *404:24 0.00105679
19 *11397:A *404:18 6.95597e-05
20 *115:16 *404:22 0.00152092
21 *115:16 *404:24 0.000522531
22 *118:43 *404:18 7.06865e-05
23 *118:81 *404:24 0.000747935
24 *122:56 *404:18 0
25 *360:10 *404:18 0.000142661
26 *371:42 *404:22 0.000589125
*RES
1 *11558:X *404:18 17.645 
2 *404:18 *404:22 46.26 
3 *404:22 *404:24 49.44 
4 *404:24 *11427:A 2.215 
*END

*D_NET *405 0.170973
*CONN
*I *11542:DI[22] I *D CF_SRAM_1024x32
*I *11533:DI[22] I *D CF_SRAM_1024x32
*I *11515:DI[22] I *D CF_SRAM_1024x32
*I *11524:DI[22] I *D CF_SRAM_1024x32
*I *11450:X O *D sky130_fd_sc_hd__buf_12
*CAP
1 *11542:DI[22] 0.000354712
2 *11533:DI[22] 0.000483794
3 *11515:DI[22] 0.000831292
4 *11524:DI[22] 0.000338727
5 *11450:X 0
6 *405:56 0.0179572
7 *405:48 0.0182614
8 *405:44 0.00846338
9 *405:34 0.0203651
10 *405:24 0.0276842
11 *405:12 0.00103078
12 *405:8 0.00726406
13 *405:6 0.00669233
14 *11515:DI[22] *11515:BEN[22] 6.08364e-05
15 *11515:DI[22] *630:54 1.68788e-05
16 *405:34 *407:36 0.00614499
17 *405:34 *476:62 0.000270716
18 *405:34 *631:68 0.000272562
19 *405:44 *11524:BEN[31] 0.000305641
20 *405:44 *11542:BEN[16] 9.90012e-05
21 *405:44 *11542:AD[0] 0
22 *405:44 *11542:BEN[8] 0.000233702
23 *405:44 *11542:AD[4] 0
24 *405:44 *11542:AD[6] 4.78488e-05
25 *405:44 *11542:AD[7] 4.49044e-05
26 *405:44 *11542:BEN[0] 0.000326647
27 *405:44 *427:64 0
28 *405:44 *463:73 0
29 *405:44 *467:82 0.00308085
30 *405:44 *555:124 1.82476e-05
31 *405:44 *555:137 0.000341948
32 *405:44 *555:149 0.000312942
33 *405:44 *555:161 0.000275817
34 *405:44 *555:173 0.000309159
35 *405:44 *558:185 0.000182888
36 *405:44 *558:197 0.000259272
37 *405:44 *558:209 0.000294051
38 *405:44 *558:221 0.000316481
39 *405:44 *558:233 0.000336813
40 *405:44 *630:110 0.000202182
41 *405:44 *630:122 0.000260709
42 *405:44 *630:134 0.000296298
43 *405:44 *630:146 0.000316472
44 *405:44 *630:159 0.000314955
45 *405:44 *630:172 2.97206e-06
46 *405:44 *631:110 0.000319451
47 *405:44 *631:122 0.000316481
48 *405:44 *631:134 0.000273719
49 *405:44 *631:146 0.000314405
50 *405:44 *631:159 0.000265651
51 *893:DIODE *11524:DI[22] 0.00033872
52 *893:DIODE *405:12 0.000205038
53 *1125:DIODE *11542:DI[22] 0.000119118
54 *11542:DI[0] *405:44 3.47296e-05
55 *219:11 *11515:DI[22] 0
56 *251:7 *11524:DI[22] 4.66742e-05
57 *256:19 *405:24 0.000228062
58 *256:19 *405:44 0.00161398
59 *283:11 *11533:DI[22] 0.00090774
60 *283:20 *11533:DI[22] 5.05437e-05
61 *292:11 *405:56 0.000134761
62 *306:16 *405:44 0.00415608
63 *315:9 *11542:DI[22] 0
64 *315:29 *11542:DI[22] 1.79483e-05
65 *315:29 *405:56 7.91904e-05
66 *316:17 *11542:DI[22] 0.000120564
67 *383:100 *405:8 0.00966349
68 *398:54 *405:24 0.000415253
69 *398:54 *405:44 0.0266785
70 *402:82 *405:56 0
*RES
1 *11450:X *405:6 3.6 
2 *405:6 *405:8 114.855 
3 *405:8 *405:12 8.66 
4 *405:12 *11524:DI[22] 6.705 
5 *405:12 *405:24 6.8225 
6 *405:24 *405:34 49.9722 
7 *405:34 *11515:DI[22] 11.7 
8 *405:24 *405:44 321.405 
9 *405:44 *405:48 1.2372 
10 *405:48 *405:56 49.2248 
11 *405:56 *11533:DI[22] 11.475 
12 *405:48 *11542:DI[22] 9.1525 
*END

*D_NET *406 0.0013183
*CONN
*I *11365:A I *D sky130_fd_sc_hd__dlygate4sd3_1
*I *11451:X O *D sky130_fd_sc_hd__dlygate4sd3_1
*CAP
1 *11365:A 0.000525531
2 *11451:X 0.000525531
3 *11365:A *11451:A 0.000154859
4 *11365:A *620:12 0.000112383
*RES
1 *11451:X *11365:A 13.86 
*END

*D_NET *407 0.177534
*CONN
*I *11533:DI[23] I *D CF_SRAM_1024x32
*I *11542:DI[23] I *D CF_SRAM_1024x32
*I *11515:DI[23] I *D CF_SRAM_1024x32
*I *11524:DI[23] I *D CF_SRAM_1024x32
*I *11452:X O *D sky130_fd_sc_hd__buf_12
*CAP
1 *11533:DI[23] 0.000548976
2 *11542:DI[23] 7.87342e-05
3 *11515:DI[23] 0.000685769
4 *11524:DI[23] 6.6608e-05
5 *11452:X 0.000409674
6 *407:72 0.0182206
7 *407:50 0.0188029
8 *407:46 0.0086376
9 *407:36 0.0155065
10 *407:14 0.0163751
11 *407:10 0.0123558
12 *407:8 0.00369252
13 *407:10 *409:10 0.0100391
14 *407:10 *418:74 0.00490427
15 *407:10 *461:68 0.00117288
16 *407:10 *577:12 0.000126231
17 *407:36 *476:62 6.5536e-05
18 *407:46 *409:10 0.000717328
19 *407:46 *409:46 0.0281031
20 *407:46 *418:74 0.0238732
21 *896:DIODE *407:14 0.000476716
22 *1018:DIODE *11533:DI[23] 1.1392e-05
23 *1127:DIODE *407:50 0.000873503
24 *220:11 *11515:DI[23] 0.000724027
25 *220:20 *11515:DI[23] 2.01259e-05
26 *228:22 *407:36 6.32332e-05
27 *252:7 *11524:DI[23] 4.66742e-05
28 *252:7 *407:14 6.31732e-05
29 *252:17 *407:36 1.38716e-05
30 *254:13 *407:36 8.39586e-05
31 *258:14 *407:36 0
32 *284:11 *11533:DI[23] 0.000387087
33 *292:11 *407:72 7.18452e-06
34 *316:7 *11542:DI[23] 8.57024e-05
35 *316:7 *407:50 0.000109883
36 *318:11 *407:72 4.01548e-05
37 *319:23 *407:72 4.01548e-05
38 *396:52 *407:10 0.000921635
39 *396:52 *407:46 0.00303835
40 *405:34 *407:36 0.00614499
*RES
1 *11452:X *407:8 9.225 
2 *407:8 *407:10 118.935 
3 *407:10 *407:14 20.39 
4 *407:14 *11524:DI[23] 1.2 
5 *407:14 *407:36 49.4292 
6 *407:36 *11515:DI[23] 11.46 
7 *407:10 *407:46 329.82 
8 *407:46 *407:50 20.39 
9 *407:50 *11542:DI[23] 1.485 
10 *407:50 *407:72 48.4092 
11 *407:72 *11533:DI[23] 10.98 
*END

*D_NET *408 0.00197837
*CONN
*I *11367:A I *D sky130_fd_sc_hd__dlygate4sd3_1
*I *11453:X O *D sky130_fd_sc_hd__dlygate4sd3_1
*CAP
1 *11367:A 0.00082745
2 *11453:X 0.00082745
3 *11367:A *11455:A 2.97897e-05
4 *11367:A *11624:A 8.7152e-06
5 *11367:A *620:12 0.000284962
6 *11368:A *11367:A 0
*RES
1 *11453:X *11367:A 17.88 
*END

*D_NET *409 0.192576
*CONN
*I *11533:DI[24] I *D CF_SRAM_1024x32
*I *11542:DI[24] I *D CF_SRAM_1024x32
*I *11515:DI[24] I *D CF_SRAM_1024x32
*I *11524:DI[24] I *D CF_SRAM_1024x32
*I *11454:X O *D sky130_fd_sc_hd__buf_12
*CAP
1 *11533:DI[24] 0.000554793
2 *11542:DI[24] 2.98685e-05
3 *11515:DI[24] 0.000663657
4 *11524:DI[24] 0.0130935
5 *11454:X 0.000392498
6 *409:72 0.0151361
7 *409:50 0.0159872
8 *409:46 0.00796447
9 *409:34 0.0122732
10 *409:10 0.012091
11 *409:8 0.00441117
12 *11533:DI[24] *11533:BEN[24] 0
13 *11533:DI[24] *629:74 0
14 *11533:DI[24] *629:82 0
15 *409:10 *577:12 0.00139709
16 *409:34 *11524:BEN[24] 0.0280915
17 *409:34 *555:20 0.000353854
18 *409:34 *558:129 4.01019e-05
19 *409:34 *630:66 3.82741e-05
20 *409:46 *411:18 5.55344e-05
21 *409:46 *411:54 0.000336909
22 *409:46 *413:18 0.000194775
23 *409:46 *413:54 0.027373
24 *409:72 *629:189 0.00631305
25 *899:DIODE *11524:DI[24] 0.000545573
26 *1129:DIODE *409:50 0.000311471
27 *221:11 *11515:DI[24] 5.94384e-05
28 *222:17 *11515:DI[24] 0.000369386
29 *253:7 *11524:DI[24] 4.66742e-05
30 *253:21 *409:34 0.000108622
31 *254:13 *409:34 1.79536e-05
32 *285:11 *11533:DI[24] 0
33 *317:7 *11542:DI[24] 4.05674e-06
34 *317:7 *409:50 1.90662e-05
35 *317:21 *409:72 0
36 *318:11 *409:72 0.000109394
37 *319:23 *409:72 0.000109394
38 *374:60 *409:10 0
39 *396:52 *409:10 0.00109729
40 *396:52 *409:46 0.00292051
41 *400:50 *409:10 0
42 *402:18 *409:10 8.56227e-05
43 *402:58 *409:10 0.000864662
44 *402:58 *409:46 0.000256005
45 *407:10 *409:10 0.0100391
46 *407:46 *409:10 0.000717328
47 *407:46 *409:46 0.0281031
*RES
1 *11454:X *409:8 8.88 
2 *409:8 *409:10 123.015 
3 *409:10 *11524:DI[24] 21.155 
4 *11524:DI[24] *409:34 48.1423 
5 *409:34 *11515:DI[24] 11.87 
6 *409:10 *409:46 330.585 
7 *409:46 *409:50 20.735 
8 *409:50 *11542:DI[24] 0.615 
9 *409:50 *409:72 49.5026 
10 *409:72 *11533:DI[24] 11.4425 
*END

*D_NET *410 0.000174651
*CONN
*I *11369:A I *D sky130_fd_sc_hd__dlygate4sd3_1
*I *11455:X O *D sky130_fd_sc_hd__dlygate4sd3_1
*CAP
1 *11369:A 4.61528e-05
2 *11455:X 4.61528e-05
3 *11369:A *620:12 8.23457e-05
*RES
1 *11455:X *11369:A 3.995 
*END

*D_NET *411 0.181114
*CONN
*I *11533:DI[25] I *D CF_SRAM_1024x32
*I *11542:DI[25] I *D CF_SRAM_1024x32
*I *11515:DI[25] I *D CF_SRAM_1024x32
*I *11524:DI[25] I *D CF_SRAM_1024x32
*I *11456:X O *D sky130_fd_sc_hd__buf_12
*CAP
1 *11533:DI[25] 0.000490032
2 *11542:DI[25] 8.07956e-05
3 *11515:DI[25] 0.000793406
4 *11524:DI[25] 7.92317e-05
5 *11456:X 0.000663263
6 *411:80 0.0148945
7 *411:58 0.0154436
8 *411:54 0.00798995
9 *411:42 0.0185541
10 *411:22 0.019166
11 *411:18 0.00874824
12 *411:10 0.00290104
13 *411:8 0.00317377
14 *11515:DI[25] *555:41 0
15 *411:10 *413:10 0.0106755
16 *411:10 *416:10 0.010318
17 *411:42 *11524:BEN[24] 0
18 *411:42 *476:64 0.000151317
19 *411:42 *555:20 0
20 *411:42 *631:68 0.000153139
21 *411:54 *413:18 0.00019612
22 *411:54 *413:54 0.0280126
23 *411:80 *629:189 0.00622341
24 *913:DIODE *411:22 8.247e-05
25 *1131:DIODE *411:58 0.000948528
26 *222:17 *11515:DI[25] 0.000163332
27 *254:5 *11524:DI[25] 3.84017e-05
28 *254:11 *411:42 3.81907e-05
29 *254:13 *411:42 5.08992e-05
30 *254:93 *11524:DI[25] 2.49909e-05
31 *254:93 *411:22 0.000512356
32 *254:127 *411:22 8.247e-05
33 *258:14 *411:42 0
34 *286:11 *11533:DI[25] 0.0005722
35 *286:20 *11533:DI[25] 3.72916e-05
36 *286:20 *411:80 0.000193586
37 *292:11 *411:80 1.73506e-05
38 *318:5 *11542:DI[25] 7.59424e-05
39 *318:5 *411:58 2.44759e-05
40 *319:23 *411:80 1.7635e-05
41 *330:35 *411:42 7.66738e-05
42 *396:52 *411:54 0.00260494
43 *400:10 *411:10 0.000406086
44 *402:58 *411:18 0.000100156
45 *402:58 *411:54 0.0259459
46 *409:46 *411:18 5.55344e-05
47 *409:46 *411:54 0.000336909
*RES
1 *11456:X *411:8 12.33 
2 *411:8 *411:10 126.075 
3 *411:10 *411:18 9.37 
4 *411:18 *411:22 19.01 
5 *411:22 *11524:DI[25] 1.575 
6 *411:22 *411:42 49.5857 
7 *411:42 *11515:DI[25] 13.145 
8 *411:18 *411:54 329.82 
9 *411:54 *411:58 19.355 
10 *411:58 *11542:DI[25] 1.515 
11 *411:58 *411:80 48.4092 
12 *411:80 *11533:DI[25] 11.265 
*END

*D_NET *412 0.00130827
*CONN
*I *11371:A I *D sky130_fd_sc_hd__dlygate4sd3_1
*I *11457:X O *D sky130_fd_sc_hd__dlygate4sd3_1
*CAP
1 *11371:A 0.000553816
2 *11457:X 0.000553816
3 *11371:A *11457:A 8.51749e-05
4 *11371:A *11625:A 7.75148e-05
5 *11371:A *571:10 0
6 wbs_dat_o[26] *11371:A 3.79532e-05
*RES
1 *11457:X *11371:A 14.865 
*END

*D_NET *413 0.191258
*CONN
*I *11533:DI[26] I *D CF_SRAM_1024x32
*I *11542:DI[26] I *D CF_SRAM_1024x32
*I *11515:DI[26] I *D CF_SRAM_1024x32
*I *11524:DI[26] I *D CF_SRAM_1024x32
*I *11458:X O *D sky130_fd_sc_hd__buf_12
*CAP
1 *11533:DI[26] 0.000472668
2 *11542:DI[26] 0.0180677
3 *11515:DI[26] 0.000606673
4 *11524:DI[26] 6.84075e-05
5 *11458:X 0.000646093
6 *413:78 0.0174892
7 *413:54 0.00781319
8 *413:44 0.0240086
9 *413:22 0.024345
10 *413:18 0.0080846
11 *413:10 0.00776668
12 *413:8 0.00796494
13 *11533:DI[26] *11533:BEN[26] 0
14 *413:10 *416:10 0.000389156
15 *413:44 *558:129 3.96088e-05
16 *413:44 *630:66 3.79595e-05
17 *1134:DIODE *11542:DI[26] 0.00094675
18 *223:13 *11515:DI[26] 0.000497022
19 *255:11 *11524:DI[26] 9.51551e-05
20 *255:11 *413:22 0.000990366
21 *255:20 *413:22 0.000872084
22 *258:14 *413:44 0
23 *287:7 *11533:DI[26] 0
24 *292:11 *413:78 0
25 *319:5 *11542:DI[26] 0.000106771
26 *320:20 *413:78 0.000261092
27 *321:26 *413:78 0.000631025
28 *396:52 *413:54 0.00260494
29 *409:46 *413:18 0.000194775
30 *409:46 *413:54 0.027373
31 *411:10 *413:10 0.0106755
32 *411:54 *413:18 0.00019612
33 *411:54 *413:54 0.0280126
*RES
1 *11458:X *413:8 11.985 
2 *413:8 *413:10 129.9 
3 *413:10 *413:18 9.955 
4 *413:18 *413:22 19.7 
5 *413:22 *11524:DI[26] 1.47 
6 *413:22 *413:44 48.8973 
7 *413:44 *11515:DI[26] 10.095 
8 *413:18 *413:54 328.8 
9 *413:54 *11542:DI[26] 21.125 
10 *11542:DI[26] *413:78 49.1969 
11 *413:78 *11533:DI[26] 9.995 
*END

*D_NET *414 0.00164376
*CONN
*I *11376:A I *D sky130_fd_sc_hd__dlygate4sd3_1
*I *11459:X O *D sky130_fd_sc_hd__dlygate4sd3_1
*CAP
1 *11376:A 0.000543171
2 *11459:X 0.000543171
3 *11376:A *11459:A 0.000397106
4 *11376:A *11578:A 0
5 *11376:A *620:12 0.00016031
6 wbs_dat_o[27] *11376:A 0
*RES
1 *11459:X *11376:A 15.9 
*END

*D_NET *415 0.0261565
*CONN
*I *11434:A I *D sky130_fd_sc_hd__buf_12
*I *11559:X O *D sky130_fd_sc_hd__buf_12
*CAP
1 *11434:A 0.00104718
2 *11559:X 0.000175767
3 *415:12 0.00254619
4 *415:10 0.00167477
5 *11434:A *11446:A 0
6 *11434:A *11620:A 0
7 *11434:A *537:10 0
8 *415:12 *493:12 0.00336018
9 *415:12 *585:14 0.00507161
10 *415:12 *604:14 0.00132936
11 *415:12 *608:14 0.00151745
12 *415:12 *613:14 0.00370235
13 *415:12 *622:14 0.00503331
14 wbs_dat_o[11] *415:10 0
15 wbs_dat_o[21] *11434:A 0
16 *894:DIODE *11434:A 0.000202889
17 *11353:A *11434:A 0
18 *11354:A *11434:A 0.000104227
19 *11419:A *415:10 0
20 *176:135 *11434:A 0.000143266
21 *176:141 *11434:A 0.000178232
22 *176:164 *11434:A 6.97202e-05
*RES
1 *11559:X *415:10 8.255 
2 *415:10 *415:12 99.465 
3 *415:12 *11434:A 24.185 
*END

*D_NET *416 0.177717
*CONN
*I *11533:DI[27] I *D CF_SRAM_1024x32
*I *11542:DI[27] I *D CF_SRAM_1024x32
*I *11524:DI[27] I *D CF_SRAM_1024x32
*I *11515:DI[27] I *D CF_SRAM_1024x32
*I *11461:X O *D sky130_fd_sc_hd__buf_12
*CAP
1 *11533:DI[27] 0.000483809
2 *11542:DI[27] 0.000139853
3 *11524:DI[27] 0.000371145
4 *11515:DI[27] 0.000816569
5 *11461:X 0.000703844
6 *416:102 0.0183414
7 *416:82 0.0183569
8 *416:78 0.00466109
9 *416:76 0.00500555
10 *416:66 0.0018369
11 *416:64 0.0020151
12 *416:60 0.00123877
13 *416:30 0.0184515
14 *416:22 0.0188309
15 *416:18 0.00235825
16 *416:10 0.00435247
17 *416:8 0.00387961
18 *11533:DI[27] *11533:BEN[27] 0
19 *416:18 *427:64 8.471e-05
20 *416:18 *465:10 0.000150838
21 *416:30 *420:38 0
22 *416:30 *476:64 0.00033076
23 *416:30 *631:68 0.000333068
24 *416:60 *420:50 0.000745897
25 *416:60 *427:64 0.00021368
26 *416:60 *433:26 0.000154981
27 *416:60 *465:10 0.00113333
28 *416:60 *472:70 0.000293646
29 *416:64 *433:58 0.00343332
30 *416:64 *456:18 0.000700425
31 *416:64 *474:112 0.001527
32 *416:64 *491:94 0.000739778
33 *416:66 *433:58 0.000738945
34 *416:66 *433:68 0.0033874
35 *416:66 *474:112 0.00476225
36 *416:66 *478:80 8.76645e-06
37 *416:66 *491:94 0.000918626
38 *416:76 *433:76 0.00247713
39 *416:76 *474:112 7.91584e-06
40 *416:76 *478:80 0.00250888
41 *416:76 *491:94 0.000549441
42 *416:78 *11542:AD[8] 0.00150794
43 *416:78 *433:76 0.000730271
44 *416:78 *433:78 0.0151647
45 *416:78 *465:46 0.00546442
46 *416:78 *474:112 0.00513782
47 *416:78 *491:94 0.00133209
48 *416:102 *11542:BEN[27] 5.68762e-05
49 *1136:DIODE *11542:DI[27] 4.78613e-05
50 *1136:DIODE *416:82 0.000460414
51 *1192:DIODE *416:76 4.05674e-06
52 *224:13 *11515:DI[27] 0.000163823
53 *258:14 *11524:DI[27] 0
54 *288:14 *11533:DI[27] 0
55 *292:11 *416:102 0
56 *320:10 *11542:DI[27] 8.61758e-05
57 *365:80 *416:10 0.00296943
58 *400:10 *416:10 0.00683913
59 *411:10 *416:10 0.010318
60 *413:10 *416:10 0.000389156
*RES
1 *11461:X *416:8 12.675 
2 *416:8 *416:10 138.825 
3 *416:10 *416:18 19.6675 
4 *416:18 *416:22 1.87813 
5 *416:22 *416:30 49.05 
6 *416:30 *11515:DI[27] 11.625 
7 *416:22 *11524:DI[27] 8.2675 
8 *416:18 *416:60 18.4675 
9 *416:60 *416:64 39.7275 
10 *416:64 *416:66 54.645 
11 *416:66 *416:76 34.3825 
12 *416:76 *416:78 189.57 
13 *416:78 *416:82 9.695 
14 *416:82 *11542:DI[27] 2.67 
15 *416:82 *416:102 49.0099 
16 *416:102 *11533:DI[27] 9.98 
*END

*D_NET *417 0.00123571
*CONN
*I *11356:A I *D sky130_fd_sc_hd__dlygate4sd3_1
*I *11462:X O *D sky130_fd_sc_hd__dlygate4sd3_1
*CAP
1 *11356:A 0.000517937
2 *11462:X 0.000517937
3 *11356:A *11462:A 3.64998e-06
4 *11356:A *11565:A 0
5 *11356:A *11614:A 0.000149151
6 *11356:A *585:20 0
7 wbs_dat_o[16] *11356:A 4.70343e-05
8 *11355:A *11356:A 0
*RES
1 *11462:X *11356:A 14.175 
*END

*D_NET *418 0.173812
*CONN
*I *11533:DI[16] I *D CF_SRAM_1024x32
*I *11542:DI[16] I *D CF_SRAM_1024x32
*I *11524:DI[16] I *D CF_SRAM_1024x32
*I *11515:DI[16] I *D CF_SRAM_1024x32
*I *11463:X O *D sky130_fd_sc_hd__buf_12
*CAP
1 *11533:DI[16] 0.000455765
2 *11542:DI[16] 0.01831
3 *11524:DI[16] 0.00056363
4 *11515:DI[16] 0.00063112
5 *11463:X 0.00113939
6 *418:106 6.77883e-07
7 *418:99 0.0175669
8 *418:74 0.00811913
9 *418:72 0.00789371
10 *418:60 0.00164908
11 *418:48 0.0126682
12 *418:38 0.0125153
13 *418:34 0.00147292
14 *418:24 0.0022468
15 *11515:DI[16] *11515:ScanInDR 0.000118081
16 *11524:DI[16] *11524:ScanInDR 0
17 *418:24 *11454:A 0.000273001
18 *418:24 *422:16 3.64998e-06
19 *418:24 *482:24 0.000271334
20 *418:24 *526:24 0.00112224
21 *418:24 *549:175 0.00022786
22 *418:24 *574:16 0.000136967
23 *418:24 *576:8 0.00268088
24 *418:34 *427:16 0.00329978
25 *418:34 *465:10 0.000925233
26 *418:34 *474:110 5.69601e-06
27 *418:34 *572:24 0.000523673
28 *418:38 *422:32 0.000438514
29 *418:38 *463:71 0.000534685
30 *418:38 *467:82 0.000122602
31 *418:38 *491:92 4.01548e-05
32 *418:48 *631:68 1.07797e-05
33 *418:60 *463:71 8.92977e-05
34 *418:60 *463:73 0.000134775
35 *418:72 *11524:ScanInDR 0
36 *418:74 *461:68 0.0267131
37 *418:99 *422:104 0
38 *418:99 *630:74 4.1977e-05
39 *838:DIODE *418:72 0.000153816
40 *1092:DIODE *11542:DI[16] 0.00108525
41 *11318:A0 *418:24 0.00024194
42 *212:12 *11515:DI[16] 0.00051263
43 *228:22 *418:48 0.000240801
44 *244:9 *11524:DI[16] 0
45 *244:17 *418:48 0.00587164
46 *245:24 *418:48 0.00818055
47 *246:67 *418:48 0
48 *256:19 *418:24 0.00132368
49 *256:19 *418:38 0.0007571
50 *256:19 *418:60 0.000358561
51 *276:9 *11533:DI[16] 0.00116668
52 *276:9 *418:106 1.16578e-05
53 *308:7 *11542:DI[16] 8.40213e-05
54 *308:21 *418:99 0.000976472
55 *313:39 *418:99 0
56 *316:21 *418:99 1.79483e-05
57 *318:13 *418:99 1.79483e-05
58 *376:95 *418:34 0.000342704
59 *394:106 *418:34 1.79536e-05
60 *396:102 *11515:DI[16] 0.000191335
61 *396:102 *418:48 0.000220017
62 *398:10 *418:34 0.00031539
63 *407:10 *418:74 0.00490427
64 *407:46 *418:74 0.0238732
*RES
1 *11463:X *418:24 49.665 
2 *418:24 *418:34 45.93 
3 *418:34 *418:38 15.9825 
4 *418:38 *418:48 49.5788 
5 *418:48 *11515:DI[16] 11.355 
6 *418:38 *418:60 6.0575 
7 *418:60 *11524:DI[16] 8.175 
8 *418:60 *418:72 14.18 
9 *418:72 *418:74 329.31 
10 *418:74 *11542:DI[16] 21.77 
11 *11542:DI[16] *418:99 48.0892 
12 *418:99 *11533:DI[16] 12.8 
13 *11533:DI[16] *418:106 0.147 
*END

*D_NET *419 0.000111545
*CONN
*I *11389:A I *D sky130_fd_sc_hd__dlygate4sd3_1
*I *11464:X O *D sky130_fd_sc_hd__dlygate4sd3_1
*CAP
1 *11389:A 5.81042e-06
2 *11464:X 5.81042e-06
3 *11389:A *11464:A 4.99619e-05
4 *11389:A *620:12 4.99619e-05
*RES
1 *11464:X *11389:A 3.65 
*END

*D_NET *420 0.189336
*CONN
*I *11533:DI[28] I *D CF_SRAM_1024x32
*I *11542:DI[28] I *D CF_SRAM_1024x32
*I *11515:DI[28] I *D CF_SRAM_1024x32
*I *11524:DI[28] I *D CF_SRAM_1024x32
*I *11465:X O *D sky130_fd_sc_hd__buf_12
*CAP
1 *11533:DI[28] 0.000655031
2 *11542:DI[28] 0.0235447
3 *11515:DI[28] 0.000732938
4 *11524:DI[28] 0.000108698
5 *11465:X 9.34143e-05
6 *420:77 0.0238078
7 *420:50 0.00744244
8 *420:48 0.0070505
9 *420:38 0.0184867
10 *420:16 0.0182719
11 *420:14 0.000824982
12 *420:10 0.00360412
13 *420:8 0.003282
14 *420:38 *476:64 8.41149e-05
15 *420:38 *631:68 8.57752e-05
16 *420:50 *11542:BEN[23] 0.000272945
17 *420:50 *427:64 0.0214276
18 *420:50 *456:57 0.0271165
19 *420:50 *465:10 0.000386328
20 *420:50 *472:70 0.00347309
21 *420:50 *629:203 0.000319442
22 *420:50 *629:215 0.000288944
23 *420:50 *629:243 0.000428375
24 *420:50 *630:122 0.000169879
25 *420:50 *630:134 0.000299268
26 *420:50 *630:146 0.000319442
27 *420:50 *630:159 0.000319442
28 *420:50 *630:172 0.000305052
29 *420:77 *433:86 0
30 *1138:DIODE *11542:DI[28] 0.000472185
31 *1194:DIODE *11515:DI[28] 1.56428e-05
32 *225:11 *11515:DI[28] 0.000375362
33 *257:11 *11524:DI[28] 1.48772e-05
34 *257:11 *420:14 6.52933e-05
35 *257:11 *420:16 0.000295036
36 *257:20 *420:14 0.00016281
37 *258:14 *420:38 0
38 *289:14 *11533:DI[28] 0.000224201
39 *289:23 *11533:DI[28] 9.00708e-06
40 *292:11 *420:77 6.57653e-06
41 *321:10 *11542:DI[28] 4.78564e-05
42 *378:41 *420:10 0.0118501
43 *385:40 *420:10 0.0118501
44 *416:30 *420:38 0
45 *416:60 *420:50 0.000745897
*RES
1 *11465:X *420:8 4.74 
2 *420:8 *420:10 140.865 
3 *420:10 *420:14 8.315 
4 *420:14 *420:16 7.695 
5 *420:16 *11524:DI[28] 1.95 
6 *420:16 *420:38 49.4875 
7 *420:38 *11515:DI[28] 11.355 
8 *420:14 *420:48 2 
9 *420:48 *420:50 328.545 
10 *420:50 *11542:DI[28] 10.895 
11 *11542:DI[28] *420:77 48.9492 
12 *420:77 *11533:DI[28] 10.8 
*END

*D_NET *421 0.00120174
*CONN
*I *11358:A I *D sky130_fd_sc_hd__dlygate4sd3_1
*I *11466:X O *D sky130_fd_sc_hd__dlygate4sd3_1
*CAP
1 *11358:A 0.000507114
2 *11466:X 0.000507114
3 *11358:A *11466:A 3.64998e-06
4 *11358:A *610:24 0.000183864
5 *11357:A *11358:A 0
*RES
1 *11466:X *11358:A 14.175 
*END

*D_NET *422 0.18676
*CONN
*I *11533:DI[17] I *D CF_SRAM_1024x32
*I *11542:DI[17] I *D CF_SRAM_1024x32
*I *11515:DI[17] I *D CF_SRAM_1024x32
*I *11524:DI[17] I *D CF_SRAM_1024x32
*I *11467:X O *D sky130_fd_sc_hd__buf_12
*CAP
1 *11533:DI[17] 0.000402564
2 *11542:DI[17] 0.000159233
3 *11515:DI[17] 0.000436663
4 *11524:DI[17] 0.000182861
5 *11467:X 0.000906965
6 *422:104 0.0154729
7 *422:91 6.77883e-07
8 *422:78 0.0160811
9 *422:74 0.0099508
10 *422:72 0.00986741
11 *422:65 1.31409e-06
12 *422:60 0.0126377
13 *422:38 0.0124785
14 *422:36 0.00144041
15 *422:32 0.00135598
16 *422:24 0.00234126
17 *422:16 0.00247057
18 *11515:DI[17] *474:78 5.83121e-06
19 *11515:DI[17] *478:46 8.247e-05
20 *422:16 *11454:A 0.0023959
21 *422:16 *427:14 0.00212166
22 *422:16 *572:24 0.000180321
23 *422:24 *427:14 0
24 *422:24 *427:16 0.000450126
25 *422:24 *433:10 6.36578e-05
26 *422:24 *549:175 0.000359437
27 *422:32 *11524:BEN[0] 2.4997e-05
28 *422:32 *463:71 0.000668299
29 *422:32 *467:80 3.0559e-05
30 *422:32 *576:8 0.000233925
31 *422:60 *472:24 1.87271e-05
32 *422:104 *630:96 0.00645037
33 *852:DIODE *422:72 0.000153816
34 *1103:DIODE *422:78 2.88598e-05
35 *11515:CLKin *11515:DI[17] 0
36 *11524:CLKin *11524:DI[17] 0
37 *11524:CLKin *422:60 0.0277013
38 *11533:CLKin *11533:DI[17] 0
39 *11533:CLKin *422:104 0
40 *11533:TM *11533:DI[17] 0.000580501
41 *11542:WLBI *422:78 3.0807e-05
42 *11542:CLKin *11542:DI[17] 5.36384e-06
43 *11542:TM *11542:DI[17] 3.83194e-05
44 *11542:TM *422:78 0.000402515
45 *188:16 *422:36 0.00183129
46 *194:18 *422:36 0.000674617
47 *213:18 *11515:DI[17] 0.000194518
48 *213:18 *422:65 4.05674e-06
49 *245:10 *11524:DI[17] 4.66742e-05
50 *245:96 *11524:DI[17] 0.000103491
51 *245:96 *422:38 0.000102483
52 *245:96 *422:72 0.000223264
53 *245:120 *422:72 0.000192489
54 *245:140 *422:72 0.000225285
55 *248:61 *422:24 2.54431e-05
56 *248:68 *422:24 4.01778e-05
57 *256:19 *422:32 0.000473494
58 *258:14 *422:60 3.97748e-05
59 *277:15 *11533:DI[17] 3.09088e-05
60 *279:15 *11533:DI[17] 0
61 *309:7 *11542:DI[17] 5.83203e-05
62 *309:7 *422:91 1.16578e-05
63 *309:23 *11542:DI[17] 1.80702e-05
64 *309:116 *11542:DI[17] 0.000104029
65 *311:11 *422:104 0.000230812
66 *313:31 *422:104 0.000211091
67 *355:8 *422:32 9.96764e-05
68 *355:12 *422:36 5.18694e-05
69 *356:8 *422:32 0.000232214
70 *376:95 *422:32 0.000101225
71 *376:97 *422:74 0.0221277
72 *378:89 *422:60 1.79483e-05
73 *391:44 *422:74 0.0241634
74 *394:106 *422:24 0.000119762
75 *394:108 *422:74 0.00524446
76 *396:50 *422:32 8.41703e-06
77 *398:10 *422:32 0.00105528
78 *398:18 *422:60 3.97748e-05
79 *400:50 *422:74 0
80 *418:24 *422:16 3.64998e-06
81 *418:38 *422:32 0.000438514
82 *418:99 *422:104 0
*RES
1 *11467:X *422:16 35.5725 
2 *422:16 *422:24 28.5175 
3 *422:24 *422:32 30.445 
4 *422:32 *422:36 23.525 
5 *422:36 *422:38 1.83 
6 *422:38 *11524:DI[17] 3.09 
7 *422:38 *422:60 49.2832 
8 *422:60 *11515:DI[17] 7.35 
9 *11515:DI[17] *422:65 0.18375 
10 *422:36 *422:72 13.835 
11 *422:72 *422:74 330.585 
12 *422:74 *422:78 15.56 
13 *422:78 *11542:DI[17] 3.45 
14 *11542:DI[17] *422:91 0.1225 
15 *422:78 *422:104 49.5788 
16 *422:104 *11533:DI[17] 10.8425 
*END

*D_NET *423 0.00133382
*CONN
*I *11340:A I *D sky130_fd_sc_hd__dlygate4sd3_1
*I *11468:X O *D sky130_fd_sc_hd__dlygate4sd3_1
*CAP
1 *11340:A 0.000447675
2 *11468:X 0.000447675
3 *11340:A *11564:A 0.000136415
4 *11340:A *11613:A 1.19928e-05
5 wbs_dat_o[15] *11340:A 0.000194891
6 *11469:A *11340:A 8.64421e-05
7 *360:22 *11340:A 8.73389e-06
*RES
1 *11468:X *11340:A 14.22 
*END

*D_NET *424 0.000917618
*CONN
*I *11564:A I *D sky130_fd_sc_hd__buf_12
*I *11469:X O *D sky130_fd_sc_hd__dlygate4sd3_1
*CAP
1 *11564:A 0.000184492
2 *11469:X 0.000184492
3 *11564:A *448:16 4.66108e-05
4 *11564:A *609:16 6.72143e-05
5 *11340:A *11564:A 0.000136415
6 *11469:A *11564:A 0.000298393
*RES
1 *11469:X *11564:A 11.325 
*END

*D_NET *425 0.00144215
*CONN
*I *11363:A I *D sky130_fd_sc_hd__dlygate4sd3_1
*I *11470:X O *D sky130_fd_sc_hd__dlygate4sd3_1
*CAP
1 *11363:A 0.000220779
2 *11470:X 0.000220779
3 *11363:A *11470:A 3.30343e-05
4 *11363:A *11621:A 0.000455757
5 *11363:A *609:16 8.56021e-05
6 *11330:A *11363:A 1.07628e-05
7 *11361:A *11363:A 0.000279787
8 *360:22 *11363:A 0.000135652
*RES
1 *11470:X *11363:A 14.205 
*END

*D_NET *426 0.0256417
*CONN
*I *11432:A I *D sky130_fd_sc_hd__buf_12
*I *11560:X O *D sky130_fd_sc_hd__buf_12
*CAP
1 *11432:A 0.00216438
2 *11560:X 8.61985e-05
3 *426:12 0.00388345
4 *426:10 0.00180526
5 *11432:A *11428:A 3.55217e-05
6 *11432:A *11570:A 0
7 *11432:A *526:10 0.000109635
8 *426:10 *11431:A 5.53249e-06
9 *426:12 *437:12 0.00775734
10 *426:12 *460:14 0.00541656
11 *426:12 *471:26 0.000101633
12 *426:12 *482:24 0.000423254
13 *426:12 *604:14 0.00103351
14 *426:12 *607:18 0.000558191
15 wbs_dat_o[20] *11432:A 5.13715e-05
16 *11313:A1 *11432:A 0
17 *11313:B2 *11432:A 0
18 *11313:C1 *11432:A 1.32974e-05
19 *11350:A *11432:A 0
20 *11352:A *11432:A 0
21 *11423:A *426:10 0
22 *181:18 *11432:A 0.00182004
23 *225:36 *11432:A 0.000343319
24 *383:18 *11432:A 1.88656e-05
25 *387:18 *11432:A 1.43521e-05
*RES
1 *11560:X *426:10 6.98 
2 *426:10 *426:12 80.49 
3 *426:12 *11432:A 42.54 
*END

*D_NET *427 0.190287
*CONN
*I *11533:DI[18] I *D CF_SRAM_1024x32
*I *11542:DI[18] I *D CF_SRAM_1024x32
*I *11515:DI[18] I *D CF_SRAM_1024x32
*I *11524:DI[18] I *D CF_SRAM_1024x32
*I *11472:X O *D sky130_fd_sc_hd__buf_12
*CAP
1 *11533:DI[18] 0.000269527
2 *11542:DI[18] 7.87473e-05
3 *11515:DI[18] 0.000812794
4 *11524:DI[18] 7.53203e-05
5 *11472:X 0.000783278
6 *427:88 0.0218374
7 *427:68 0.0219869
8 *427:64 0.00748657
9 *427:62 0.00722138
10 *427:50 0.025549
11 *427:28 0.025392
12 *427:24 0.00118636
13 *427:16 0.0017247
14 *427:14 0.00197712
15 *427:14 *11472:A 1.16578e-05
16 *427:14 *572:24 0.00213708
17 *427:16 *433:10 0.00302763
18 *427:16 *465:10 4.13443e-05
19 *427:16 *474:112 0.00131916
20 *427:16 *476:96 0.000117854
21 *427:16 *491:94 0.000151862
22 *427:16 *549:175 0.000633554
23 *427:16 *572:24 1.50624e-05
24 *427:24 *11524:SM 1.33205e-05
25 *427:24 *463:71 0.000170802
26 *427:24 *463:73 0.00057004
27 *427:24 *465:10 0.0016018
28 *427:24 *472:70 0.000334965
29 *427:50 *11524:BEN[18] 4.01535e-05
30 *427:50 *631:68 2.38115e-05
31 *427:62 *463:73 4.84755e-05
32 *427:62 *465:10 0.000124629
33 *427:64 *11542:BEN[16] 0.000136081
34 *427:64 *11542:AD[0] 0.000151317
35 *427:64 *11542:AD[4] 4.01535e-05
36 *427:64 *11542:AD[6] 6.12746e-05
37 *427:64 *11542:AD[7] 5.89094e-05
38 *427:64 *11542:BEN[0] 0.000345226
39 *427:64 *463:73 0.0243037
40 *427:64 *465:10 0.0026667
41 *427:64 *467:82 0.0041098
42 *427:64 *630:110 0.000278465
43 *427:64 *630:122 0.00013364
44 *427:88 *630:213 0.00010395
45 *837:DIODE *427:24 0.000118081
46 *11542:DI[0] *427:64 4.51822e-05
47 *11542:DI[1] *427:64 1.79483e-05
48 *214:11 *11515:DI[18] 0.000250591
49 *214:20 *11515:DI[18] 8.52044e-06
50 *228:22 *427:50 4.01535e-05
51 *245:104 *427:24 5.07606e-05
52 *246:7 *11524:DI[18] 0
53 *246:7 *427:28 0
54 *246:11 *427:28 0
55 *252:17 *427:50 0
56 *254:13 *427:50 4.01535e-05
57 *278:7 *11533:DI[18] 0.000392901
58 *310:7 *11542:DI[18] 4.66742e-05
59 *310:7 *427:68 5.74791e-05
60 *310:21 *427:88 0.00182804
61 *310:52 *427:68 0.000392039
62 *313:31 *427:68 3.96284e-05
63 *316:21 *427:88 0.000103683
64 *318:13 *427:88 0.000103683
65 *405:44 *427:64 0
66 *416:18 *427:64 8.471e-05
67 *416:60 *427:64 0.00021368
68 *418:34 *427:16 0.00329978
69 *420:50 *427:64 0.0214276
70 *422:16 *427:14 0.00212166
71 *422:24 *427:14 0
72 *422:24 *427:16 0.000450126
*RES
1 *11472:X *427:14 31.5525 
2 *427:14 *427:16 54.8025 
3 *427:16 *427:24 23.86 
4 *427:24 *427:28 10.04 
5 *427:28 *11524:DI[18] 1.125 
6 *427:28 *427:50 48.6642 
7 *427:50 *11515:DI[18] 11.13 
8 *427:24 *427:62 2.2425 
9 *427:62 *427:64 328.478 
10 *427:64 *427:68 9.35 
11 *427:68 *11542:DI[18] 1.41 
12 *427:68 *427:88 49.0099 
13 *427:88 *11533:DI[18] 8.585 
*END

*D_NET *428 0.00160938
*CONN
*I *11384:A I *D sky130_fd_sc_hd__dlygate4sd3_1
*I *11473:X O *D sky130_fd_sc_hd__dlygate4sd3_1
*CAP
1 *11384:A 0.000453122
2 *11473:X 0.000453122
3 *11384:A *11563:A 8.51879e-05
4 *11384:A *449:14 0.000226446
5 *11384:A *601:24 7.30937e-05
6 wbs_dat_o[14] *11384:A 0.000157762
7 *11474:A *11384:A 0.000160641
*RES
1 *11473:X *11384:A 15.42 
*END

*D_NET *429 0.000913876
*CONN
*I *11563:A I *D sky130_fd_sc_hd__buf_12
*I *11474:X O *D sky130_fd_sc_hd__dlygate4sd3_1
*CAP
1 *11563:A 0.000241976
2 *11474:X 0.000241976
3 *11563:A *601:24 4.66826e-05
4 *11384:A *11563:A 8.51879e-05
5 *11474:A *11563:A 0.000298053
*RES
1 *11474:X *11563:A 11.67 
*END

*D_NET *430 0.00208432
*CONN
*I *11426:A I *D sky130_fd_sc_hd__dlygate4sd3_1
*I *11475:X O *D sky130_fd_sc_hd__dlygate4sd3_1
*CAP
1 *11426:A 0.000507627
2 *11475:X 0.000507627
3 *11426:A *448:16 0.000232306
4 *11426:A *601:24 0.000380609
5 *11476:A *11426:A 0.000456155
*RES
1 *11475:X *11426:A 17.85 
*END

*D_NET *431 0.000758383
*CONN
*I *11561:A I *D sky130_fd_sc_hd__buf_12
*I *11476:X O *D sky130_fd_sc_hd__dlygate4sd3_1
*CAP
1 *11561:A 0.000282479
2 *11476:X 0.000282479
3 *11561:A *448:16 8.48377e-05
4 *11473:A *11561:A 0
5 *11476:A *11561:A 0.000108588
*RES
1 *11476:X *11561:A 11.67 
*END

*D_NET *432 0.00128388
*CONN
*I *11400:A I *D sky130_fd_sc_hd__dlygate4sd3_1
*I *11477:X O *D sky130_fd_sc_hd__dlygate4sd3_1
*CAP
1 *11400:A 0.000496835
2 *11477:X 0.000496835
3 *11400:A *11477:A 8.46717e-05
4 *11400:A *572:22 0
5 *11400:A *574:14 0
6 wbs_dat_o[29] *11400:A 0.00020554
*RES
1 *11477:X *11400:A 15.195 
*END

*D_NET *433 0.172623
*CONN
*I *11542:DI[29] I *D CF_SRAM_1024x32
*I *11533:DI[29] I *D CF_SRAM_1024x32
*I *11515:DI[29] I *D CF_SRAM_1024x32
*I *11524:DI[29] I *D CF_SRAM_1024x32
*I *11478:X O *D sky130_fd_sc_hd__buf_12
*CAP
1 *11542:DI[29] 0.000646157
2 *11533:DI[29] 0.000481033
3 *11515:DI[29] 0.000498026
4 *11524:DI[29] 0.000114188
5 *11478:X 5.85242e-05
6 *433:86 0.0182729
7 *433:78 0.0251155
8 *433:76 0.00778959
9 *433:68 0.00206435
10 *433:58 0.00208336
11 *433:46 0.018639
12 *433:26 0.0188758
13 *433:22 0.00198123
14 *433:10 0.00355364
15 *433:8 0.00338267
16 *11515:DI[29] *11515:BEN[29] 0
17 *11515:DI[29] *629:30 5.83121e-06
18 *11524:DI[29] *11524:BEN[29] 0
19 *11524:DI[29] *555:168 0
20 *11542:DI[29] *465:46 0.000119334
21 *433:10 *456:10 0.0121144
22 *433:10 *474:112 0.0045741
23 *433:10 *476:96 0.000109675
24 *433:10 *491:94 0.00215545
25 *433:22 *456:18 2.38115e-05
26 *433:22 *478:80 4.01535e-05
27 *433:26 *11524:BEN[29] 0
28 *433:46 *456:43 0
29 *433:46 *463:36 8.38995e-05
30 *433:58 *456:18 6.34101e-06
31 *433:58 *478:80 0.0047997
32 *433:58 *491:94 0.000929338
33 *433:68 *478:80 0.00189902
34 *433:68 *491:94 0.000706385
35 *433:76 *474:112 0.00123673
36 *433:76 *478:80 0.00128806
37 *433:76 *491:94 0.000697357
38 *433:78 *11542:AD[1] 4.81484e-06
39 *433:78 *11542:AD[2] 3.86479e-05
40 *433:78 *11542:AD[5] 0.00193701
41 *433:78 *465:46 0.000449244
42 *433:78 *476:96 0.000799998
43 *433:78 *478:80 0.00215174
44 *433:78 *491:94 0.000147915
45 *433:86 *11542:BEN[28] 0.000351188
46 *865:DIODE *433:10 0.000182907
47 *912:DIODE *433:10 0.000116165
48 *919:DIODE *433:10 0.000109431
49 *924:DIODE *433:26 7.56067e-05
50 *1086:DIODE *433:76 0.000187766
51 *1103:DIODE *433:78 3.67779e-05
52 *1140:DIODE *11542:DI[29] 0.000575554
53 *194:18 *433:46 0
54 *226:7 *11515:DI[29] 0
55 *244:103 *433:10 0.000186092
56 *245:126 *433:10 0.000114492
57 *246:15 *433:10 6.59891e-05
58 *254:99 *433:10 0.000139933
59 *256:17 *433:10 0.000365049
60 *258:10 *11524:DI[29] 0
61 *258:10 *433:26 0
62 *290:14 *11533:DI[29] 0.0005722
63 *290:23 *11533:DI[29] 1.83756e-05
64 *292:11 *433:86 0.000171778
65 *304:15 *433:76 7.06865e-05
66 *322:5 *11542:DI[29] 4.97169e-05
67 *322:26 *433:86 9.53947e-05
68 *394:60 *433:46 8.50173e-05
69 *416:60 *433:26 0.000154981
70 *416:64 *433:58 0.00343332
71 *416:66 *433:58 0.000738945
72 *416:66 *433:68 0.0033874
73 *416:76 *433:76 0.00247713
74 *416:78 *433:76 0.000730271
75 *416:78 *433:78 0.0151647
76 *420:77 *433:86 0
77 *422:24 *433:10 6.36578e-05
78 *427:16 *433:10 0.00302763
*RES
1 *11478:X *433:8 4.395 
2 *433:8 *433:10 143.542 
3 *433:10 *433:22 1.83203 
4 *433:22 *433:26 11.765 
5 *433:26 *11524:DI[29] 1.935 
6 *433:26 *433:46 48.2449 
7 *433:46 *11515:DI[29] 8.855 
8 *433:22 *433:58 55.0575 
9 *433:58 *433:68 44.0575 
10 *433:68 *433:76 44.5125 
11 *433:76 *433:78 187.35 
12 *433:78 *433:86 48.8682 
13 *433:86 *11533:DI[29] 12.98 
14 *433:78 *11542:DI[29] 16.1825 
*END

*D_NET *434 0.00169008
*CONN
*I *11431:A I *D sky130_fd_sc_hd__dlygate4sd3_1
*I *11479:X O *D sky130_fd_sc_hd__dlygate4sd3_1
*CAP
1 *11431:A 0.00051237
2 *11479:X 0.00051237
3 *11431:A *11560:A 0.000504879
4 *11431:A *11610:A 0
5 *11431:A *601:24 0.000154926
6 *11423:A *11431:A 0
7 *426:10 *11431:A 5.53249e-06
*RES
1 *11479:X *11431:A 16.77 
*END

*D_NET *435 0.00106462
*CONN
*I *11560:A I *D sky130_fd_sc_hd__buf_12
*I *11480:X O *D sky130_fd_sc_hd__dlygate4sd3_1
*CAP
1 *11560:A 0.000186155
2 *11480:X 0.000186155
3 *11560:A *601:24 0.000115779
4 *11423:A *11560:A 7.16524e-05
5 *11431:A *11560:A 0.000504879
6 *11480:A *11560:A 0
*RES
1 *11480:X *11560:A 12.705 
*END

*D_NET *436 0.000111545
*CONN
*I *11433:A I *D sky130_fd_sc_hd__dlygate4sd3_1
*I *11481:X O *D sky130_fd_sc_hd__dlygate4sd3_1
*CAP
1 *11433:A 5.81042e-06
2 *11481:X 5.81042e-06
3 *11433:A *448:14 4.99619e-05
4 *11433:A *589:14 4.99619e-05
*RES
1 *11481:X *11433:A 3.65 
*END

*D_NET *437 0.0241978
*CONN
*I *11428:A I *D sky130_fd_sc_hd__buf_12
*I *11561:X O *D sky130_fd_sc_hd__buf_12
*CAP
1 *11428:A 0.0010972
2 *11561:X 5.73577e-05
3 *437:12 0.00725646
4 *437:10 0.00621662
5 *437:12 *460:14 0.00102899
6 *437:12 *471:26 0.000137504
7 *437:12 *482:24 0.000459124
8 wbs_dat_o[13] *437:10 5.05228e-05
9 *11359:A *11428:A 0
10 *11432:A *11428:A 3.55217e-05
11 *191:22 *11428:A 8.34831e-05
12 *383:18 *11428:A 1.7635e-05
13 *426:12 *437:12 0.00775734
*RES
1 *11561:X *437:10 6.725 
2 *437:10 *437:12 86.7 
3 *437:12 *11428:A 18.95 
*END

*D_NET *438 6.92906e-05
*CONN
*I *11559:A I *D sky130_fd_sc_hd__buf_12
*I *11483:X O *D sky130_fd_sc_hd__dlygate4sd3_1
*CAP
1 *11559:A 1.96262e-05
2 *11483:X 1.96262e-05
3 *11559:A *601:24 3.00381e-05
*RES
1 *11483:X *11559:A 3.65 
*END

*D_NET *439 0.00220512
*CONN
*I *11328:A I *D sky130_fd_sc_hd__dlygate4sd3_1
*I *11484:X O *D sky130_fd_sc_hd__dlygate4sd3_1
*CAP
1 *11328:A 0.00027783
2 *11484:X 0.00027783
3 *11328:A *448:14 0.000140519
4 *11328:A *599:12 0.000301011
5 *11211:A *11328:A 0.000164874
6 *11397:A *11328:A 0.000300958
7 *11485:A *11328:A 4.82919e-05
8 *117:10 *11328:A 0.000241483
9 *117:69 *11328:A 0.000160635
10 *338:26 *11328:A 0.000131791
11 *404:18 *11328:A 0.000159894
*RES
1 *11484:X *11328:A 17.295 
*END

*D_NET *440 0.000347135
*CONN
*I *11558:A I *D sky130_fd_sc_hd__buf_12
*I *11485:X O *D sky130_fd_sc_hd__dlygate4sd3_1
*CAP
1 *11558:A 0.000135298
2 *11485:X 0.000135298
3 *11558:A *448:14 4.75959e-05
4 *404:18 *11558:A 2.89429e-05
*RES
1 *11485:X *11558:A 9.03 
*END

*D_NET *441 0.00258911
*CONN
*I *11460:A I *D sky130_fd_sc_hd__dlygate4sd3_1
*I *11486:X O *D sky130_fd_sc_hd__dlygate4sd3_1
*CAP
1 *11460:A 0.000730933
2 *11486:X 0.000730933
3 *11460:A *11590:A 0.000121102
4 *11460:A *599:12 0.000156193
5 *11460:A *601:22 4.06683e-05
6 wbs_dat_o[9] *11460:A 0.000187064
7 *11392:A *11460:A 0.000622215
8 *371:26 *11460:A 0
*RES
1 *11486:X *11460:A 20.895 
*END

*D_NET *442 0.000571627
*CONN
*I *11590:A I *D sky130_fd_sc_hd__buf_12
*I *11487:X O *D sky130_fd_sc_hd__dlygate4sd3_1
*CAP
1 *11590:A 0.000157842
2 *11487:X 0.000157842
3 *11590:A *584:34 2.89429e-05
4 *11392:A *11590:A 0.000105897
5 *11460:A *11590:A 0.000121102
*RES
1 *11487:X *11590:A 9.72 
*END

*D_NET *443 0.0032343
*CONN
*I *11438:A I *D sky130_fd_sc_hd__dlygate4sd3_1
*I *11488:X O *D sky130_fd_sc_hd__dlygate4sd3_1
*CAP
1 *11438:A 0.000689206
2 *11488:X 0.000689206
3 *11438:A *11506:A 0.000369491
4 *11438:A *11591:A 0
5 *11438:A *584:34 0.000479208
6 *11438:A *585:12 0.000351468
7 *11438:A *601:22 0.000104286
8 *371:26 *11438:A 0.000551431
*RES
1 *11488:X *11438:A 22.635 
*END

*D_NET *444 0.00140487
*CONN
*I *11591:A I *D sky130_fd_sc_hd__buf_12
*I *11489:X O *D sky130_fd_sc_hd__dlygate4sd3_1
*CAP
1 *11591:A 0.000357603
2 *11489:X 0.000357603
3 *11591:A *11506:A 0
4 *11591:A *584:34 0.000119866
5 *11438:A *11591:A 0
6 *11484:A *11591:A 0.000503638
7 *371:26 *11591:A 6.61627e-05
*RES
1 *11489:X *11591:A 14.565 
*END

*D_NET *445 0.00157331
*CONN
*I *11482:A I *D sky130_fd_sc_hd__dlygate4sd3_1
*I *11490:X O *D sky130_fd_sc_hd__dlygate4sd3_1
*CAP
1 *11482:A 0.000468686
2 *11490:X 0.000468686
3 *11482:A *11589:A 0.000183043
4 *11482:A *11636:A 0.000179569
5 *11482:A *583:14 9.16237e-05
6 *11482:A *626:24 4.82919e-05
7 wbs_dat_o[7] *11482:A 0.000133408
*RES
1 *11490:X *11482:A 14.445 
*END

*D_NET *446 0.000711882
*CONN
*I *11589:A I *D sky130_fd_sc_hd__buf_12
*I *11491:X O *D sky130_fd_sc_hd__dlygate4sd3_1
*CAP
1 *11589:A 0.000239156
2 *11491:X 0.000239156
3 *11589:A *11638:A 0
4 *11589:A *583:14 3.78278e-05
5 *11589:A *599:12 1.26985e-05
6 *11386:A *11589:A 0
7 *11482:A *11589:A 0.000183043
*RES
1 *11491:X *11589:A 11.325 
*END

*D_NET *447 0.000376436
*CONN
*I *11504:A I *D sky130_fd_sc_hd__dlygate4sd3_1
*I *11492:X O *D sky130_fd_sc_hd__dlygate4sd3_1
*CAP
1 *11504:A 0.000144124
2 *11492:X 0.000144124
3 *11504:A *11333:A 0
4 *11504:A *11635:A 8.81882e-05
*RES
1 *11492:X *11504:A 9.72 
*END

*D_NET *448 0.0214872
*CONN
*I *11507:A I *D sky130_fd_sc_hd__buf_12
*I *11562:X O *D sky130_fd_sc_hd__buf_12
*CAP
1 *11507:A 0.00159812
2 *11562:X 0.00133714
3 *448:16 0.00437787
4 *448:14 0.00411689
5 *448:14 *589:14 0.000791551
6 *448:14 *599:12 0.00269045
7 *448:16 *11565:A 4.75959e-05
8 *448:16 *11566:A 4.75959e-05
9 *448:16 *599:12 2.47079e-05
10 *11319:B2 *11507:A 8.13313e-06
11 *11322:C1 *11507:A 0
12 *11328:A *448:14 0.000140519
13 *11330:A *11507:A 0.000268138
14 *11332:A *11507:A 0.000310635
15 *11426:A *448:16 0.000232306
16 *11433:A *448:14 4.99619e-05
17 *11469:A *448:16 0.000232403
18 *11474:A *448:16 0.000263966
19 *11475:A *448:14 0.0001249
20 *11476:A *448:16 0.000198252
21 *11479:A *448:14 0.000347689
22 *11481:A *448:14 0.000271074
23 *11485:A *448:14 4.82919e-05
24 *11558:A *448:14 4.75959e-05
25 *11561:A *448:16 8.48377e-05
26 *11564:A *448:16 4.66108e-05
27 *117:104 *448:16 0.00037411
28 *122:93 *448:16 0.0019586
29 *223:32 *11507:A 0
30 *228:32 *11507:A 0.000786156
31 *349:12 *448:16 0.000497165
32 *372:18 *11507:A 0.000163985
*RES
1 *11562:X *448:14 37.81 
2 *448:14 *448:16 51.165 
3 *448:16 *11507:A 33.635 
*END

*D_NET *449 0.0185759
*CONN
*I *11395:A I *D sky130_fd_sc_hd__buf_12
*I *11563:X O *D sky130_fd_sc_hd__buf_12
*CAP
1 *11395:A 0.00136632
2 *11563:X 0.000436752
3 *449:16 0.00442044
4 *449:14 0.00349088
5 *11395:A *548:14 2.9645e-05
6 *449:14 *601:24 9.77048e-06
7 *449:14 *607:16 4.16652e-05
8 *449:16 *493:12 0.000795279
9 *449:16 *585:14 0.000273835
10 *449:16 *608:14 0.00747654
11 wbs_dat_o[22] *11395:A 0
12 *11384:A *449:14 0.000226446
13 *11474:A *449:14 8.30853e-06
14 *115:43 *11395:A 0
15 *168:86 *11395:A 0
*RES
1 *11563:X *449:14 11.645 
2 *449:14 *449:16 83.94 
3 *449:16 *11395:A 23.81 
*END

*D_NET *450 0.000604262
*CONN
*I *11588:A I *D sky130_fd_sc_hd__buf_12
*I *11494:X O *D sky130_fd_sc_hd__dlygate4sd3_1
*CAP
1 *11588:A 0.000225816
2 *11494:X 0.000225816
3 *11588:A *582:10 0.000104343
4 *11588:A *597:10 0
5 *11588:A *601:12 4.82863e-05
*RES
1 *11494:X *11588:A 11.07 
*END

*D_NET *451 0.000638813
*CONN
*I *11362:A I *D sky130_fd_sc_hd__dlygate4sd3_1
*I *11495:X O *D sky130_fd_sc_hd__dlygate4sd3_1
*CAP
1 *11362:A 8.17328e-05
2 *11495:X 8.17328e-05
3 *11362:A *586:34 0.000116165
4 *11362:A *592:28 0.000203691
5 *11362:A *599:12 0.000155491
*RES
1 *11495:X *11362:A 10.065 
*END

*D_NET *452 0.000434636
*CONN
*I *11587:A I *D sky130_fd_sc_hd__buf_12
*I *11496:X O *D sky130_fd_sc_hd__dlygate4sd3_1
*CAP
1 *11587:A 0.000152741
2 *11496:X 0.000152741
3 *11587:A *11333:A 0.000107721
4 *11587:A *599:12 2.14324e-05
*RES
1 *11496:X *11587:A 9.375 
*END

*D_NET *453 0.00050732
*CONN
*I *11406:A I *D sky130_fd_sc_hd__dlygate4sd3_1
*I *11497:X O *D sky130_fd_sc_hd__dlygate4sd3_1
*CAP
1 *11406:A 6.83755e-05
2 *11497:X 6.83755e-05
3 *11406:A *11634:A 5.11729e-05
4 *11406:A *592:28 7.22354e-05
5 *11406:A *599:12 0.000122325
6 *11406:A *624:22 8.66976e-06
7 *11497:A *11406:A 0.000116165
*RES
1 *11497:X *11406:A 9.72 
*END

*D_NET *454 0.000712603
*CONN
*I *11586:A I *D sky130_fd_sc_hd__buf_12
*I *11498:X O *D sky130_fd_sc_hd__dlygate4sd3_1
*CAP
1 *11586:A 0.00022162
2 *11498:X 0.00022162
3 *11586:A *11335:A 0.000104672
4 *11586:A *590:12 4.66108e-05
5 *11586:A *592:28 0.000118081
*RES
1 *11498:X *11586:A 10.17 
*END

*D_NET *455 0.00127454
*CONN
*I *11402:A I *D sky130_fd_sc_hd__dlygate4sd3_1
*I *11499:X O *D sky130_fd_sc_hd__dlygate4sd3_1
*CAP
1 *11402:A 0.000467141
2 *11499:X 0.000467141
3 *11402:A *11499:A 3.64998e-06
4 *11402:A *11582:A 0
5 *11402:A *11630:A 0
6 *11402:A *493:16 0.000289578
7 wbs_dat_o[30] *11402:A 4.70343e-05
*RES
1 *11499:X *11402:A 14.175 
*END

*D_NET *456 0.183756
*CONN
*I *11533:DI[30] I *D CF_SRAM_1024x32
*I *11542:DI[30] I *D CF_SRAM_1024x32
*I *11515:DI[30] I *D CF_SRAM_1024x32
*I *11524:DI[30] I *D CF_SRAM_1024x32
*I *11500:X O *D sky130_fd_sc_hd__buf_12
*CAP
1 *11533:DI[30] 0.000525032
2 *11542:DI[30] 8.71605e-05
3 *11515:DI[30] 0.000645567
4 *11524:DI[30] 0.0184154
5 *11500:X 3.17314e-05
6 *456:81 0.0176952
7 *456:61 0.0175761
8 *456:57 0.00722752
9 *456:55 0.00690873
10 *456:43 0.0184374
11 *456:18 0.000955294
12 *456:10 0.00337538
13 *456:8 0.00307536
14 *11524:DI[30] *11524:BEN[30] 0
15 *11524:DI[30] *555:180 0
16 *456:10 *474:112 1.14559e-05
17 *456:10 *478:80 0.0114132
18 *456:10 *491:94 0.00215545
19 *456:18 *474:112 0.000798387
20 *456:18 *478:80 1.38097e-05
21 *456:18 *491:94 0.000185571
22 *456:43 *631:68 8.6313e-05
23 *456:57 *11542:BEN[30] 0
24 *456:57 *465:10 0.000712973
25 *456:57 *465:46 0.0278336
26 *456:57 *472:70 0.00363131
27 *456:57 *629:243 0
28 *456:57 *629:255 0
29 *738:DIODE *456:43 5.23362e-05
30 *1151:DIODE *11542:DI[30] 2.49909e-05
31 *1151:DIODE *456:61 0.000489672
32 *11251:A1 *11515:DI[30] 1.31242e-06
33 *141:24 *11515:DI[30] 4.93654e-05
34 *194:16 *456:43 0
35 *228:12 *11515:DI[30] 0.000529536
36 *228:20 *456:43 4.1977e-05
37 *260:11 *11524:DI[30] 4.17521e-05
38 *260:11 *456:18 3.71082e-05
39 *260:11 *456:43 5.05437e-05
40 *260:20 *456:18 3.64998e-06
41 *292:7 *11533:DI[30] 0.000442612
42 *292:11 *456:81 4.19426e-05
43 *324:4 *11542:DI[30] 7.00889e-06
44 *324:10 *11542:DI[30] 5.05437e-05
45 *324:20 *456:81 0.000132472
46 *416:64 *456:18 0.000700425
47 *420:50 *456:57 0.0271165
48 *433:10 *456:10 0.0121144
49 *433:22 *456:18 2.38115e-05
50 *433:46 *456:43 0
51 *433:58 *456:18 6.34101e-06
*RES
1 *11500:X *456:8 4.05 
2 *456:8 *456:10 139.973 
3 *456:10 *456:18 13.0925 
4 *456:18 *11524:DI[30] 10.2 
5 *11524:DI[30] *456:43 49.509 
6 *456:43 *11515:DI[30] 12.275 
7 *456:18 *456:55 2 
8 *456:55 *456:57 328.545 
9 *456:57 *456:61 9.695 
10 *456:61 *11542:DI[30] 1.68 
11 *456:61 *456:81 49.7825 
12 *456:81 *11533:DI[30] 13.34 
*END

*D_NET *457 0.00217377
*CONN
*I *11429:A I *D sky130_fd_sc_hd__dlygate4sd3_1
*I *11501:X O *D sky130_fd_sc_hd__dlygate4sd3_1
*CAP
1 *11429:A 0.000508844
2 *11501:X 0.000508844
3 *11429:A *11600:A 0.000496382
4 *11429:A *11632:A 8.65961e-05
5 *11429:A *591:28 8.65961e-05
6 *11429:A *627:14 0.000406379
7 *11501:A *11429:A 3.23498e-05
8 *11502:A *11429:A 4.77757e-05
*RES
1 *11501:X *11429:A 18.24 
*END

*D_NET *458 0.000648101
*CONN
*I *11585:A I *D sky130_fd_sc_hd__buf_12
*I *11502:X O *D sky130_fd_sc_hd__dlygate4sd3_1
*CAP
1 *11585:A 0.000230942
2 *11502:X 0.000230942
3 *11585:A *575:26 4.82863e-05
4 *11585:A *598:12 0.000124957
5 *11414:A *11585:A 0
6 *382:20 *11585:A 1.2973e-05
*RES
1 *11502:X *11585:A 11.07 
*END

*D_NET *459 0.000299802
*CONN
*I *11398:A I *D sky130_fd_sc_hd__dlygate4sd3_1
*I *11503:X O *D sky130_fd_sc_hd__dlygate4sd3_1
*CAP
1 *11398:A 0.000108074
2 *11503:X 0.000108074
3 *11398:A *559:10 8.36546e-05
*RES
1 *11503:X *11398:A 9.09 
*END

*D_NET *460 0.0208703
*CONN
*I *11351:A I *D sky130_fd_sc_hd__buf_12
*I *11564:X O *D sky130_fd_sc_hd__buf_12
*CAP
1 *11351:A 0.00105876
2 *11564:X 0.000278953
3 *460:14 0.00268927
4 *460:12 0.00190946
5 *11351:A *560:10 0.000161812
6 *11351:A *612:28 0
7 *460:14 *482:24 0.000390798
8 *460:14 *526:12 0.0016473
9 *460:14 *548:14 0.000272868
10 *460:14 *607:18 0.00594974
11 wbs_dat_o[15] *460:12 3.98169e-05
12 wbs_dat_o[23] *11351:A 0
13 *11360:A *11351:A 0
14 *11364:A *11351:A 0
15 *11469:A *460:12 8.30853e-06
16 *115:43 *11351:A 0
17 *168:86 *11351:A 0
18 *253:29 *11351:A 1.7635e-05
19 *426:12 *460:14 0.00541656
20 *437:12 *460:14 0.00102899
*RES
1 *11564:X *460:12 9.41 
2 *460:12 *460:14 79.455 
3 *460:14 *11351:A 22.025 
*END

*D_NET *461 0.231574
*CONN
*I *11542:AD[9] I *D CF_SRAM_1024x32
*I *11524:AD[9] I *D CF_SRAM_1024x32
*I *11533:AD[9] I *D CF_SRAM_1024x32
*I *11515:AD[9] I *D CF_SRAM_1024x32
*I *11505:X O *D sky130_fd_sc_hd__buf_12
*CAP
1 *11542:AD[9] 0.00163444
2 *11524:AD[9] 0.000121149
3 *11533:AD[9] 0.000532478
4 *11515:AD[9] 0.000648334
5 *11505:X 0.0100791
6 *461:68 0.0199889
7 *461:66 0.0197395
8 *461:54 0.00710501
9 *461:36 0.00780349
10 *461:22 0.0182259
11 *461:18 0.0259844
12 *11515:AD[9] *11515:AD[3] 0
13 *11515:AD[9] *11515:AD[8] 0
14 *11515:AD[9] *478:28 0
15 *11515:AD[9] *558:129 5.90347e-05
16 *11524:AD[9] *11524:AD[3] 0
17 *11524:AD[9] *11524:AD[8] 0
18 *11524:AD[9] *463:71 0
19 *11524:AD[9] *478:78 0
20 *11533:AD[9] *11533:AD[3] 0
21 *11533:AD[9] *11533:AD[8] 0.000191125
22 *11542:AD[9] *11542:AD[3] 8.18042e-05
23 *11542:AD[9] *11542:AD[8] 0.000265787
24 *461:18 *11505:A 0
25 *461:18 *463:18 0
26 *461:22 *463:22 0.0178057
27 *461:22 *463:55 0.000545634
28 *461:36 *11515:AD[1] 0.000143936
29 *461:36 *11515:ScanInDR 9.08126e-05
30 *461:36 *11515:AD[5] 0.000148424
31 *461:36 *474:78 0.000912318
32 *461:36 *474:80 0.025061
33 *461:36 *483:44 0.0054004
34 *461:36 *558:129 0.000400028
35 *461:36 *629:74 0.000240873
36 *461:54 *463:55 0.0102509
37 *461:54 *472:68 9.99319e-06
38 *461:66 *463:71 0
39 *11533:ScanInCC *11533:AD[9] 0
40 *174:108 *461:18 0
41 *176:85 *461:18 0.00180262
42 *176:133 *461:18 0
43 *213:18 *461:36 0.000210593
44 *247:15 *461:54 6.32577e-05
45 *249:29 *461:18 2.90882e-05
46 *365:80 *461:68 0
47 *378:89 *461:36 0.000757155
48 *389:42 *11515:AD[9] 0.00011043
49 *391:86 *11515:AD[9] 0.000121141
50 *391:86 *461:36 0.000254248
51 *394:58 *461:36 0.000390182
52 *396:104 *461:36 0.0262273
53 *398:16 *461:66 0.000188805
54 *398:18 *461:54 6.32577e-05
55 *407:10 *461:68 0.00117288
56 *418:74 *461:68 0.0267131
*RES
1 *11505:X *461:18 31.8382 
2 *461:18 *461:22 28.3021 
3 *461:22 *11515:AD[9] 12.0538 
4 *461:22 *461:36 328.163 
5 *461:36 *11533:AD[9] 11.0863 
6 *461:18 *461:54 19.457 
7 *461:54 *11524:AD[9] 1.64625 
8 *461:54 *461:66 20.39 
9 *461:66 *461:68 329.565 
10 *461:68 *11542:AD[9] 22.4713 
*END

*D_NET *462 0.000827066
*CONN
*I *11396:A I *D sky130_fd_sc_hd__dlygate4sd3_1
*I *11506:X O *D sky130_fd_sc_hd__dlygate4sd3_1
*CAP
1 *11396:A 0.000213372
2 *11506:X 0.000213372
3 *11213:A *11396:A 7.84388e-05
4 *11484:A *11396:A 2.49416e-05
5 *117:12 *11396:A 0.000196052
6 *118:14 *11396:A 0.000100889
*RES
1 *11506:X *11396:A 10.665 
*END

*D_NET *463 0.234115
*CONN
*I *11542:AD[8] I *D CF_SRAM_1024x32
*I *11524:AD[8] I *D CF_SRAM_1024x32
*I *11533:AD[8] I *D CF_SRAM_1024x32
*I *11515:AD[8] I *D CF_SRAM_1024x32
*I *11507:X O *D sky130_fd_sc_hd__buf_12
*CAP
1 *11542:AD[8] 0.00101534
2 *11524:AD[8] 0.000148663
3 *11533:AD[8] 0.000217451
4 *11515:AD[8] 0.000509946
5 *11507:X 0.00557361
6 *463:73 0.00708947
7 *463:71 0.00713059
8 *463:55 0.00317441
9 *463:36 0.00736714
10 *463:22 0.0114979
11 *463:18 0.0113812
12 *11515:AD[8] *11515:AD[7] 0.000151042
13 *11515:AD[8] *478:46 4.08276e-05
14 *11524:AD[8] *11524:AD[7] 1.45164e-05
15 *11533:AD[8] *11533:AD[7] 0.000225244
16 *11542:AD[8] *11542:AD[7] 0.000228166
17 *11542:AD[8] *465:46 0.00150322
18 *11542:AD[8] *476:96 0.000165398
19 *463:22 *467:22 0.0173052
20 *463:22 *467:58 0.000678265
21 *463:36 *11533:BEN[8] 0.000593857
22 *463:36 *11533:BEN[0] 0.000733356
23 *463:36 *465:36 3.97748e-05
24 *463:36 *467:24 0.0280529
25 *463:36 *478:46 0.0025192
26 *463:36 *552:84 0.000819694
27 *463:36 *555:41 0.00033769
28 *463:36 *555:53 0.000613512
29 *463:36 *555:70 0.000771453
30 *463:36 *558:289 0.000705693
31 *463:36 *558:301 0.000703835
32 *463:36 *558:313 0.00079964
33 *463:36 *558:325 0.000731314
34 *463:36 *629:10 0.000598745
35 *463:36 *629:30 0.000421987
36 *463:36 *630:10 0.000554556
37 *463:36 *630:22 0.000703652
38 *463:36 *630:36 0.000597231
39 *463:36 *631:211 0.000711261
40 *463:36 *631:223 0.000622881
41 *463:36 *631:235 0.000703835
42 *463:36 *631:248 0.0006819
43 *463:36 *631:265 0.000622881
44 *463:55 *467:58 0.0108023
45 *463:71 *11524:AD[7] 9.60582e-07
46 *463:71 *465:10 0.000572286
47 *463:71 *467:80 6.84257e-05
48 *463:71 *472:70 0.000133635
49 *463:73 *11524:BEN[23] 0.000621677
50 *463:73 *11524:BEN[31] 0.000732275
51 *463:73 *11542:BEN[15] 0.000178633
52 *463:73 *11542:BEN[8] 0.000587107
53 *463:73 *11542:BEN[0] 0.000146322
54 *463:73 *467:82 0.00518385
55 *463:73 *552:153 0.000737658
56 *463:73 *552:165 0.000647701
57 *463:73 *552:177 0.00072854
58 *463:73 *552:189 0.0007275
59 *463:73 *555:112 0.000763099
60 *463:73 *555:124 0.00069927
61 *463:73 *555:137 0.000822715
62 *463:73 *555:149 0.000737075
63 *463:73 *555:161 0.000647701
64 *463:73 *555:173 0.000735157
65 *463:73 *558:173 0.000684032
66 *463:73 *558:185 0.000737511
67 *463:73 *558:197 0.000620202
68 *463:73 *558:209 0.000725122
69 *463:73 *558:221 0.000740019
70 *463:73 *558:233 0.000786179
71 *463:73 *631:110 0.000740019
72 *463:73 *631:122 0.000740019
73 *463:73 *631:134 0.000678963
74 *463:73 *631:146 0.000771344
75 *463:73 *631:159 0.000624621
76 *891:DIODE *463:18 0
77 *11515:AD[9] *11515:AD[8] 0
78 *11524:AD[9] *11524:AD[8] 0
79 *11524:AD[9] *463:71 0
80 *11533:AD[9] *11533:AD[8] 0.000191125
81 *11542:AD[9] *11542:AD[8] 0.000265787
82 *141:24 *463:36 0.000178943
83 *141:34 *463:36 0.000359785
84 *176:85 *463:18 0.00559517
85 *222:17 *463:36 0.000512407
86 *225:36 *463:18 8.50738e-05
87 *245:104 *463:73 0.000111905
88 *247:15 *463:55 3.91191e-05
89 *249:29 *463:18 4.75958e-06
90 *250:31 *463:18 0
91 *256:19 *463:73 0.00150412
92 *274:20 *463:36 0.0020442
93 *306:16 *463:73 0.0012454
94 *357:10 *463:36 0
95 *363:16 *463:18 0.00535352
96 *363:60 *463:18 0.000208241
97 *365:18 *463:18 0.000144084
98 *376:95 *463:71 0.000605449
99 *378:89 *11515:AD[8] 0
100 *378:89 *463:36 0
101 *391:86 *463:22 4.30278e-06
102 *394:60 *463:36 0.00249529
103 *394:66 *463:36 0.00223416
104 *394:68 *463:36 0.00102577
105 *398:18 *463:55 1.23312e-05
106 *405:44 *463:73 0
107 *416:78 *11542:AD[8] 0.00150794
108 *418:38 *463:71 0.000534685
109 *418:60 *463:71 8.92977e-05
110 *418:60 *463:73 0.000134775
111 *422:32 *463:71 0.000668299
112 *427:24 *463:71 0.000170802
113 *427:24 *463:73 0.00057004
114 *427:62 *463:73 4.84755e-05
115 *427:64 *463:73 0.0243037
116 *433:46 *463:36 8.38995e-05
117 *461:18 *463:18 0
118 *461:22 *463:22 0.0178057
119 *461:22 *463:55 0.000545634
120 *461:54 *463:55 0.0102509
121 *461:66 *463:71 0
*RES
1 *11507:X *463:18 31.1813 
2 *463:18 *463:22 27.8359 
3 *463:22 *11515:AD[8] 9.97625 
4 *463:22 *463:36 328.672 
5 *463:36 *11533:AD[8] 8.315 
6 *463:18 *463:55 19.1945 
7 *463:55 *11524:AD[8] 2.31375 
8 *463:55 *463:71 31.0325 
9 *463:71 *463:73 290.932 
10 *463:73 *11542:AD[8] 34.695 
*END

*D_NET *464 6.11763e-05
*CONN
*I *11404:A I *D sky130_fd_sc_hd__dlygate4sd3_1
*I *11508:X O *D sky130_fd_sc_hd__dlygate4sd3_1
*CAP
1 *11404:A 3.05882e-05
2 *11508:X 3.05882e-05
*RES
1 *11508:X *11404:A 3.65 
*END

*D_NET *465 0.17415
*CONN
*I *11533:DI[31] I *D CF_SRAM_1024x32
*I *11542:DI[31] I *D CF_SRAM_1024x32
*I *11515:DI[31] I *D CF_SRAM_1024x32
*I *11524:DI[31] I *D CF_SRAM_1024x32
*I *11509:X O *D sky130_fd_sc_hd__buf_12
*CAP
1 *11533:DI[31] 0.00129919
2 *11542:DI[31] 0.000334496
3 *11515:DI[31] 0.000407538
4 *11524:DI[31] 0.000114279
5 *11509:X 0.00012227
6 *465:66 0.0165859
7 *465:64 0.0158361
8 *465:50 0.000980091
9 *465:46 0.00770634
10 *465:36 0.0184508
11 *465:14 0.0187104
12 *465:10 0.0118349
13 *465:8 0.00379408
14 *11524:DI[31] *11524:BEN[31] 0
15 *11524:DI[31] *555:192 0
16 *11533:DI[31] *11533:BEN[31] 0
17 *465:10 *474:112 0.0122706
18 *465:10 *476:96 0.00250413
19 *465:14 *11524:BEN[31] 0
20 *465:46 *11542:BEN[30] 0
21 *465:46 *474:112 0.014411
22 *465:46 *476:96 0.00308372
23 *740:DIODE *11515:DI[31] 0.000154981
24 *1153:DIODE *11542:DI[31] 0.000293312
25 *1153:DIODE *465:50 7.81829e-05
26 *11542:AD[8] *465:46 0.00150322
27 *11542:DI[29] *465:46 0.000119334
28 *194:16 *465:36 0
29 *229:12 *11515:DI[31] 4.60892e-05
30 *261:11 *11524:DI[31] 0
31 *261:11 *465:14 5.16211e-05
32 *293:14 *11533:DI[31] 0
33 *325:5 *11542:DI[31] 3.52156e-05
34 *376:95 *465:10 0.00127868
35 *394:60 *465:36 4.08276e-05
36 *416:18 *465:10 0.000150838
37 *416:60 *465:10 0.00113333
38 *416:78 *465:46 0.00546442
39 *418:34 *465:10 0.000925233
40 *420:50 *465:10 0.000386328
41 *427:16 *465:10 4.13443e-05
42 *427:24 *465:10 0.0016018
43 *427:62 *465:10 0.000124629
44 *427:64 *465:10 0.0026667
45 *433:78 *465:46 0.000449244
46 *456:57 *465:10 0.000712973
47 *456:57 *465:46 0.0278336
48 *463:36 *465:36 3.97748e-05
49 *463:71 *465:10 0.000572286
*RES
1 *11509:X *465:8 5.085 
2 *465:8 *465:10 153.105 
3 *465:10 *465:14 10.385 
4 *465:14 *11524:DI[31] 1.905 
5 *465:14 *465:36 49.4799 
6 *465:36 *11515:DI[31] 6.315 
7 *465:10 *465:46 328.8 
8 *465:46 *465:50 3.83 
9 *465:50 *11542:DI[31] 7.65 
10 *465:50 *465:64 13.54 
11 *465:64 *465:66 259.2 
12 *465:66 *11533:DI[31] 24.145 
*END

*D_NET *466 0.000732834
*CONN
*I *11393:A I *D sky130_fd_sc_hd__dlygate4sd3_1
*I *11510:X O *D sky130_fd_sc_hd__dlygate4sd3_1
*CAP
1 *11393:A 0.000167287
2 *11510:X 0.000167287
3 *11393:A *584:34 0.00019913
4 *11393:A *601:22 0.00019913
*RES
1 *11510:X *11393:A 10.92 
*END

*D_NET *467 0.245036
*CONN
*I *11542:AD[7] I *D CF_SRAM_1024x32
*I *11524:AD[7] I *D CF_SRAM_1024x32
*I *11515:AD[7] I *D CF_SRAM_1024x32
*I *11533:AD[7] I *D CF_SRAM_1024x32
*I *11511:X O *D sky130_fd_sc_hd__buf_12
*CAP
1 *11542:AD[7] 0.000549483
2 *11524:AD[7] 5.71744e-05
3 *11515:AD[7] 0.000336128
4 *11533:AD[7] 0.000388786
5 *11511:X 0.0105189
6 *467:82 0.0136749
7 *467:80 0.0135806
8 *467:58 0.00266007
9 *467:24 0.00688603
10 *467:22 0.0104201
11 *467:18 0.0162535
12 *11515:AD[7] *11515:AD[6] 0.000410785
13 *11524:AD[7] *11524:AD[6] 0.000107243
14 *11533:AD[7] *11533:AD[6] 0
15 *11542:AD[7] *11542:AD[6] 1.19249e-05
16 *467:22 *472:22 0.016723
17 *467:22 *472:52 0.000545634
18 *467:24 *472:24 0.028105
19 *467:58 *472:52 0.0114873
20 *467:80 *11524:AD[6] 1.13331e-05
21 *467:80 *472:68 4.3249e-05
22 *467:80 *474:110 0
23 *467:82 *11524:BEN[23] 0.00013581
24 *467:82 *11524:BEN[31] 0.000147915
25 *467:82 *472:70 0.0308183
26 *467:82 *552:153 0.000171239
27 *467:82 *552:165 0.000150106
28 *467:82 *552:177 0.000125228
29 *467:82 *552:189 0.000135795
30 *467:82 *555:112 0.000176522
31 *467:82 *555:149 0.000162227
32 *467:82 *555:161 0.000150106
33 *467:82 *555:173 0.000156928
34 *467:82 *558:173 0.00015166
35 *467:82 *558:185 0.000156928
36 *467:82 *558:197 0.000125244
37 *467:82 *558:209 0.000104111
38 *467:82 *558:221 0.000171239
39 *467:82 *558:233 0.000181806
40 *467:82 *631:110 0.000171239
41 *467:82 *631:122 0.000171239
42 *467:82 *631:159 0.000144823
43 *887:DIODE *467:18 3.32531e-05
44 *11318:A0 *467:82 0.00195756
45 *11515:AD[8] *11515:AD[7] 0.000151042
46 *11524:AD[8] *11524:AD[7] 1.45164e-05
47 *11533:AD[8] *11533:AD[7] 0.000225244
48 *11542:AD[8] *11542:AD[7] 0.000228166
49 *178:45 *467:18 0.00172496
50 *229:46 *467:18 0
51 *247:15 *467:58 1.92979e-05
52 *249:29 *467:18 9.32107e-06
53 *256:19 *467:80 6.25986e-05
54 *256:19 *467:82 0.00175918
55 *306:16 *467:82 0.000718505
56 *357:10 *467:24 0
57 *369:18 *467:18 0
58 *378:89 *467:24 1.34984e-05
59 *391:86 *467:22 6.60741e-06
60 *398:18 *467:58 6.63219e-06
61 *398:54 *467:82 0.00208616
62 *405:44 *11542:AD[7] 4.49044e-05
63 *405:44 *467:82 0.00308085
64 *418:38 *467:82 0.000122602
65 *422:32 *467:80 3.0559e-05
66 *427:64 *11542:AD[7] 5.89094e-05
67 *427:64 *467:82 0.0041098
68 *463:22 *467:22 0.0173052
69 *463:22 *467:58 0.000678265
70 *463:36 *467:24 0.0280529
71 *463:55 *467:58 0.0108023
72 *463:71 *11524:AD[7] 9.60582e-07
73 *463:71 *467:80 6.84257e-05
74 *463:73 *467:82 0.00518385
*RES
1 *11511:X *467:18 31.3257 
2 *467:18 *467:22 26.7289 
3 *467:22 *467:24 329.182 
4 *467:24 *11533:AD[7] 9.97625 
5 *467:22 *11515:AD[7] 9.03125 
6 *467:18 *467:58 20.3483 
7 *467:58 *11524:AD[7] 1.33875 
8 *467:58 *467:80 10.1246 
9 *467:80 *467:82 55.2495 
10 *467:82 *11542:AD[7] 12.9859 
*END

*D_NET *468 0.00257472
*CONN
*I *11435:A I *D sky130_fd_sc_hd__dlygate4sd3_1
*I *11512:X O *D sky130_fd_sc_hd__dlygate4sd3_1
*CAP
1 *11435:A 0.000689919
2 *11512:X 0.000689919
3 *11435:A *11632:A 0.000326985
4 *11435:A *592:20 1.43253e-05
5 *11435:A *600:16 9.52799e-05
6 *11512:A *11435:A 0.000758294
*RES
1 *11512:X *11435:A 18.315 
*END

*D_NET *469 0.000623866
*CONN
*I *11581:A I *D sky130_fd_sc_hd__buf_12
*I *11513:X O *D sky130_fd_sc_hd__dlygate4sd3_1
*CAP
1 *11581:A 0.000249449
2 *11513:X 0.000249449
3 *11581:A *11409:A 7.66807e-05
4 *11581:A *575:26 4.82863e-05
5 *11581:A *593:10 0
*RES
1 *11513:X *11581:A 11.07 
*END

*D_NET *470 0.00157268
*CONN
*I *11387:A I *D sky130_fd_sc_hd__dlygate4sd3_1
*I *11514:X O *D sky130_fd_sc_hd__dlygate4sd3_1
*CAP
1 *11387:A 0.00025323
2 *11514:X 0.00025323
3 *11387:A *11514:A 0.000301006
4 *11387:A *604:12 0.000341499
5 wbs_dat_o[7] *11387:A 8.35068e-05
6 *11486:A *11387:A 0.000340211
*RES
1 *11514:X *11387:A 14.25 
*END

*D_NET *471 0.0581154
*CONN
*I *11463:A I *D sky130_fd_sc_hd__buf_12
*I *11565:X O *D sky130_fd_sc_hd__buf_12
*CAP
1 *11463:A 0
2 *11565:X 0.0133125
3 *471:26 0.0133125
4 *471:26 *11454:A 1.92979e-05
5 *471:26 *482:24 0.0232996
6 *471:26 *493:16 0.00130641
7 *471:26 *504:18 0.00130913
8 *471:26 *526:24 0.00023567
9 *471:26 *558:381 0.000119351
10 *471:26 *558:415 0.000119351
11 *471:26 *558:427 0.000119351
12 *471:26 *569:16 0.00123887
13 *471:26 *572:24 0.00117756
14 *471:26 *576:8 0.00121828
15 wbs_dat_o[20] *471:26 0.000107425
16 *11318:A0 *471:26 0
17 *11355:A *471:26 0
18 *11364:A *471:26 0.000101386
19 *193:8 *471:26 0.000879531
20 *426:12 *471:26 0.000101633
21 *437:12 *471:26 0.000137504
*RES
1 *11565:X *471:26 48.6161 
2 *471:26 *11463:A 1.6 
*END

*D_NET *472 0.230656
*CONN
*I *11542:AD[6] I *D CF_SRAM_1024x32
*I *11524:AD[6] I *D CF_SRAM_1024x32
*I *11515:AD[6] I *D CF_SRAM_1024x32
*I *11533:AD[6] I *D CF_SRAM_1024x32
*I *11330:X O *D sky130_fd_sc_hd__buf_12
*CAP
1 *11542:AD[6] 0.000588267
2 *11524:AD[6] 6.87227e-05
3 *11515:AD[6] 0.000419297
4 *11533:AD[6] 0.000387063
5 *11330:X 0.00650294
6 *472:70 0.00669394
7 *472:68 0.00679747
8 *472:52 0.00552651
9 *472:24 0.00699167
10 *472:22 0.0141456
11 *472:18 0.0183907
12 *11515:AD[6] *11515:AD[5] 0
13 *11524:AD[6] *11524:AD[5] 0
14 *11533:AD[6] *11533:AD[5] 9.88495e-05
15 *11542:AD[6] *11542:AD[4] 0
16 *11542:AD[6] *11542:AD[5] 8.98399e-05
17 *472:22 *474:50 0
18 *472:22 *476:34 0
19 *472:22 *476:76 0
20 *472:24 *11515:AD[2] 4.0368e-05
21 *472:24 *474:78 0.00111281
22 *472:24 *474:80 0.000168217
23 *472:24 *478:48 0.0253506
24 *472:52 *476:76 0
25 *472:52 *476:94 0
26 *472:68 *476:94 0
27 *472:70 *476:96 0.0303304
28 *11318:A0 *472:70 0
29 *11515:AD[7] *11515:AD[6] 0.000410785
30 *11524:AD[7] *11524:AD[6] 0.000107243
31 *11533:AD[7] *11533:AD[6] 0
32 *11542:AD[7] *11542:AD[6] 1.19249e-05
33 *174:77 *472:18 1.86045e-05
34 *178:45 *472:18 0.00248122
35 *226:34 *472:18 4.4693e-05
36 *247:15 *11524:AD[6] 1.79194e-05
37 *357:10 *472:24 0
38 *367:18 *472:18 0.00681674
39 *369:18 *472:18 0.000560788
40 *378:89 *472:24 0.000699145
41 *391:86 *472:22 4.0358e-05
42 *398:18 *11524:AD[6] 4.69148e-06
43 *405:44 *11542:AD[6] 4.78488e-05
44 *416:60 *472:70 0.000293646
45 *420:50 *472:70 0.00347309
46 *422:60 *472:24 1.87271e-05
47 *427:24 *472:70 0.000334965
48 *427:64 *11542:AD[6] 6.12746e-05
49 *456:57 *472:70 0.00363131
50 *461:54 *472:68 9.99319e-06
51 *463:71 *472:70 0.000133635
52 *467:22 *472:22 0.016723
53 *467:22 *472:52 0.000545634
54 *467:24 *472:24 0.028105
55 *467:58 *472:52 0.0114873
56 *467:80 *11524:AD[6] 1.13331e-05
57 *467:80 *472:68 4.3249e-05
58 *467:82 *472:70 0.0308183
*RES
1 *11330:X *472:18 31.3536 
2 *472:18 *472:22 25.8549 
3 *472:22 *472:24 330.203 
4 *472:24 *11533:AD[6] 9.19625 
5 *472:22 *11515:AD[6] 9.16625 
6 *472:18 *472:52 18.0715 
7 *472:52 *11524:AD[6] 3.82375 
8 *472:52 *472:68 1.73247 
9 *472:68 *472:70 55.594 
10 *472:70 *11542:AD[6] 11.9774 
*END

*D_NET *473 0.000350183
*CONN
*I *11385:A I *D sky130_fd_sc_hd__dlygate4sd3_1
*I *11331:X O *D sky130_fd_sc_hd__dlygate4sd3_1
*CAP
1 *11385:A 0.000118509
2 *11331:X 0.000118509
3 *11385:A *597:10 0
4 *11385:A *599:12 8.52845e-05
5 *349:10 *11385:A 2.7881e-05
*RES
1 *11331:X *11385:A 9.375 
*END

*D_NET *474 0.223896
*CONN
*I *11542:AD[5] I *D CF_SRAM_1024x32
*I *11524:AD[5] I *D CF_SRAM_1024x32
*I *11533:AD[5] I *D CF_SRAM_1024x32
*I *11515:AD[5] I *D CF_SRAM_1024x32
*I *11332:X O *D sky130_fd_sc_hd__buf_12
*CAP
1 *11542:AD[5] 0.00146521
2 *11524:AD[5] 7.68003e-05
3 *11533:AD[5] 0.000510971
4 *11515:AD[5] 0.000612714
5 *11332:X 0.00855851
6 *474:112 0.00811664
7 *474:110 0.0072665
8 *474:103 6.71993e-06
9 *474:98 0.00576861
10 *474:80 0.0075315
11 *474:78 0.00769653
12 *474:59 6.71993e-06
13 *474:50 0.00798917
14 *474:46 0.0203491
15 *11515:AD[5] *11515:AD[4] 0.000212473
16 *11515:AD[5] *558:129 0.000146596
17 *11524:AD[5] *11524:AD[4] 2.61299e-05
18 *11533:AD[5] *11533:AD[4] 0
19 *11542:AD[5] *11542:AD[4] 0
20 *11542:AD[5] *478:80 0.00141045
21 *11542:AD[5] *491:94 0.000147915
22 *474:46 *476:30 0.00926125
23 *474:50 *476:34 0.0155517
24 *474:50 *476:76 0.000256713
25 *474:50 *491:24 0
26 *474:50 *491:74 0
27 *474:78 *11515:SM 0
28 *474:78 *558:129 0.000919087
29 *474:80 *478:48 0.00572786
30 *474:80 *629:74 0.000153142
31 *474:98 *11524:AD[4] 1.79536e-05
32 *474:98 *476:76 0.0126722
33 *474:98 *476:94 5.83844e-05
34 *474:98 *485:20 0
35 *474:98 *491:74 0
36 *474:112 *476:96 0.00556689
37 *865:DIODE *474:112 0.000175536
38 *912:DIODE *474:112 0.000107634
39 *919:DIODE *474:112 0.000101467
40 *1086:DIODE *474:112 0.000179922
41 *11307:B2 *474:46 0
42 *11330:A *474:46 0.000183036
43 *11515:EN *474:78 0
44 *11515:AD[6] *11515:AD[5] 0
45 *11515:DI[17] *474:78 5.83121e-06
46 *11524:AD[6] *11524:AD[5] 0
47 *11533:AD[6] *11533:AD[5] 9.88495e-05
48 *11542:AD[6] *11542:AD[5] 8.98399e-05
49 *174:69 *474:46 0.00160534
50 *174:77 *474:46 3.59337e-05
51 *213:18 *474:78 4.41506e-05
52 *224:48 *474:46 0
53 *244:103 *474:112 0.000187766
54 *245:126 *474:112 0.000116165
55 *246:15 *474:112 6.72196e-05
56 *247:13 *474:98 0.000148325
57 *254:13 *474:98 7.26352e-05
58 *254:99 *474:112 0.000141599
59 *256:17 *474:112 0.000365049
60 *304:15 *474:112 7.23602e-05
61 *378:89 *474:78 0.00110998
62 *378:89 *474:80 0.0152431
63 *383:28 *474:46 0.000174537
64 *394:58 *11515:AD[5] 8.35068e-05
65 *416:64 *474:112 0.001527
66 *416:66 *474:112 0.00476225
67 *416:76 *474:112 7.91584e-06
68 *416:78 *474:112 0.00513782
69 *418:34 *474:110 5.69601e-06
70 *427:16 *474:112 0.00131916
71 *433:10 *474:112 0.0045741
72 *433:76 *474:112 0.00123673
73 *433:78 *11542:AD[5] 0.00193701
74 *456:10 *474:112 1.14559e-05
75 *456:18 *474:112 0.000798387
76 *461:36 *11515:AD[5] 0.000148424
77 *461:36 *474:78 0.000912318
78 *461:36 *474:80 0.025061
79 *465:10 *474:112 0.0122706
80 *465:46 *474:112 0.014411
81 *467:80 *474:110 0
82 *472:22 *474:50 0
83 *472:24 *474:78 0.00111281
84 *472:24 *474:80 0.000168217
*RES
1 *11332:X *474:46 36.7842 
2 *474:46 *474:50 24.5147 
3 *474:50 *11515:AD[5] 12.4925 
4 *11515:AD[5] *474:59 0.11625 
5 *474:50 *474:78 34.0775 
6 *474:78 *474:80 303.81 
7 *474:80 *11533:AD[5] 11.2063 
8 *474:46 *474:98 23.3828 
9 *474:98 *11524:AD[5] 1.14 
10 *11524:AD[5] *474:103 0.11625 
11 *474:98 *474:110 10.385 
12 *474:110 *474:112 306.87 
13 *474:112 *11542:AD[5] 41.0513 
*END

*D_NET *475 0.000796329
*CONN
*I *11380:A I *D sky130_fd_sc_hd__dlygate4sd3_1
*I *11333:X O *D sky130_fd_sc_hd__dlygate4sd3_1
*CAP
1 *11380:A 0.000224661
2 *11333:X 0.000224661
3 *11380:A *11635:A 0.000112284
4 *11380:A *599:12 0.000234722
*RES
1 *11333:X *11380:A 10.755 
*END

*D_NET *476 0.234165
*CONN
*I *11542:AD[4] I *D CF_SRAM_1024x32
*I *11524:AD[4] I *D CF_SRAM_1024x32
*I *11533:AD[4] I *D CF_SRAM_1024x32
*I *11515:AD[4] I *D CF_SRAM_1024x32
*I *11334:X O *D sky130_fd_sc_hd__buf_12
*CAP
1 *11542:AD[4] 0.000685983
2 *11524:AD[4] 9.48266e-05
3 *11533:AD[4] 0.000713789
4 *11515:AD[4] 0.000702571
5 *11334:X 0.00465109
6 *476:96 0.00822086
7 *476:94 0.00834243
8 *476:76 0.00602624
9 *476:64 0.00739443
10 *476:62 0.00765589
11 *476:54 0.0019757
12 *476:34 0.00829122
13 *476:30 0.0163631
14 *11515:AD[4] *558:129 1.88904e-05
15 *11515:AD[4] *631:68 7.96104e-06
16 *476:54 *11515:AD[0] 0.00014979
17 *476:54 *483:44 0.000285279
18 *476:54 *552:70 0.000485061
19 *476:54 *558:129 0.002848
20 *476:54 *631:68 0.00122711
21 *476:62 *485:86 0.00052144
22 *476:62 *631:68 0.00174822
23 *476:64 *485:86 0.003687
24 *476:64 *555:20 0.000217714
25 *476:64 *630:74 0.0177359
26 *476:64 *631:68 0.00164212
27 *476:96 *485:40 5.02359e-05
28 *476:96 *491:94 0.0177004
29 *1068:DIODE *476:64 0.000111543
30 *1081:DIODE *476:64 0.000111749
31 *1176:DIODE *476:64 6.59891e-05
32 *1184:DIODE *476:64 0.00018375
33 *11307:B2 *476:30 0.000344647
34 *11319:B2 *476:30 3.38698e-05
35 *11515:AD[5] *11515:AD[4] 0.000212473
36 *11515:DI[20] *476:62 0.000194202
37 *11524:AD[5] *11524:AD[4] 2.61299e-05
38 *11533:AD[5] *11533:AD[4] 0
39 *11542:AD[5] *11542:AD[4] 0
40 *11542:AD[6] *11542:AD[4] 0
41 *11542:AD[8] *476:96 0.000165398
42 *174:69 *476:30 0.0103173
43 *174:77 *476:30 5.98541e-05
44 *228:22 *476:62 0.00339735
45 *228:22 *476:64 0.00469928
46 *254:13 *11524:AD[4] 1.79536e-05
47 *296:20 *476:64 0.0128822
48 *304:69 *476:64 0.000139933
49 *329:51 *476:64 0.000181229
50 *331:95 *476:64 7.06865e-05
51 *365:28 *476:30 9.4688e-05
52 *372:18 *476:30 5.14577e-05
53 *394:58 *11515:AD[4] 5.16211e-05
54 *398:28 *476:62 1.7635e-05
55 *402:44 *476:62 1.7635e-05
56 *405:34 *476:62 0.000270716
57 *405:44 *11542:AD[4] 0
58 *407:36 *476:62 6.5536e-05
59 *411:42 *476:64 0.000151317
60 *416:30 *476:64 0.00033076
61 *420:38 *476:64 8.41149e-05
62 *427:16 *476:96 0.000117854
63 *427:64 *11542:AD[4] 4.01535e-05
64 *433:10 *476:96 0.000109675
65 *433:78 *476:96 0.000799998
66 *465:10 *476:96 0.00250413
67 *465:46 *476:96 0.00308372
68 *472:22 *476:34 0
69 *472:22 *476:76 0
70 *472:52 *476:76 0
71 *472:52 *476:94 0
72 *472:68 *476:94 0
73 *472:70 *476:96 0.0303304
74 *474:46 *476:30 0.00926125
75 *474:50 *476:34 0.0155517
76 *474:50 *476:76 0.000256713
77 *474:98 *11524:AD[4] 1.79536e-05
78 *474:98 *476:76 0.0126722
79 *474:98 *476:94 5.83844e-05
80 *474:112 *476:96 0.00556689
*RES
1 *11334:X *476:30 33.6912 
2 *476:30 *476:34 24.0486 
3 *476:34 *11515:AD[4] 12.3612 
4 *476:34 *476:54 38.8675 
5 *476:54 *476:62 41.2725 
6 *476:62 *476:64 255.997 
7 *476:64 *11533:AD[4] 12.9688 
8 *476:30 *476:76 19.4117 
9 *476:76 *11524:AD[4] 4.23625 
10 *476:76 *476:94 1.90727 
11 *476:94 *476:96 55.594 
12 *476:96 *11542:AD[4] 11.5932 
*END

*D_NET *477 0.00020282
*CONN
*I *11374:A I *D sky130_fd_sc_hd__dlygate4sd3_1
*I *11335:X O *D sky130_fd_sc_hd__dlygate4sd3_1
*CAP
1 *11374:A 7.11241e-05
2 *11335:X 7.11241e-05
3 *11374:A *633:10 6.05715e-05
*RES
1 *11335:X *11374:A 8.58 
*END

*D_NET *478 0.20997
*CONN
*I *11542:AD[3] I *D CF_SRAM_1024x32
*I *11524:AD[3] I *D CF_SRAM_1024x32
*I *11533:AD[3] I *D CF_SRAM_1024x32
*I *11515:AD[3] I *D CF_SRAM_1024x32
*I *11336:X O *D sky130_fd_sc_hd__buf_12
*CAP
1 *11542:AD[3] 0.000626711
2 *11524:AD[3] 9.79604e-05
3 *11533:AD[3] 0.000316536
4 *11515:AD[3] 0.00029015
5 *11336:X 0.00733336
6 *478:80 0.0193687
7 *478:78 0.0193059
8 *478:66 0.00757422
9 *478:55 8.05742e-06
10 *478:48 0.00648476
11 *478:46 0.00705523
12 *478:33 6.77883e-07
13 *478:28 0.00788659
14 *478:18 0.0209639
15 *11515:AD[3] *11515:ScanInCC 0.000614696
16 *11524:AD[3] *11524:ScanInCC 4.23612e-05
17 *478:18 *11615:A 3.09166e-05
18 *478:18 *483:18 0.00444727
19 *478:28 *11515:ScanInCC 0.000332719
20 *478:33 *11515:ScanInCC 1.16578e-05
21 *478:78 *11524:ScanInCC 0.000313059
22 *478:80 *491:94 0.00630994
23 *11515:AD[8] *478:46 4.08276e-05
24 *11515:AD[9] *11515:AD[3] 0
25 *11515:AD[9] *478:28 0
26 *11515:DI[0] *478:28 4.91194e-05
27 *11515:DI[17] *478:46 8.247e-05
28 *11524:EN *478:66 0
29 *11524:AD[9] *11524:AD[3] 0
30 *11524:AD[9] *478:78 0
31 *11533:AD[9] *11533:AD[3] 0
32 *11533:ScanInCC *11533:AD[3] 0.00079837
33 *11542:AD[5] *478:80 0.00141045
34 *11542:AD[9] *11542:AD[3] 8.18042e-05
35 *11542:ScanInCC *11542:AD[3] 0.00036419
36 *171:79 *478:18 1.13099e-05
37 *201:167 *478:28 0.000124877
38 *202:137 *478:18 0.00521485
39 *222:40 *478:18 0
40 *247:15 *478:66 0.000176278
41 *353:10 *478:46 0.00101941
42 *378:89 *478:46 0
43 *378:89 *478:48 0.0151642
44 *380:18 *478:18 0.000195198
45 *383:100 *478:80 0
46 *385:81 *478:46 1.99922e-05
47 *389:36 *478:46 6.45647e-05
48 *389:42 *11515:AD[3] 3.37655e-05
49 *389:42 *478:28 8.43478e-06
50 *394:60 *478:46 0.00182608
51 *396:30 *478:28 0.00115785
52 *396:30 *478:66 0.00419093
53 *396:78 *478:28 0.0104838
54 *396:102 *478:28 8.58806e-05
55 *398:16 *478:78 0.000229309
56 *416:66 *478:80 8.76645e-06
57 *416:76 *478:80 0.00250888
58 *433:22 *478:80 4.01535e-05
59 *433:58 *478:80 0.0047997
60 *433:68 *478:80 0.00189902
61 *433:76 *478:80 0.00128806
62 *433:78 *478:80 0.00215174
63 *456:10 *478:80 0.0114132
64 *456:18 *478:80 1.38097e-05
65 *463:36 *478:46 0.0025192
66 *472:24 *478:48 0.0253506
67 *474:80 *478:48 0.00572786
*RES
1 *11336:X *478:18 30.2338 
2 *478:18 *478:28 30.3398 
3 *478:28 *11515:AD[3] 5.97 
4 *11515:AD[3] *478:33 0.108889 
5 *478:28 *478:46 41.505 
6 *478:46 *478:48 296.16 
7 *478:48 *11533:AD[3] 9.35 
8 *11533:AD[3] *478:55 0.13125 
9 *478:18 *478:66 25.6189 
10 *478:66 *11524:AD[3] 1.65375 
11 *478:66 *478:78 11.765 
12 *478:78 *478:80 330.075 
13 *478:80 *11542:AD[3] 13.2837 
*END

*D_NET *479 0.000532948
*CONN
*I *11437:A I *D sky130_fd_sc_hd__dlygate4sd3_1
*I *11337:X O *D sky130_fd_sc_hd__dlygate4sd3_1
*CAP
1 *11437:A 0.000243169
2 *11337:X 0.000243169
3 *11437:A *592:20 4.66108e-05
*RES
1 *11337:X *11437:A 9.825 
*END

*D_NET *480 0.000480675
*CONN
*I *11569:A I *D sky130_fd_sc_hd__buf_12
*I *11338:X O *D sky130_fd_sc_hd__dlygate4sd3_1
*CAP
1 *11569:A 0.000240337
2 *11338:X 0.000240337
3 *11569:A *11618:A 0
4 *11338:A *11569:A 0
*RES
1 *11338:X *11569:A 10.62 
*END

*D_NET *481 0.00181716
*CONN
*I *11378:A I *D sky130_fd_sc_hd__dlygate4sd3_1
*I *11339:X O *D sky130_fd_sc_hd__dlygate4sd3_1
*CAP
1 *11378:A 0.000349471
2 *11339:X 0.000349471
3 *11378:A *11339:A 0.000477024
4 *11378:A *592:28 4.66108e-05
5 *11378:A *599:12 2.49909e-05
6 *11378:A *622:12 0.000228752
7 *11377:A *11378:A 0.00034084
*RES
1 *11339:X *11378:A 16.08 
*END

*D_NET *482 0.0608033
*CONN
*I *11467:A I *D sky130_fd_sc_hd__buf_12
*I *11566:X O *D sky130_fd_sc_hd__buf_12
*CAP
1 *11467:A 0
2 *11566:X 0.0150489
3 *482:24 0.0150489
4 *482:24 *11454:A 8.29471e-05
5 *482:24 *11459:A 0.000107425
6 *482:24 *548:14 0.000314586
7 *482:24 *548:18 0.000436205
8 *482:24 *572:14 0.000306083
9 *482:24 *607:18 0.000203266
10 *482:24 *610:24 0.000128556
11 wbs_dat_o[18] *482:24 0.00012905
12 *11321:S *482:24 0.000236066
13 *11346:A *482:24 0.000149167
14 *11357:A *482:24 0
15 *115:71 *482:24 0.00100627
16 *168:103 *482:24 0.00107582
17 *168:114 *482:24 0.000327146
18 *185:10 *482:24 0.00112486
19 *266:83 *482:24 0.000233925
20 *418:24 *482:24 0.000271334
21 *426:12 *482:24 0.000423254
22 *437:12 *482:24 0.000459124
23 *460:14 *482:24 0.000390798
24 *471:26 *482:24 0.0232996
*RES
1 *11566:X *482:24 49.4057 
2 *482:24 *11467:A 3.6 
*END

*D_NET *483 0.236148
*CONN
*I *11542:AD[2] I *D CF_SRAM_1024x32
*I *11524:AD[2] I *D CF_SRAM_1024x32
*I *11533:AD[2] I *D CF_SRAM_1024x32
*I *11515:AD[2] I *D CF_SRAM_1024x32
*I *11341:X O *D sky130_fd_sc_hd__buf_12
*CAP
1 *11542:AD[2] 0.000542306
2 *11524:AD[2] 0.000163078
3 *11533:AD[2] 0.000491566
4 *11515:AD[2] 0.000802652
5 *11341:X 0.00493946
6 *483:99 0
7 *483:84 0.0177233
8 *483:82 0.0178771
9 *483:75 0
10 *483:64 0.00438905
11 *483:59 0
12 *483:44 0.0168855
13 *483:39 0
14 *483:22 0.0212798
15 *483:18 0.0125525
16 *11515:AD[2] *11515:AD[1] 5.13899e-05
17 *11515:AD[2] *491:44 0.000114942
18 *11524:AD[2] *11524:AD[1] 1.4336e-05
19 *11524:AD[2] *491:92 0
20 *11533:AD[2] *11533:AD[0] 2.26485e-05
21 *11533:AD[2] *11533:AD[1] 0.000679929
22 *11542:AD[2] *11542:AD[0] 5.56205e-06
23 *11542:AD[2] *11542:AD[1] 0.0011456
24 *483:18 *11615:A 0.000365806
25 *483:22 *11515:AD[1] 7.83145e-05
26 *483:22 *485:20 0.00109474
27 *483:22 *485:66 0.00666557
28 *483:22 *491:24 0.00700244
29 *483:22 *491:74 0.000414309
30 *483:44 *491:44 0.0305261
31 *483:44 *558:129 0.00177896
32 *483:44 *558:141 0.000357691
33 *483:44 *558:277 0.000155389
34 *483:44 *629:72 0.000169048
35 *483:44 *629:74 0.000510905
36 *483:44 *630:54 0.000142305
37 *483:44 *630:66 0.00100841
38 *483:64 *485:20 0.0141906
39 *483:64 *485:38 9.04081e-05
40 *483:82 *485:38 0.000953515
41 *483:82 *491:92 0.00016616
42 *483:84 *485:40 0.0306281
43 *11524:R_WB *483:22 0.00042137
44 *11524:R_WB *483:64 0.00580304
45 *141:24 *483:44 0.000317277
46 *171:69 *483:18 0
47 *197:16 *11515:AD[2] 0.0002386
48 *200:22 *11515:AD[2] 5.27999e-06
49 *200:22 *483:22 0.000292724
50 *200:46 *483:22 0.00107376
51 *202:18 *483:18 0
52 *202:137 *483:18 0.00521973
53 *221:32 *483:18 0
54 *246:67 *483:64 0
55 *247:13 *11524:AD[2] 0.00017042
56 *273:14 *483:44 0.000697054
57 *354:8 *11515:AD[2] 9.46859e-06
58 *357:8 *11533:AD[2] 0.000126309
59 *358:8 *11533:AD[2] 2.20732e-05
60 *361:8 *11542:AD[2] 0.000224904
61 *378:89 *11515:AD[2] 3.93371e-05
62 *380:18 *483:18 0.00922695
63 *394:58 *11515:AD[2] 0.000103491
64 *396:104 *483:44 0.00579409
65 *398:18 *11524:AD[2] 0.00017042
66 *433:78 *11542:AD[2] 3.86479e-05
67 *461:36 *483:44 0.0054004
68 *472:24 *11515:AD[2] 4.0368e-05
69 *476:54 *483:44 0.000285279
70 *478:18 *483:18 0.00444727
*RES
1 *11341:X *483:18 35.4438 
2 *483:18 *483:22 22.2132 
3 *483:22 *11515:AD[2] 11.4924 
4 *11515:AD[2] *483:39 0.154737 
5 *483:22 *483:44 55.4217 
6 *483:44 *11533:AD[2] 10.3675 
7 *11533:AD[2] *483:59 0.108889 
8 *483:18 *483:64 21.451 
9 *483:64 *11524:AD[2] 6.3475 
10 *11524:AD[2] *483:75 0.154737 
11 *483:64 *483:82 2.1986 
12 *483:82 *483:84 55.5079 
13 *483:84 *11542:AD[2] 14.1844 
14 *11542:AD[2] *483:99 0.108889 
*END

*D_NET *484 0.000116115
*CONN
*I *11382:A I *D sky130_fd_sc_hd__dlygate4sd3_1
*I *11342:X O *D sky130_fd_sc_hd__dlygate4sd3_1
*CAP
1 *11382:A 1.02819e-05
2 *11342:X 1.02819e-05
3 *11382:A *11632:A 4.77757e-05
4 *11382:A *592:28 4.77757e-05
*RES
1 *11342:X *11382:A 3.65 
*END

*D_NET *485 0.244834
*CONN
*I *11533:AD[1] I *D CF_SRAM_1024x32
*I *11515:AD[1] I *D CF_SRAM_1024x32
*I *11542:AD[1] I *D CF_SRAM_1024x32
*I *11524:AD[1] I *D CF_SRAM_1024x32
*I *11343:X O *D sky130_fd_sc_hd__buf_12
*CAP
1 *11533:AD[1] 0.000435502
2 *11515:AD[1] 0.000846477
3 *11542:AD[1] 0.000616402
4 *11524:AD[1] 0.000122411
5 *11343:X 0.00916958
6 *485:86 0.0154977
7 *485:84 0.0150622
8 *485:66 0.00448762
9 *485:40 0.00619076
10 *485:38 0.00625198
11 *485:20 0.0036176
12 *485:16 0.0156283
13 *11515:AD[1] *11515:AD[0] 7.8877e-05
14 *11524:AD[1] *491:74 0.000101656
15 *11524:AD[1] *491:92 3.1562e-06
16 *11533:AD[1] *11533:AD[0] 0.0004039
17 *11542:AD[1] *11542:AD[0] 0.000105412
18 *485:16 *11614:A 0
19 *485:16 *491:22 0
20 *485:20 *491:74 0.0152536
21 *485:40 *491:94 0.0305088
22 *485:86 *491:44 0.0304778
23 *11298:B2 *485:16 0.000116158
24 *11515:AD[2] *11515:AD[1] 5.13899e-05
25 *11524:AD[2] *11524:AD[1] 1.4336e-05
26 *11524:R_WB *485:66 0.0116248
27 *11533:AD[2] *11533:AD[1] 0.000679929
28 *11533:R_WB *11533:AD[1] 0
29 *11542:AD[2] *11542:AD[1] 0.0011456
30 *149:22 *485:86 0.000671843
31 *153:24 *485:86 0
32 *196:22 *485:66 7.66792e-05
33 *197:16 *11515:AD[1] 0.000176926
34 *200:22 *485:66 0.000289945
35 *200:46 *485:66 0.00109222
36 *220:30 *485:16 0
37 *228:22 *485:86 0.00198477
38 *244:17 *485:66 0
39 *247:13 *11524:AD[1] 1.79536e-05
40 *296:20 *485:86 0.00226321
41 *297:20 *485:86 0.00112672
42 *357:8 *11533:AD[1] 8.62445e-06
43 *378:89 *11515:AD[1] 0.000148801
44 *385:16 *485:16 0.010168
45 *385:58 *485:16 0.000208241
46 *391:20 *485:16 0
47 *391:68 *485:16 0
48 *433:78 *11542:AD[1] 4.81484e-06
49 *461:36 *11515:AD[1] 0.000143936
50 *474:98 *485:20 0
51 *476:62 *485:86 0.00052144
52 *476:64 *485:86 0.003687
53 *476:96 *485:40 5.02359e-05
54 *483:22 *11515:AD[1] 7.83145e-05
55 *483:22 *485:20 0.00109474
56 *483:22 *485:66 0.00666557
57 *483:64 *485:20 0.0141906
58 *483:64 *485:38 9.04081e-05
59 *483:82 *485:38 0.000953515
60 *483:84 *485:40 0.0306281
*RES
1 *11343:X *485:16 34.8576 
2 *485:16 *485:20 23.4659 
3 *485:20 *11524:AD[1] 4.88125 
4 *485:20 *485:38 2.1986 
5 *485:38 *485:40 55.5079 
6 *485:40 *11542:AD[1] 14.6059 
7 *485:16 *485:66 20.6451 
8 *485:66 *11515:AD[1] 13.7863 
9 *485:66 *485:84 0.5 
10 *485:84 *485:86 55.3356 
11 *485:86 *11533:AD[1] 11.4928 
*END

*D_NET *486 0.000635888
*CONN
*I *11440:A I *D sky130_fd_sc_hd__dlygate4sd3_1
*I *11344:X O *D sky130_fd_sc_hd__dlygate4sd3_1
*CAP
1 *11440:A 0.000293512
2 *11344:X 0.000293512
3 *11344:A *11440:A 1.83756e-05
4 *11345:A *11440:A 3.04882e-05
5 *393:10 *11440:A 0
*RES
1 *11344:X *11440:A 11.415 
*END

*D_NET *487 0.000507654
*CONN
*I *11557:A I *D sky130_fd_sc_hd__buf_12
*I *11345:X O *D sky130_fd_sc_hd__dlygate4sd3_1
*CAP
1 *11557:A 0.000122931
2 *11345:X 0.000122931
3 wbs_dat_o[0] *11557:A 0.000141606
4 *393:10 *11557:A 0.000120186
*RES
1 *11345:X *11557:A 9.975 
*END

*D_NET *488 0.000343723
*CONN
*I *11442:A I *D sky130_fd_sc_hd__dlygate4sd3_1
*I *11346:X O *D sky130_fd_sc_hd__dlygate4sd3_1
*CAP
1 *11442:A 7.13219e-05
2 *11346:X 7.13219e-05
3 *11442:A *610:24 0.000201079
*RES
1 *11346:X *11442:A 5.03 
*END

*D_NET *489 0.000372404
*CONN
*I *11568:A I *D sky130_fd_sc_hd__buf_12
*I *11347:X O *D sky130_fd_sc_hd__dlygate4sd3_1
*CAP
1 *11568:A 0.000127557
2 *11347:X 0.000127557
3 *11568:A *504:12 0.000105897
4 *11568:A *619:6 1.1392e-05
*RES
1 *11347:X *11568:A 9.03 
*END

*D_NET *490 0.000339074
*CONN
*I *11391:A I *D sky130_fd_sc_hd__dlygate4sd3_1
*I *11348:X O *D sky130_fd_sc_hd__dlygate4sd3_1
*CAP
1 *11391:A 9.38937e-05
2 *11348:X 9.38937e-05
3 *11391:A *11632:A 5.64507e-05
4 *11391:A *626:8 4.77757e-05
5 *745:DIODE *11391:A 2.97004e-06
6 *231:21 *11391:A 4.40899e-05
*RES
1 *11348:X *11391:A 9.03 
*END

*D_NET *491 0.239883
*CONN
*I *11542:AD[0] I *D CF_SRAM_1024x32
*I *11524:AD[0] I *D CF_SRAM_1024x32
*I *11533:AD[0] I *D CF_SRAM_1024x32
*I *11515:AD[0] I *D CF_SRAM_1024x32
*I *11349:X O *D sky130_fd_sc_hd__buf_12
*CAP
1 *11542:AD[0] 0.000868558
2 *11524:AD[0] 1.01883e-05
3 *11533:AD[0] 0.000634783
4 *11515:AD[0] 0.000649758
5 *11349:X 0.0104566
6 *491:94 0.00827508
7 *491:92 0.00814983
8 *491:74 0.00718778
9 *491:44 0.00784724
10 *491:42 0.00721246
11 *491:24 0.00653393
12 *491:22 0.022775
13 *11515:AD[0] *631:68 0.000147487
14 *491:22 *11343:A 0
15 *491:44 *630:74 0.00339498
16 *491:44 *631:68 0.00300836
17 *491:44 *631:199 0.000109394
18 *11515:AD[1] *11515:AD[0] 7.8877e-05
19 *11515:AD[2] *491:44 0.000114942
20 *11515:R_WB *11515:AD[0] 0.000441277
21 *11524:AD[1] *491:74 0.000101656
22 *11524:AD[1] *491:92 3.1562e-06
23 *11524:AD[2] *491:92 0
24 *11524:EN *491:92 0
25 *11524:R_WB *491:92 3.31103e-05
26 *11533:AD[1] *11533:AD[0] 0.0004039
27 *11533:AD[2] *11533:AD[0] 2.26485e-05
28 *11533:R_WB *11533:AD[0] 0
29 *11542:AD[1] *11542:AD[0] 0.000105412
30 *11542:AD[2] *11542:AD[0] 5.56205e-06
31 *11542:R_WB *11542:AD[0] 0
32 *11542:AD[5] *491:94 0.000147915
33 *153:24 *491:44 0
34 *200:22 *491:44 6.0645e-05
35 *247:13 *491:74 2.02515e-05
36 *254:13 *491:74 5.84554e-05
37 *256:19 *491:92 4.24632e-05
38 *391:20 *491:22 0.00148659
39 *391:68 *491:22 2.36153e-05
40 *396:102 *491:44 0.000100952
41 *405:44 *11542:AD[0] 0
42 *416:64 *491:94 0.000739778
43 *416:66 *491:94 0.000918626
44 *416:76 *491:94 0.000549441
45 *416:78 *491:94 0.00133209
46 *418:38 *491:92 4.01548e-05
47 *427:16 *491:94 0.000151862
48 *427:64 *11542:AD[0] 0.000151317
49 *433:10 *491:94 0.00215545
50 *433:58 *491:94 0.000929338
51 *433:68 *491:94 0.000706385
52 *433:76 *491:94 0.000697357
53 *433:78 *491:94 0.000147915
54 *456:10 *491:94 0.00215545
55 *456:18 *491:94 0.000185571
56 *474:50 *491:24 0
57 *474:50 *491:74 0
58 *474:98 *491:74 0
59 *476:54 *11515:AD[0] 0.00014979
60 *476:96 *491:94 0.0177004
61 *478:80 *491:94 0.00630994
62 *483:22 *491:24 0.00700244
63 *483:22 *491:74 0.000414309
64 *483:44 *491:44 0.0305261
65 *483:82 *491:92 0.00016616
66 *485:16 *491:22 0
67 *485:20 *491:74 0.0152536
68 *485:40 *491:94 0.0305088
69 *485:86 *491:44 0.0304778
*RES
1 *11349:X *491:22 35.464 
2 *491:22 *491:24 18.9455 
3 *491:24 *11515:AD[0] 14.2037 
4 *491:24 *491:42 0.5 
5 *491:42 *491:44 55.8524 
6 *491:44 *11533:AD[0] 11.7103 
7 *491:22 *491:74 29.119 
8 *491:74 *11524:AD[0] 0.17625 
9 *491:74 *491:92 11.3708 
10 *491:92 *491:94 55.2495 
11 *491:94 *11542:AD[0] 14.1587 
*END

*D_NET *492 0.000398468
*CONN
*I *11444:A I *D sky130_fd_sc_hd__dlygate4sd3_1
*I *11350:X O *D sky130_fd_sc_hd__dlygate4sd3_1
*CAP
1 *11444:A 0.000117058
2 *11350:X 0.000117058
3 *11444:A *11621:A 0.000164352
*RES
1 *11350:X *11444:A 5.72 
*END

*D_NET *493 0.0436189
*CONN
*I *11472:A I *D sky130_fd_sc_hd__buf_12
*I *11567:X O *D sky130_fd_sc_hd__buf_12
*CAP
1 *11472:A 5.99565e-05
2 *11567:X 0.000218682
3 *493:16 0.00257364
4 *493:14 0.00251369
5 *493:12 0.00388638
6 *493:10 0.00410506
7 *493:12 *526:12 0.00227406
8 *493:12 *608:14 0.00374321
9 *493:12 *613:14 0.00277343
10 *493:16 *11630:A 0
11 *493:16 *504:18 0.0072546
12 *493:16 *526:22 0
13 *493:16 *569:16 0.000696372
14 *493:16 *572:24 0.00687473
15 *493:16 *576:8 0.000882023
16 wbs_dat_o[18] *493:10 0
17 wbs_dat_o[30] *493:16 0
18 *11401:A *493:16 0
19 *11402:A *493:16 0.000289578
20 *415:12 *493:12 0.00336018
21 *427:14 *11472:A 1.16578e-05
22 *449:16 *493:12 0.000795279
23 *471:26 *493:16 0.00130641
*RES
1 *11567:X *493:10 8.51 
2 *493:10 *493:12 124.305 
3 *493:12 *493:14 2 
4 *493:14 *493:16 105.165 
5 *493:16 *11472:A 4.395 
*END

*D_NET *494 0.000611499
*CONN
*I *11570:A I *D sky130_fd_sc_hd__buf_12
*I *11352:X O *D sky130_fd_sc_hd__dlygate4sd3_1
*CAP
1 *11570:A 0.000281917
2 *11352:X 0.000281917
3 *11570:A *620:12 1.71773e-05
4 wbs_dat_o[20] *11570:A 0
5 *11352:A *11570:A 3.04882e-05
6 *11432:A *11570:A 0
*RES
1 *11352:X *11570:A 11.325 
*END

*D_NET *495 0.00102834
*CONN
*I *11446:A I *D sky130_fd_sc_hd__dlygate4sd3_1
*I *11353:X O *D sky130_fd_sc_hd__dlygate4sd3_1
*CAP
1 *11446:A 0.00027201
2 *11353:X 0.00027201
3 *11446:A *11622:A 0.000222361
4 wbs_dat_o[21] *11446:A 0.0001249
5 *11353:A *11446:A 0.000137058
6 *11434:A *11446:A 0
*RES
1 *11353:X *11446:A 13.425 
*END

*D_NET *496 0.000346948
*CONN
*I *11571:A I *D sky130_fd_sc_hd__buf_12
*I *11354:X O *D sky130_fd_sc_hd__dlygate4sd3_1
*CAP
1 *11571:A 0.000149641
2 *11354:X 0.000149641
3 *11571:A *537:10 3.04882e-05
4 *11571:A *620:12 1.71773e-05
*RES
1 *11354:X *11571:A 9.03 
*END

*D_NET *497 0.00113929
*CONN
*I *11462:A I *D sky130_fd_sc_hd__dlygate4sd3_1
*I *11355:X O *D sky130_fd_sc_hd__dlygate4sd3_1
*CAP
1 *11462:A 0.000464675
2 *11355:X 0.000464675
3 *11462:A *11565:A 4.5712e-05
4 *11462:A *11614:A 1.47256e-05
5 wbs_dat_o[16] *11462:A 0.000136084
6 *11356:A *11462:A 3.64998e-06
7 *360:22 *11462:A 9.76407e-06
*RES
1 *11355:X *11462:A 13.875 
*END

*D_NET *498 0.000659715
*CONN
*I *11565:A I *D sky130_fd_sc_hd__buf_12
*I *11356:X O *D sky130_fd_sc_hd__dlygate4sd3_1
*CAP
1 *11565:A 0.000283204
2 *11356:X 0.000283204
3 wbs_dat_o[16] *11565:A 0
4 *11356:A *11565:A 0
5 *11462:A *11565:A 4.5712e-05
6 *448:16 *11565:A 4.75959e-05
*RES
1 *11356:X *11565:A 11.325 
*END

*D_NET *499 0.00117354
*CONN
*I *11466:A I *D sky130_fd_sc_hd__dlygate4sd3_1
*I *11357:X O *D sky130_fd_sc_hd__dlygate4sd3_1
*CAP
1 *11466:A 0.000410552
2 *11357:X 0.000410552
3 *11466:A *11566:A 5.22056e-05
4 *11466:A *610:24 0.000138705
5 *11466:A *613:12 0
6 wbs_dat_o[17] *11466:A 0.000138808
7 *11358:A *11466:A 3.64998e-06
8 *360:22 *11466:A 1.90662e-05
*RES
1 *11357:X *11466:A 13.875 
*END

*D_NET *500 0.000654865
*CONN
*I *11566:A I *D sky130_fd_sc_hd__buf_12
*I *11358:X O *D sky130_fd_sc_hd__dlygate4sd3_1
*CAP
1 *11566:A 0.000262288
2 *11358:X 0.000262288
3 *11566:A *11615:A 3.04882e-05
4 *11566:A *610:24 0
5 wbs_dat_o[17] *11566:A 0
6 *11466:A *11566:A 5.22056e-05
7 *448:16 *11566:A 4.75959e-05
*RES
1 *11358:X *11566:A 11.325 
*END

*D_NET *501 0.000521665
*CONN
*I *11448:A I *D sky130_fd_sc_hd__dlygate4sd3_1
*I *11359:X O *D sky130_fd_sc_hd__dlygate4sd3_1
*CAP
1 *11448:A 0.000191629
2 *11359:X 0.000191629
3 *11448:A *11622:A 1.98869e-05
4 wbs_dat_o[22] *11448:A 0.00011852
*RES
1 *11359:X *11448:A 10.065 
*END

*D_NET *502 8.46221e-05
*CONN
*I *11572:A I *D sky130_fd_sc_hd__buf_12
*I *11360:X O *D sky130_fd_sc_hd__dlygate4sd3_1
*CAP
1 *11572:A 1.78463e-05
2 *11360:X 1.78463e-05
3 *11364:A *11572:A 4.89295e-05
*RES
1 *11360:X *11572:A 3.65 
*END

*D_NET *503 0.000741826
*CONN
*I *11470:A I *D sky130_fd_sc_hd__dlygate4sd3_1
*I *11361:X O *D sky130_fd_sc_hd__dlygate4sd3_1
*CAP
1 *11470:A 0.000220786
2 *11361:X 0.000220786
3 *11470:A *619:6 0.000153171
4 *11330:A *11470:A 0.000114047
5 *11363:A *11470:A 3.30343e-05
*RES
1 *11361:X *11470:A 11.445 
*END

*D_NET *504 0.0496055
*CONN
*I *11443:A I *D sky130_fd_sc_hd__buf_12
*I *11568:X O *D sky130_fd_sc_hd__buf_12
*CAP
1 *11443:A 6.90871e-05
2 *11568:X 0.000695345
3 *504:18 0.00169068
4 *504:16 0.00162159
5 *504:14 0.00358038
6 *504:12 0.00427573
7 *504:12 *11617:A 0
8 *504:12 *11621:A 5.05437e-05
9 *504:12 *617:14 0
10 *504:14 *571:14 0.00368548
11 *504:18 *572:24 0.000199836
12 *504:18 *576:8 0.00781111
13 wbs_dat_o[19] *504:12 8.8266e-05
14 *11310:B1 *504:12 4.66474e-05
15 *11310:B2 *504:12 0.000998819
16 *11313:B1 *504:12 0.000105725
17 *11316:A1 *504:12 0
18 *11347:A *504:12 0
19 *11511:A *504:12 0.000256064
20 *11568:A *504:12 0.000105897
21 *170:127 *504:12 3.51809e-05
22 *175:10 *504:12 0.000114575
23 *179:18 *504:14 0.000238651
24 *193:12 *504:14 0.0121966
25 *225:30 *504:14 0.000867971
26 *226:34 *504:12 0
27 *226:51 *504:12 6.03272e-05
28 *249:29 *504:14 0.00216321
29 *369:18 *504:12 0
30 *398:8 *11443:A 8.40213e-05
31 *471:26 *504:18 0.00130913
32 *493:16 *504:18 0.0072546
*RES
1 *11568:X *504:12 22.82 
2 *504:12 *504:14 111.195 
3 *504:14 *504:16 2 
4 *504:16 *504:18 87.825 
5 *504:18 *11443:A 4.74 
*END

*D_NET *505 0.000496488
*CONN
*I *11567:A I *D sky130_fd_sc_hd__buf_12
*I *11363:X O *D sky130_fd_sc_hd__dlygate4sd3_1
*CAP
1 *11567:A 0.000185797
2 *11363:X 0.000185797
3 *360:22 *11567:A 0.000124895
*RES
1 *11363:X *11567:A 9.975 
*END

*D_NET *506 0.00281802
*CONN
*I *11451:A I *D sky130_fd_sc_hd__dlygate4sd3_1
*I *11364:X O *D sky130_fd_sc_hd__dlygate4sd3_1
*CAP
1 *11451:A 0.000856438
2 *11364:X 0.000856438
3 *11451:A *612:28 0
4 *11451:A *620:12 0.000499552
5 wbs_dat_o[23] *11451:A 0.000316421
6 *11360:A *11451:A 0
7 *11364:A *11451:A 0.000134314
8 *11365:A *11451:A 0.000154859
*RES
1 *11364:X *11451:A 21.42 
*END

*D_NET *507 0.00011213
*CONN
*I *11574:A I *D sky130_fd_sc_hd__buf_12
*I *11365:X O *D sky130_fd_sc_hd__dlygate4sd3_1
*CAP
1 *11574:A 6.79601e-06
2 *11365:X 6.79601e-06
3 *11574:A *11623:A 4.99619e-05
4 *11574:A *617:16 4.85763e-05
*RES
1 *11365:X *11574:A 3.65 
*END

*D_NET *508 0.000360907
*CONN
*I *11453:A I *D sky130_fd_sc_hd__dlygate4sd3_1
*I *11366:X O *D sky130_fd_sc_hd__dlygate4sd3_1
*CAP
1 *11453:A 0.000137811
2 *11366:X 0.000137811
3 *11453:A *620:12 8.52845e-05
*RES
1 *11366:X *11453:A 9.375 
*END

*D_NET *509 5.97061e-05
*CONN
*I *11575:A I *D sky130_fd_sc_hd__buf_12
*I *11367:X O *D sky130_fd_sc_hd__dlygate4sd3_1
*CAP
1 *11575:A 2.9853e-05
2 *11367:X 2.9853e-05
*RES
1 *11367:X *11575:A 3.65 
*END

*D_NET *510 0.0014977
*CONN
*I *11455:A I *D sky130_fd_sc_hd__dlygate4sd3_1
*I *11368:X O *D sky130_fd_sc_hd__dlygate4sd3_1
*CAP
1 *11455:A 0.000473607
2 *11368:X 0.000473607
3 *11455:A *569:10 0
4 *11455:A *617:16 0.000520696
5 *11367:A *11455:A 2.97897e-05
*RES
1 *11368:X *11455:A 13.515 
*END

*D_NET *511 0.000398895
*CONN
*I *11576:A I *D sky130_fd_sc_hd__buf_12
*I *11369:X O *D sky130_fd_sc_hd__dlygate4sd3_1
*CAP
1 *11576:A 0.000158438
2 *11369:X 0.000158438
3 *11576:A *570:12 5.04972e-05
4 *11576:A *620:12 3.1522e-05
*RES
1 *11369:X *11576:A 9.375 
*END

*D_NET *512 0.0014997
*CONN
*I *11457:A I *D sky130_fd_sc_hd__dlygate4sd3_1
*I *11370:X O *D sky130_fd_sc_hd__dlygate4sd3_1
*CAP
1 *11457:A 0.000707263
2 *11370:X 0.000707263
3 *11371:A *11457:A 8.51749e-05
*RES
1 *11370:X *11457:A 12.305 
*END

*D_NET *513 0.000756486
*CONN
*I *11577:A I *D sky130_fd_sc_hd__buf_12
*I *11371:X O *D sky130_fd_sc_hd__dlygate4sd3_1
*CAP
1 *11577:A 0.000355315
2 *11371:X 0.000355315
3 *11577:A *571:10 0
4 *11577:A *620:12 4.58565e-05
5 *11375:A *11577:A 0
*RES
1 *11371:X *11577:A 12.015 
*END

*D_NET *514 0.00131244
*CONN
*I *11335:A I *D sky130_fd_sc_hd__dlygate4sd3_1
*I *11372:X O *D sky130_fd_sc_hd__dlygate4sd3_1
*CAP
1 *11335:A 0.000472618
2 *11372:X 0.000472618
3 *11335:A *590:12 0.000128507
4 *11335:A *633:10 0
5 wbs_dat_o[4] *11335:A 8.247e-05
6 *11372:A *11335:A 5.15528e-05
7 *11586:A *11335:A 0.000104672
*RES
1 *11372:X *11335:A 13.83 
*END

*D_NET *515 0.0363538
*CONN
*I *11439:A I *D sky130_fd_sc_hd__buf_12
*I *11569:X O *D sky130_fd_sc_hd__buf_12
*CAP
1 *11439:A 0
2 *11569:X 0.00176052
3 *515:16 0.00257688
4 *515:14 0.0043374
5 *515:14 *11618:A 0.000167776
6 *515:14 *11629:A 0.000312778
7 *515:14 *624:22 0.00132919
8 *515:16 *11430:A 0.00101055
9 *515:16 *558:10 0.00162011
10 *515:16 *579:12 0.0120359
11 *515:16 *581:12 0.00157385
12 *515:16 *624:22 0.000221428
13 *742:DIODE *515:14 0
14 *11207:B *515:16 0.00324539
15 *11222:B2 *515:14 0
16 *11228:B2 *515:14 0.000530476
17 *11254:C1 *515:14 7.60761e-05
18 *11418:A *515:14 0
19 *114:14 *515:16 0.00511378
20 *148:38 *515:16 0.00016327
21 *148:40 *515:14 2.14725e-05
22 *148:40 *515:16 0.000256984
*RES
1 *11569:X *515:14 39.29 
2 *515:14 *515:16 129.825 
3 *515:16 *11439:A 1.6 
*END

*D_NET *516 0.000617932
*CONN
*I *11602:A I *D sky130_fd_sc_hd__buf_12
*I *11374:X O *D sky130_fd_sc_hd__dlygate4sd3_1
*CAP
1 *11602:A 0.000168342
2 *11374:X 0.000168342
3 *11602:A *633:10 0
4 *11495:A *11602:A 0.000281247
*RES
1 *11374:X *11602:A 10.62 
*END

*D_NET *517 0.00183344
*CONN
*I *11459:A I *D sky130_fd_sc_hd__dlygate4sd3_1
*I *11375:X O *D sky130_fd_sc_hd__dlygate4sd3_1
*CAP
1 *11459:A 0.000505386
2 *11375:X 0.000505386
3 *11459:A *11578:A 4.822e-05
4 *11459:A *11627:A 0.000269916
5 *11376:A *11459:A 0.000397106
6 *482:24 *11459:A 0.000107425
*RES
1 *11375:X *11459:A 16.215 
*END

*D_NET *518 0.000684595
*CONN
*I *11578:A I *D sky130_fd_sc_hd__buf_12
*I *11376:X O *D sky130_fd_sc_hd__dlygate4sd3_1
*CAP
1 *11578:A 0.000302429
2 *11376:X 0.000302429
3 *11578:A *620:12 3.15169e-05
4 *11376:A *11578:A 0
5 *11459:A *11578:A 4.822e-05
*RES
1 *11376:X *11578:A 11.67 
*END

*D_NET *519 0.0030672
*CONN
*I *11339:A I *D sky130_fd_sc_hd__dlygate4sd3_1
*I *11377:X O *D sky130_fd_sc_hd__dlygate4sd3_1
*CAP
1 *11339:A 0.000983193
2 *11377:X 0.000983193
3 *11339:A *11601:A 0.0001145
4 *11339:A *601:12 0.000158175
5 *11339:A *622:12 0.00026538
6 *11377:A *11339:A 8.57348e-05
7 *11378:A *11339:A 0.000477024
8 *11497:A *11339:A 0
*RES
1 *11377:X *11339:A 22.53 
*END

*D_NET *520 0.00063408
*CONN
*I *11601:A I *D sky130_fd_sc_hd__buf_12
*I *11378:X O *D sky130_fd_sc_hd__dlygate4sd3_1
*CAP
1 *11601:A 0.00023599
2 *11378:X 0.00023599
3 *11601:A *592:28 4.75991e-05
4 *11339:A *11601:A 0.0001145
5 *11497:A *11601:A 0
*RES
1 *11378:X *11601:A 11.325 
*END

*D_NET *521 0.00112481
*CONN
*I *11333:A I *D sky130_fd_sc_hd__dlygate4sd3_1
*I *11379:X O *D sky130_fd_sc_hd__dlygate4sd3_1
*CAP
1 *11333:A 0.000385103
2 *11379:X 0.000385103
3 *11333:A *581:10 9.17606e-05
4 wbs_dat_o[5] *11333:A 2.75229e-05
5 *11379:A *11333:A 0.0001276
6 *11504:A *11333:A 0
7 *11587:A *11333:A 0.000107721
*RES
1 *11379:X *11333:A 13.485 
*END

*D_NET *522 0.000404981
*CONN
*I *11552:A I *D sky130_fd_sc_hd__buf_12
*I *11380:X O *D sky130_fd_sc_hd__dlygate4sd3_1
*CAP
1 *11552:A 0.000109566
2 *11380:X 0.000109566
3 *11552:A *582:10 0
4 *11552:A *601:12 4.66108e-05
5 *11494:A *11552:A 0.000139238
*RES
1 *11380:X *11552:A 9.285 
*END

*D_NET *523 0.00112311
*CONN
*I *11342:A I *D sky130_fd_sc_hd__dlygate4sd3_1
*I *11381:X O *D sky130_fd_sc_hd__dlygate4sd3_1
*CAP
1 *11342:A 0.000433842
2 *11381:X 0.000433842
3 *11342:A *591:28 1.94805e-05
4 *11342:A *593:10 0
5 *11342:A *626:8 0.000235941
6 *11381:A *11342:A 0
*RES
1 *11381:X *11342:A 13.35 
*END

*D_NET *524 0.00122485
*CONN
*I *11600:A I *D sky130_fd_sc_hd__buf_12
*I *11382:X O *D sky130_fd_sc_hd__dlygate4sd3_1
*CAP
1 *11600:A 0.000209399
2 *11382:X 0.000209399
3 *11429:A *11600:A 0.000496382
4 *11501:A *11600:A 0.000309674
*RES
1 *11382:X *11600:A 13.05 
*END

*D_NET *525 0.000483991
*CONN
*I *11331:A I *D sky130_fd_sc_hd__dlygate4sd3_1
*I *11383:X O *D sky130_fd_sc_hd__dlygate4sd3_1
*CAP
1 *11331:A 0.000158155
2 *11383:X 0.000158155
3 *11331:A *597:10 4.40899e-05
4 *11331:A *599:12 0.000123592
*RES
1 *11383:X *11331:A 9.72 
*END

*D_NET *526 0.04124
*CONN
*I *11445:A I *D sky130_fd_sc_hd__buf_12
*I *11570:X O *D sky130_fd_sc_hd__buf_12
*CAP
1 *11445:A 0.00017133
2 *11570:X 0.000133916
3 *526:24 0.00139043
4 *526:22 0.00255651
5 *526:12 0.0034987
6 *526:10 0.00229521
7 *526:12 *548:14 0.000939269
8 *526:12 *548:18 0.00192689
9 *526:12 *607:18 0.00058455
10 *526:12 *613:14 0.00572022
11 *526:22 *11524:BEN[14] 0.000118081
12 *526:22 *537:16 1.07797e-05
13 *526:22 *560:16 0.00273809
14 *526:22 *573:16 0.00207815
15 *526:22 *576:8 0
16 *526:24 *11524:BEN[8] 0.000632398
17 *526:24 *558:381 2.92496e-05
18 *526:24 *558:393 0.000623854
19 *526:24 *558:403 0.000716173
20 *526:24 *558:415 0.000731488
21 *526:24 *558:427 0.000731481
22 *526:24 *558:439 0.000718128
23 *526:24 *574:16 0.0063146
24 *526:24 *576:8 0.000483455
25 *11312:A0 *11445:A 0
26 *11318:A0 *526:24 0.000181951
27 *11350:A *526:10 0
28 *11401:A *526:22 0.000368965
29 *11432:A *526:10 0.000109635
30 *187:36 *11445:A 0
31 *266:68 *526:24 0.000157219
32 *418:24 *526:24 0.00112224
33 *460:14 *526:12 0.0016473
34 *471:26 *526:24 0.00023567
35 *493:12 *526:12 0.00227406
36 *493:16 *526:22 0
*RES
1 *11570:X *526:10 7.745 
2 *526:10 *526:12 101.19 
3 *526:12 *526:22 48.555 
4 *526:22 *526:24 71.25 
5 *526:24 *11445:A 5.775 
*END

*D_NET *527 0.000871607
*CONN
*I *11553:A I *D sky130_fd_sc_hd__buf_12
*I *11385:X O *D sky130_fd_sc_hd__dlygate4sd3_1
*CAP
1 *11553:A 0.000327758
2 *11385:X 0.000327758
3 *11553:A *583:14 5.06382e-06
4 *11553:A *598:14 1.91597e-05
5 *11553:A *599:12 3.49355e-05
6 *11491:A *11553:A 0.000156932
*RES
1 *11385:X *11553:A 11.205 
*END

*D_NET *528 0.0017638
*CONN
*I *11514:A I *D sky130_fd_sc_hd__dlygate4sd3_1
*I *11386:X O *D sky130_fd_sc_hd__dlygate4sd3_1
*CAP
1 *11514:A 0.000394724
2 *11386:X 0.000394724
3 *11514:A *597:14 0.000307775
4 *11514:A *604:12 0.000276111
5 wbs_dat_o[7] *11514:A 4.11718e-05
6 wbs_dat_o[8] *11514:A 4.82919e-05
7 *11386:A *11514:A 0
8 *11387:A *11514:A 0.000301006
*RES
1 *11386:X *11514:A 16.71 
*END

*D_NET *529 0.000352906
*CONN
*I *11554:A I *D sky130_fd_sc_hd__buf_12
*I *11387:X O *D sky130_fd_sc_hd__dlygate4sd3_1
*CAP
1 *11554:A 0.000163958
2 *11387:X 0.000163958
3 *11486:A *11554:A 2.49909e-05
*RES
1 *11387:X *11554:A 9.03 
*END

*D_NET *530 0.00188421
*CONN
*I *11464:A I *D sky130_fd_sc_hd__dlygate4sd3_1
*I *11388:X O *D sky130_fd_sc_hd__dlygate4sd3_1
*CAP
1 *11464:A 0.000557042
2 *11388:X 0.000557042
3 *11464:A *11579:A 0.000159549
4 *11464:A *573:14 0.000155927
5 *11464:A *620:12 0.000243858
6 wbs_dat_o[28] *11464:A 0
7 *11388:A *11464:A 0.000160831
8 *11389:A *11464:A 4.99619e-05
*RES
1 *11388:X *11464:A 17.73 
*END

*D_NET *531 0.000544358
*CONN
*I *11579:A I *D sky130_fd_sc_hd__buf_12
*I *11389:X O *D sky130_fd_sc_hd__dlygate4sd3_1
*CAP
1 *11579:A 0.000192404
2 *11389:X 0.000192404
3 *11464:A *11579:A 0.000159549
*RES
1 *11389:X *11579:A 10.875 
*END

*D_NET *532 0.00123995
*CONN
*I *11348:A I *D sky130_fd_sc_hd__dlygate4sd3_1
*I *11390:X O *D sky130_fd_sc_hd__dlygate4sd3_1
*CAP
1 *11348:A 0.000346959
2 *11390:X 0.000346959
3 *11231:A2 *11348:A 6.28843e-05
4 *11231:B1 *11348:A 3.67779e-05
5 *11324:RESET_B *11348:A 0.000418493
6 *201:54 *11348:A 2.7881e-05
*RES
1 *11390:X *11348:A 12.48 
*END

*D_NET *533 0.000467038
*CONN
*I *11599:A I *D sky130_fd_sc_hd__buf_12
*I *11391:X O *D sky130_fd_sc_hd__dlygate4sd3_1
*CAP
1 *11599:A 8.92113e-05
2 *11391:X 8.92113e-05
3 *11599:A *575:26 0.000132456
4 *11599:A *600:16 0.000131168
5 *11231:B2 *11599:A 2.49909e-05
*RES
1 *11391:X *11599:A 9.285 
*END

*D_NET *534 0.000869518
*CONN
*I *11510:A I *D sky130_fd_sc_hd__dlygate4sd3_1
*I *11392:X O *D sky130_fd_sc_hd__dlygate4sd3_1
*CAP
1 *11510:A 0.000170065
2 *11392:X 0.000170065
3 *11510:A *584:34 0.000197822
4 *11510:A *599:12 4.82919e-05
5 *11510:A *601:22 0.000197822
6 *11392:A *11510:A 4.99619e-05
7 *371:26 *11510:A 3.54892e-05
*RES
1 *11392:X *11510:A 11.37 
*END

*D_NET *535 0.000324263
*CONN
*I *11555:A I *D sky130_fd_sc_hd__buf_12
*I *11393:X O *D sky130_fd_sc_hd__dlygate4sd3_1
*CAP
1 *11555:A 0.000108069
2 *11393:X 0.000108069
3 *11555:A *11638:A 3.00381e-05
4 *360:10 *11555:A 4.75991e-05
5 *371:26 *11555:A 3.04882e-05
*RES
1 *11393:X *11555:A 9.03 
*END

*D_NET *536 0.00385074
*CONN
*I *11506:A I *D sky130_fd_sc_hd__dlygate4sd3_1
*I *11394:X O *D sky130_fd_sc_hd__dlygate4sd3_1
*CAP
1 *11506:A 0.00143748
2 *11394:X 0.00143748
3 *11438:A *11506:A 0.000369491
4 *11481:A *11506:A 0.00011379
5 *11484:A *11506:A 0
6 *11591:A *11506:A 0
7 *360:10 *11506:A 0.000347305
8 *404:18 *11506:A 0.000145184
*RES
1 *11394:X *11506:A 31.84 
*END

*D_NET *537 0.0422791
*CONN
*I *11447:A I *D sky130_fd_sc_hd__buf_12
*I *11571:X O *D sky130_fd_sc_hd__buf_12
*CAP
1 *11447:A 0.00030167
2 *11571:X 0.00039449
3 *537:16 0.00245341
4 *537:14 0.00215174
5 *537:12 0.00461066
6 *537:10 0.00500515
7 *537:12 *560:12 0.00756306
8 *537:12 *614:18 0.000160819
9 *537:16 *560:16 0.0094054
10 *537:16 *571:16 0.000185963
11 *11309:A0 *11447:A 0
12 *11318:A0 *537:16 0.000600828
13 *11354:A *537:10 0
14 *11434:A *537:10 0
15 *11524:vpwrac *537:16 0.00175401
16 *11571:A *537:10 3.04882e-05
17 *115:37 *537:12 0.00169652
18 *184:56 *537:16 0.00162529
19 *195:10 *537:16 0.000425008
20 *256:23 *11447:A 8.37493e-06
21 *356:20 *537:16 0.0038954
22 *376:87 *11447:A 0
23 *526:22 *537:16 1.07797e-05
*RES
1 *11571:X *537:10 11.57 
2 *537:10 *537:12 88.425 
3 *537:12 *537:14 2 
4 *537:14 *537:16 106.44 
5 *537:16 *11447:A 7.5 
*END

*D_NET *538 0.000670954
*CONN
*I *11562:A I *D sky130_fd_sc_hd__buf_12
*I *11396:X O *D sky130_fd_sc_hd__dlygate4sd3_1
*CAP
1 *11562:A 0.000241222
2 *11396:X 0.000241222
3 *11213:A *11562:A 1.83975e-05
4 *122:56 *11562:A 0.00012657
5 *371:26 *11562:A 4.35432e-05
*RES
1 *11396:X *11562:A 10.665 
*END

*D_NET *539 0.000607846
*CONN
*I *11503:A I *D sky130_fd_sc_hd__dlygate4sd3_1
*I *11397:X O *D sky130_fd_sc_hd__dlygate4sd3_1
*CAP
1 *11503:A 9.12799e-05
2 *11397:X 9.12799e-05
3 *11503:A *584:34 0.000189288
4 *122:56 *11503:A 0.000235998
*RES
1 *11397:X *11503:A 6.185 
*END

*D_NET *540 0.00022141
*CONN
*I *11573:A I *D sky130_fd_sc_hd__buf_12
*I *11398:X O *D sky130_fd_sc_hd__dlygate4sd3_1
*CAP
1 *11573:A 0.000110705
2 *11398:X 0.000110705
*RES
1 *11398:X *11573:A 8.58 
*END

*D_NET *541 0.00147166
*CONN
*I *11477:A I *D sky130_fd_sc_hd__dlygate4sd3_1
*I *11399:X O *D sky130_fd_sc_hd__dlygate4sd3_1
*CAP
1 *11477:A 0.000484747
2 *11399:X 0.000484747
3 *11477:A *11580:A 0.000135764
4 *11477:A *11628:A 1.19928e-05
5 *11477:A *548:20 0.000134482
6 wbs_dat_o[29] *11477:A 0.000135259
7 *11400:A *11477:A 8.46717e-05
*RES
1 *11399:X *11477:A 14.565 
*END

*D_NET *542 0.00070583
*CONN
*I *11580:A I *D sky130_fd_sc_hd__buf_12
*I *11400:X O *D sky130_fd_sc_hd__dlygate4sd3_1
*CAP
1 *11580:A 0.000183435
2 *11400:X 0.000183435
3 *11580:A *548:20 8.2428e-05
4 *11580:A *574:14 0.000103592
5 *11580:A *620:12 1.71773e-05
6 wbs_dat_o[29] *11580:A 0
7 *11477:A *11580:A 0.000135764
*RES
1 *11400:X *11580:A 11.325 
*END

*D_NET *543 0.00112836
*CONN
*I *11499:A I *D sky130_fd_sc_hd__dlygate4sd3_1
*I *11401:X O *D sky130_fd_sc_hd__dlygate4sd3_1
*CAP
1 *11499:A 0.000465831
2 *11401:X 0.000465831
3 *11499:A *11582:A 5.42386e-05
4 wbs_dat_o[30] *11499:A 0.000138808
5 *11402:A *11499:A 3.64998e-06
*RES
1 *11401:X *11499:A 13.875 
*END

*D_NET *544 0.000611629
*CONN
*I *11582:A I *D sky130_fd_sc_hd__buf_12
*I *11402:X O *D sky130_fd_sc_hd__dlygate4sd3_1
*CAP
1 *11582:A 0.000252652
2 *11402:X 0.000252652
3 *11582:A *11630:A 3.49086e-05
4 *11582:A *620:12 1.71773e-05
5 wbs_dat_o[30] *11582:A 0
6 *11402:A *11582:A 0
7 *11499:A *11582:A 5.42386e-05
*RES
1 *11402:X *11582:A 11.325 
*END

*D_NET *545 0.000407323
*CONN
*I *11508:A I *D sky130_fd_sc_hd__dlygate4sd3_1
*I *11403:X O *D sky130_fd_sc_hd__dlygate4sd3_1
*CAP
1 *11508:A 6.79759e-05
2 *11403:X 6.79759e-05
3 *11508:A *11631:A 0.00011238
4 *11508:A *577:10 0.00011238
5 *11508:A *620:12 4.66108e-05
*RES
1 *11403:X *11508:A 9.03 
*END

*D_NET *546 0.000573122
*CONN
*I *11583:A I *D sky130_fd_sc_hd__buf_12
*I *11404:X O *D sky130_fd_sc_hd__dlygate4sd3_1
*CAP
1 *11583:A 0.000286561
2 *11404:X 0.000286561
3 wbs_dat_o[31] *11583:A 0
*RES
1 *11404:X *11583:A 11.325 
*END

*D_NET *547 0.000218385
*CONN
*I *11592:A I *D sky130_fd_sc_hd__buf_12
*I *11405:X O *D sky130_fd_sc_hd__dlygate4sd3_1
*CAP
1 *11592:A 0.000109193
2 *11405:X 0.000109193
*RES
1 *11405:X *11592:A 8.835 
*END

*D_NET *548 0.0370569
*CONN
*I *11450:A I *D sky130_fd_sc_hd__buf_12
*I *11572:X O *D sky130_fd_sc_hd__buf_12
*CAP
1 *11450:A 0.000975493
2 *11572:X 0.00232938
3 *548:20 0.00426627
4 *548:18 0.00493083
5 *548:14 0.00396942
6 *11450:A *570:26 0.00186036
7 *11450:A *571:34 1.26248e-05
8 *548:18 *572:14 0.00194588
9 *548:20 *11524:BEN[7] 1.7635e-05
10 *548:20 *549:115 3.89311e-05
11 *548:20 *570:18 0.00587385
12 *548:20 *571:34 0.000116237
13 *548:20 *574:14 0
14 wbs_dat_o[29] *548:20 0
15 *11364:A *548:14 0
16 *11395:A *548:14 2.9645e-05
17 *11477:A *548:20 0.000134482
18 *11524:DI[11] *548:20 8.96218e-05
19 *11580:A *548:20 8.2428e-05
20 *184:56 *11450:A 5.83121e-06
21 *187:36 *11450:A 2.22679e-05
22 *187:36 *548:20 0.00106194
23 *238:69 *548:20 0.00162564
24 *239:65 *548:20 8.20061e-05
25 *240:20 *548:20 1.31846e-05
26 *247:15 *548:20 0
27 *247:21 *548:20 0.00159042
28 *254:23 *548:20 0.0001438
29 *258:22 *548:20 4.29824e-05
30 *264:61 *11450:A 0
31 *266:13 *548:20 1.13272e-05
32 *355:22 *11450:A 0.00185894
33 *363:26 *548:20 3.06428e-05
34 *387:100 *548:20 5.05066e-06
35 *460:14 *548:14 0.000272868
36 *482:24 *548:14 0.000314586
37 *482:24 *548:18 0.000436205
38 *526:12 *548:14 0.000939269
39 *526:12 *548:18 0.00192689
*RES
1 *11572:X *548:14 36.6875 
2 *548:14 *548:18 43.6775 
3 *548:18 *548:20 98.28 
4 *548:20 *11450:A 36.49 
*END

*D_NET *549 0.0768277
*CONN
*I *11524:BEN[0] I *D CF_SRAM_1024x32
*I *11524:BEN[1] I *D CF_SRAM_1024x32
*I *11524:BEN[2] I *D CF_SRAM_1024x32
*I *11524:BEN[3] I *D CF_SRAM_1024x32
*I *11524:BEN[4] I *D CF_SRAM_1024x32
*I *11524:BEN[5] I *D CF_SRAM_1024x32
*I *11524:BEN[6] I *D CF_SRAM_1024x32
*I *11524:BEN[7] I *D CF_SRAM_1024x32
*I *11605:A I *D sky130_fd_sc_hd__clkbuf_16
*I *11515:BEN[4] I *D CF_SRAM_1024x32
*I *11515:BEN[5] I *D CF_SRAM_1024x32
*I *11515:BEN[6] I *D CF_SRAM_1024x32
*I *11515:BEN[7] I *D CF_SRAM_1024x32
*I *11407:X O *D sky130_fd_sc_hd__buf_12
*CAP
1 *11524:BEN[0] 0.000728691
2 *11524:BEN[1] 0.000586668
3 *11524:BEN[2] 0.00053016
4 *11524:BEN[3] 0.000114077
5 *11524:BEN[4] 0.000175501
6 *11524:BEN[5] 0.000199922
7 *11524:BEN[6] 0.000198931
8 *11524:BEN[7] 0.000188688
9 *11605:A 0.000490173
10 *11515:BEN[4] 0.000501778
11 *11515:BEN[5] 0.000200859
12 *11515:BEN[6] 0.000172891
13 *11515:BEN[7] 0.000131837
14 *11407:X 0.00106609
15 *549:187 0.00144142
16 *549:175 0.00166731
17 *549:157 0.00132629
18 *549:143 0.000665657
19 *549:127 0.000665081
20 *549:115 0.000577988
21 *549:101 0.0133756
22 *549:78 0.00163455
23 *549:62 0.00100033
24 *549:44 0.000441227
25 *549:32 0.00129419
26 *549:22 0.0141585
27 *549:16 0.00118968
28 *11524:BEN[0] *11524:ScanInDL 0
29 *11524:BEN[0] *576:8 0.000693172
30 *11524:BEN[1] *11465:A 6.33103e-05
31 *11524:BEN[2] *11458:A 0.000184998
32 *549:115 *571:34 0.000479192
33 *549:127 *571:34 0.00070922
34 *549:143 *571:34 0.000753085
35 *549:157 *571:34 0.000337162
36 *549:175 *11456:A 0
37 *549:175 *11458:A 6.41634e-05
38 *549:187 *576:8 0.000714585
39 *746:DIODE *11515:BEN[4] 1.26248e-05
40 *939:DIODE *11524:BEN[2] 0
41 *11233:A0 *11605:A 8.40213e-05
42 *11265:A0 *549:78 0
43 *11318:A0 *11524:BEN[0] 0.000111986
44 *11318:A0 *549:187 0.000115669
45 *11524:DI[3] *11524:BEN[3] 0
46 *11524:DI[4] *11524:BEN[4] 1.16721e-05
47 *11524:DI[4] *549:143 0.000128086
48 *11524:DI[4] *549:157 0.000108433
49 *11524:DI[6] *549:127 4.17913e-05
50 *112:10 *549:16 0.00347392
51 *125:12 *549:22 0.000503612
52 *125:14 *549:16 0.000548426
53 *133:12 *549:22 0.000495607
54 *133:14 *549:22 3.60648e-06
55 *135:10 *549:44 0.000647694
56 *135:10 *549:62 0.000123242
57 *137:8 *11515:BEN[7] 2.65814e-06
58 *137:8 *549:32 0.000128296
59 *147:16 *11515:BEN[4] 0.000161961
60 *147:16 *11605:A 0.000460383
61 *152:14 *549:32 4.01548e-05
62 *154:8 *11605:A 0
63 *187:36 *11524:BEN[7] 1.08758e-05
64 *212:35 *549:16 0.00246993
65 *233:17 *549:32 0.000155601
66 *238:69 *549:101 0.000141541
67 *247:15 *549:115 9.23149e-05
68 *247:15 *549:127 0.000147287
69 *247:15 *549:143 0.000168795
70 *247:15 *549:157 0.000247382
71 *248:7 *11524:BEN[0] 0
72 *248:61 *11524:BEN[0] 0
73 *256:19 *11524:BEN[0] 0.000729134
74 *256:19 *549:187 0.000714585
75 *259:7 *11524:BEN[1] 0
76 *259:64 *11524:BEN[1] 0
77 *262:7 *11524:BEN[2] 0
78 *263:17 *549:157 6.02846e-05
79 *264:19 *549:143 0.000208198
80 *265:11 *11524:BEN[5] 0
81 *265:11 *549:127 0.000280401
82 *265:17 *11524:BEN[6] 0
83 *265:17 *549:127 1.79536e-05
84 *266:13 *11524:BEN[6] 0
85 *266:13 *11524:BEN[7] 1.79536e-05
86 *266:13 *549:115 0.000314522
87 *266:21 *549:101 0.00599693
88 *267:55 *549:101 0
89 *367:42 *549:44 0.000647694
90 *367:42 *549:62 0.000417048
91 *369:28 *549:32 0
92 *369:28 *549:101 0.00279606
93 *369:41 *549:62 0.000500202
94 *369:63 *549:101 0.00156844
95 *372:41 *549:62 0.000303859
96 *376:67 *549:143 5.83416e-05
97 *378:89 *549:78 0.000425525
98 *380:28 *549:78 8.50117e-05
99 *383:50 *549:32 4.24632e-05
100 *387:56 *549:32 0.000125497
101 *389:36 *549:78 0.000854579
102 *418:24 *549:175 0.00022786
103 *422:24 *549:175 0.000359437
104 *422:32 *11524:BEN[0] 2.4997e-05
105 *427:16 *549:175 0.000633554
106 *548:20 *11524:BEN[7] 1.7635e-05
107 *548:20 *549:115 3.89311e-05
*RES
1 *11407:X *549:16 48.2 
2 *549:16 *549:22 8.3425 
3 *549:22 *549:32 12.2845 
4 *549:32 *11515:BEN[7] 1.9725 
5 *549:32 *549:44 9.245 
6 *549:44 *11515:BEN[6] 4.6625 
7 *549:44 *549:62 10.82 
8 *549:62 *11515:BEN[5] 3.0225 
9 *549:62 *549:78 19.33 
10 *549:78 *11515:BEN[4] 7.6875 
11 *549:78 *11605:A 10.33 
12 *549:22 *549:101 42.8269 
13 *549:101 *11524:BEN[7] 4.79 
14 *549:101 *549:115 6.3525 
15 *549:115 *11524:BEN[6] 5.0075 
16 *549:115 *549:127 8.265 
17 *549:127 *11524:BEN[5] 5.0225 
18 *549:127 *549:143 11.115 
19 *549:143 *11524:BEN[4] 4.6775 
20 *549:143 *549:157 9.245 
21 *549:157 *11524:BEN[3] 1.6425 
22 *549:157 *549:175 22.84 
23 *549:175 *11524:BEN[2] 8.6775 
24 *549:175 *549:187 10.01 
25 *549:187 *11524:BEN[1] 10.6025 
26 *549:187 *11524:BEN[0] 18.8825 
*END

*D_NET *550 0.000314299
*CONN
*I *11405:A I *D sky130_fd_sc_hd__dlygate4sd3_1
*I *11408:X O *D sky130_fd_sc_hd__dlygate4sd3_1
*CAP
1 *11405:A 0.000157149
2 *11408:X 0.000157149
*RES
1 *11408:X *11405:A 9.03 
*END

*D_NET *551 0.000263507
*CONN
*I *11594:A I *D sky130_fd_sc_hd__buf_12
*I *11409:X O *D sky130_fd_sc_hd__dlygate4sd3_1
*CAP
1 *11594:A 7.73371e-05
2 *11409:X 7.73371e-05
3 *11594:A *591:28 0.000108833
*RES
1 *11409:X *11594:A 8.58 
*END

*D_NET *552 0.0982001
*CONN
*I *11524:BEN[23] I *D CF_SRAM_1024x32
*I *11524:BEN[22] I *D CF_SRAM_1024x32
*I *11524:BEN[21] I *D CF_SRAM_1024x32
*I *11524:BEN[20] I *D CF_SRAM_1024x32
*I *11524:BEN[19] I *D CF_SRAM_1024x32
*I *11524:BEN[18] I *D CF_SRAM_1024x32
*I *11524:BEN[17] I *D CF_SRAM_1024x32
*I *11524:BEN[16] I *D CF_SRAM_1024x32
*I *11604:A I *D sky130_fd_sc_hd__clkbuf_16
*I *11515:BEN[19] I *D CF_SRAM_1024x32
*I *11515:BEN[18] I *D CF_SRAM_1024x32
*I *11515:BEN[17] I *D CF_SRAM_1024x32
*I *11515:BEN[16] I *D CF_SRAM_1024x32
*I *11410:X O *D sky130_fd_sc_hd__buf_12
*CAP
1 *11524:BEN[23] 0.00067919
2 *11524:BEN[22] 0.000514193
3 *11524:BEN[21] 0.000510853
4 *11524:BEN[20] 0.000504562
5 *11524:BEN[19] 0.000559905
6 *11524:BEN[18] 0.0010154
7 *11524:BEN[17] 8.87212e-05
8 *11524:BEN[16] 0.000146646
9 *11604:A 0.000868316
10 *11515:BEN[19] 0.000453354
11 *11515:BEN[18] 0.000511449
12 *11515:BEN[17] 0.000596926
13 *11515:BEN[16] 0.000826373
14 *11410:X 0.000720636
15 *552:189 0.00133827
16 *552:177 0.000798522
17 *552:165 0.000757176
18 *552:153 0.00138113
19 *552:125 0.00056531
20 *552:113 0.0227716
21 *552:84 0.00149921
22 *552:70 0.00122198
23 *552:50 0.00137273
24 *552:30 0.00152699
25 *552:24 0.0234601
26 *552:16 0.00161866
27 *552:12 0.00178936
28 *11515:BEN[16] *11515:WLBI 0
29 *11515:BEN[16] *11515:TM 0
30 *11524:BEN[16] *11524:TM 3.23285e-05
31 *11604:A *558:129 0.000141599
32 *11604:A *631:68 7.70938e-05
33 *552:30 *631:68 1.91703e-05
34 *552:50 *631:68 0.000291326
35 *552:70 *558:129 0.000160379
36 *552:70 *631:68 0.000606514
37 *876:DIODE *552:153 2.65814e-06
38 *886:DIODE *11524:BEN[19] 0
39 *11205:A *552:12 0.000502216
40 *11205:A *552:16 0.00218982
41 *11515:CLKin *11515:BEN[17] 0.00056014
42 *11515:CLKin *552:50 6.13221e-05
43 *11515:R_WB *552:24 5.98468e-05
44 *11524:CLKin *11524:BEN[17] 0
45 *11524:CLKin *552:125 0.00019594
46 *112:10 *552:12 0.000301926
47 *125:12 *552:12 0.000997973
48 *132:10 *552:16 0.00388751
49 *132:10 *552:24 0.00160193
50 *133:12 *552:12 0.000544268
51 *134:8 *552:24 0.00113605
52 *138:10 *552:12 0.000136297
53 *142:10 *552:12 0.00121979
54 *142:10 *552:16 2.54091e-05
55 *153:24 *552:16 0.000590698
56 *153:24 *552:24 0.000290658
57 *213:18 *11515:BEN[16] 0.00022707
58 *213:27 *11515:BEN[16] 8.41307e-05
59 *228:22 *552:30 3.69766e-05
60 *228:22 *552:50 0.000549839
61 *229:34 *552:16 0.000954869
62 *229:34 *552:24 0.000882146
63 *245:20 *552:113 3.91137e-05
64 *245:20 *552:125 0.000185372
65 *246:7 *11524:BEN[17] 0
66 *247:7 *552:153 0
67 *247:13 *11524:BEN[18] 0.000613577
68 *247:13 *552:113 3.91137e-05
69 *247:13 *552:125 0.000582493
70 *247:80 *552:153 0
71 *249:23 *11524:BEN[19] 9.76295e-06
72 *250:23 *11524:BEN[20] 0
73 *254:13 *11524:BEN[18] 0.000328635
74 *254:13 *552:125 0.00011681
75 *256:19 *11524:BEN[23] 0.000613712
76 *256:19 *552:153 0.000742374
77 *256:19 *552:165 0.000639169
78 *256:19 *552:177 0.000720008
79 *256:19 *552:189 0.000718969
80 *265:63 *552:12 3.96088e-05
81 *394:60 *552:84 0.000819694
82 *427:50 *11524:BEN[18] 4.01535e-05
83 *463:36 *552:84 0.000819694
84 *463:73 *11524:BEN[23] 0.000621677
85 *463:73 *552:153 0.000737658
86 *463:73 *552:165 0.000647701
87 *463:73 *552:177 0.00072854
88 *463:73 *552:189 0.0007275
89 *467:82 *11524:BEN[23] 0.00013581
90 *467:82 *552:153 0.000171239
91 *467:82 *552:165 0.000150106
92 *467:82 *552:177 0.000125228
93 *467:82 *552:189 0.000135795
94 *476:54 *552:70 0.000485061
*RES
1 *11410:X *552:12 29.4825 
2 *552:12 *552:16 46.125 
3 *552:16 *552:24 24.44 
4 *552:24 *552:30 1.66643 
5 *552:30 *11515:BEN[16] 14.255 
6 *552:30 *552:50 9.62 
7 *552:50 *11515:BEN[17] 10.425 
8 *552:50 *552:70 15.865 
9 *552:70 *11515:BEN[18] 7.155 
10 *552:70 *552:84 13.54 
11 *552:84 *11515:BEN[19] 6.15 
12 *552:84 *11604:A 17.105 
13 *552:24 *552:113 43.094 
14 *552:113 *11524:BEN[16] 4.385 
15 *552:113 *552:125 6.99 
16 *552:125 *11524:BEN[17] 3.29 
17 *552:125 *11524:BEN[18] 11.57 
18 *11524:BEN[18] *552:153 18.83 
19 *552:153 *11524:BEN[19] 10.55 
20 *552:153 *552:165 7.245 
21 *552:165 *11524:BEN[20] 9.515 
22 *552:165 *552:177 8.265 
23 *552:177 *11524:BEN[21] 9.5 
24 *552:177 *552:189 8.265 
25 *552:189 *11524:BEN[22] 9.35 
26 *552:189 *11524:BEN[23] 17.6 
*END

*D_NET *553 0.00171448
*CONN
*I *11409:A I *D sky130_fd_sc_hd__dlygate4sd3_1
*I *11411:X O *D sky130_fd_sc_hd__dlygate4sd3_1
*CAP
1 *11409:A 0.000629713
2 *11411:X 0.000629713
3 *11409:A *11629:A 4.89295e-05
4 *11409:A *575:26 0
5 *11409:A *591:28 0
6 *11409:A *593:10 0
7 wbs_dat_o[2] *11409:A 0.000163204
8 *11411:A *11409:A 0.000166238
9 *11581:A *11409:A 7.66807e-05
*RES
1 *11411:X *11409:A 16.485 
*END

*D_NET *554 0.00104181
*CONN
*I *11596:A I *D sky130_fd_sc_hd__buf_12
*I *11412:X O *D sky130_fd_sc_hd__dlygate4sd3_1
*CAP
1 *11596:A 0.000277144
2 *11412:X 0.000277144
3 *11596:A *601:12 0.000191335
4 *11596:A *623:18 0.000147152
5 *11414:A *11596:A 0.000149035
*RES
1 *11412:X *11596:A 12.45 
*END

*D_NET *555 0.108896
*CONN
*I *11524:BEN[31] I *D CF_SRAM_1024x32
*I *11524:BEN[30] I *D CF_SRAM_1024x32
*I *11524:BEN[29] I *D CF_SRAM_1024x32
*I *11524:BEN[28] I *D CF_SRAM_1024x32
*I *11524:BEN[27] I *D CF_SRAM_1024x32
*I *11524:BEN[26] I *D CF_SRAM_1024x32
*I *11524:BEN[25] I *D CF_SRAM_1024x32
*I *11524:BEN[24] I *D CF_SRAM_1024x32
*I *11603:A I *D sky130_fd_sc_hd__clkbuf_16
*I *11515:BEN[27] I *D CF_SRAM_1024x32
*I *11515:BEN[26] I *D CF_SRAM_1024x32
*I *11515:BEN[25] I *D CF_SRAM_1024x32
*I *11515:BEN[24] I *D CF_SRAM_1024x32
*I *11413:X O *D sky130_fd_sc_hd__buf_12
*CAP
1 *11524:BEN[31] 0.000669773
2 *11524:BEN[30] 0.000482228
3 *11524:BEN[29] 0.000481605
4 *11524:BEN[28] 0.000542468
5 *11524:BEN[27] 0.000551122
6 *11524:BEN[26] 0.000472206
7 *11524:BEN[25] 0.000508005
8 *11524:BEN[24] 0.0118991
9 *11603:A 0.000756979
10 *11515:BEN[27] 0.000498552
11 *11515:BEN[26] 0.000439914
12 *11515:BEN[25] 0.000507113
13 *11515:BEN[24] 0.000341556
14 *11413:X 0
15 *555:192 6.25778e-06
16 *555:180 3.03481e-06
17 *555:173 0.00131319
18 *555:168 3.03481e-06
19 *555:161 0.000790462
20 *555:149 0.000848968
21 *555:137 0.000915654
22 *555:124 0.000824167
23 *555:112 0.00126755
24 *555:70 0.00145848
25 *555:53 0.000797418
26 *555:41 0.000935351
27 *555:20 0.00139578
28 *555:10 0.0120726
29 *555:8 0.00425768
30 *555:6 0.00425768
31 *11515:BEN[27] *629:10 1.14169e-05
32 *11603:A *629:10 0.000333651
33 *555:20 *631:68 0.000220017
34 *924:DIODE *11524:BEN[28] 0
35 *1154:DIODE *555:20 4.66108e-05
36 *11515:DI[25] *555:41 0
37 *11524:DI[29] *11524:BEN[29] 0
38 *11524:DI[29] *555:168 0
39 *11524:DI[30] *11524:BEN[30] 0
40 *11524:DI[30] *555:180 0
41 *11524:DI[31] *11524:BEN[31] 0
42 *11524:DI[31] *555:192 0
43 *153:24 *555:8 0.00179574
44 *157:16 *555:41 0.000487809
45 *212:23 *555:8 0.00453051
46 *229:34 *555:8 0.0104419
47 *254:13 *11524:BEN[24] 0.000109393
48 *256:17 *11524:BEN[26] 2.49909e-05
49 *256:19 *555:112 0.000763099
50 *256:19 *555:124 0.000646934
51 *258:10 *11524:BEN[28] 0
52 *258:14 *11524:BEN[24] 0
53 *376:48 *555:41 0.000486142
54 *391:88 *555:41 0.000113124
55 *394:60 *555:41 0.00033769
56 *394:60 *555:53 0.000605204
57 *394:60 *555:70 0.000763144
58 *405:44 *11524:BEN[31] 0.000305641
59 *405:44 *555:124 1.82476e-05
60 *405:44 *555:137 0.000341948
61 *405:44 *555:149 0.000312942
62 *405:44 *555:161 0.000275817
63 *405:44 *555:173 0.000309159
64 *409:34 *11524:BEN[24] 0.0280915
65 *409:34 *555:20 0.000353854
66 *411:42 *11524:BEN[24] 0
67 *411:42 *555:20 0
68 *433:26 *11524:BEN[29] 0
69 *463:36 *555:41 0.00033769
70 *463:36 *555:53 0.000613512
71 *463:36 *555:70 0.000771453
72 *463:73 *11524:BEN[31] 0.000732275
73 *463:73 *555:112 0.000763099
74 *463:73 *555:124 0.00069927
75 *463:73 *555:137 0.000822715
76 *463:73 *555:149 0.000737075
77 *463:73 *555:161 0.000647701
78 *463:73 *555:173 0.000735157
79 *465:14 *11524:BEN[31] 0
80 *467:82 *11524:BEN[31] 0.000147915
81 *467:82 *555:112 0.000176522
82 *467:82 *555:149 0.000162227
83 *467:82 *555:161 0.000150106
84 *467:82 *555:173 0.000156928
85 *476:64 *555:20 0.000217714
*RES
1 *11413:X *555:6 3.6 
2 *555:6 *555:8 120.592 
3 *555:8 *555:10 0.5 
4 *555:10 *555:20 11.5599 
5 *555:20 *11515:BEN[24] 4.59 
6 *555:20 *555:41 16.875 
7 *555:41 *11515:BEN[25] 9.08 
8 *555:41 *555:53 7.245 
9 *555:53 *11515:BEN[26] 7.97 
10 *555:53 *555:70 11.39 
11 *555:70 *11515:BEN[27] 7.05 
12 *555:70 *11603:A 12.085 
13 *555:10 *11524:BEN[24] 48.0456 
14 *11524:BEN[24] *555:112 17.87 
15 *555:112 *11524:BEN[25] 9.695 
16 *555:112 *555:124 8.01 
17 *555:124 *11524:BEN[26] 9.35 
18 *555:124 *555:137 9.285 
19 *555:137 *11524:BEN[27] 10.43 
20 *555:137 *555:149 8.265 
21 *555:149 *11524:BEN[28] 10.415 
22 *555:149 *555:161 7.245 
23 *555:161 *11524:BEN[29] 9.35 
24 *11524:BEN[29] *555:168 0.147 
25 *555:161 *555:173 8.265 
26 *555:173 *11524:BEN[30] 9.35 
27 *11524:BEN[30] *555:180 0.1225 
28 *555:173 *11524:BEN[31] 17.615 
29 *11524:BEN[31] *555:192 0.105 
*END

*D_NET *556 0.000256424
*CONN
*I *11412:A I *D sky130_fd_sc_hd__dlygate4sd3_1
*I *11414:X O *D sky130_fd_sc_hd__dlygate4sd3_1
*CAP
1 *11412:A 6.21323e-05
2 *11414:X 6.21323e-05
3 *11412:A *623:18 1.94805e-05
4 *11414:A *11412:A 0.000112679
*RES
1 *11414:X *11412:A 8.58 
*END

*D_NET *557 0.000529942
*CONN
*I *11593:A I *D sky130_fd_sc_hd__clkbuf_16
*I *11415:X O *D sky130_fd_sc_hd__dlygate4sd3_1
*CAP
1 *11593:A 0.000139464
2 *11415:X 0.000139464
3 *11593:A *11415:A 4.82919e-05
4 *11593:A *11606:A 4.75991e-05
5 *11418:A *11593:A 0.000127599
6 *11512:A *11593:A 2.75229e-05
*RES
1 *11415:X *11593:A 9.735 
*END

*D_NET *558 0.233065
*CONN
*I *11524:BEN[8] I *D CF_SRAM_1024x32
*I *11524:BEN[9] I *D CF_SRAM_1024x32
*I *11524:BEN[10] I *D CF_SRAM_1024x32
*I *11524:BEN[11] I *D CF_SRAM_1024x32
*I *11524:BEN[12] I *D CF_SRAM_1024x32
*I *11524:BEN[13] I *D CF_SRAM_1024x32
*I *11524:BEN[14] I *D CF_SRAM_1024x32
*I *11524:BEN[15] I *D CF_SRAM_1024x32
*I *11533:BEN[8] I *D CF_SRAM_1024x32
*I *11533:BEN[9] I *D CF_SRAM_1024x32
*I *11533:BEN[10] I *D CF_SRAM_1024x32
*I *11533:BEN[11] I *D CF_SRAM_1024x32
*I *11533:BEN[12] I *D CF_SRAM_1024x32
*I *11533:BEN[13] I *D CF_SRAM_1024x32
*I *11533:BEN[14] I *D CF_SRAM_1024x32
*I *11542:BEN[8] I *D CF_SRAM_1024x32
*I *11542:BEN[9] I *D CF_SRAM_1024x32
*I *11542:BEN[10] I *D CF_SRAM_1024x32
*I *11542:BEN[11] I *D CF_SRAM_1024x32
*I *11542:BEN[12] I *D CF_SRAM_1024x32
*I *11542:BEN[13] I *D CF_SRAM_1024x32
*I *11542:BEN[14] I *D CF_SRAM_1024x32
*I *11542:BEN[15] I *D CF_SRAM_1024x32
*I *11533:BEN[15] I *D CF_SRAM_1024x32
*I *11515:BEN[8] I *D CF_SRAM_1024x32
*I *11515:BEN[9] I *D CF_SRAM_1024x32
*I *11515:BEN[10] I *D CF_SRAM_1024x32
*I *11515:BEN[11] I *D CF_SRAM_1024x32
*I *11515:BEN[12] I *D CF_SRAM_1024x32
*I *11515:BEN[13] I *D CF_SRAM_1024x32
*I *11515:BEN[14] I *D CF_SRAM_1024x32
*I *11515:BEN[15] I *D CF_SRAM_1024x32
*I *11416:X O *D sky130_fd_sc_hd__clkbuf_16
*CAP
1 *11524:BEN[8] 0.000750105
2 *11524:BEN[9] 0.000569091
3 *11524:BEN[10] 0.00053751
4 *11524:BEN[11] 0.000544504
5 *11524:BEN[12] 0.000551498
6 *11524:BEN[13] 0.000541291
7 *11524:BEN[14] 0.000589216
8 *11524:BEN[15] 0.00014328
9 *11533:BEN[8] 0.000633069
10 *11533:BEN[9] 0.00047501
11 *11533:BEN[10] 0.000428994
12 *11533:BEN[11] 0.000501241
13 *11533:BEN[12] 0.000507547
14 *11533:BEN[13] 0.000517814
15 *11533:BEN[14] 0.00078797
16 *11542:BEN[8] 0.000744142
17 *11542:BEN[9] 0.000549259
18 *11542:BEN[10] 0.000509373
19 *11542:BEN[11] 0.000508506
20 *11542:BEN[12] 0.00050916
21 *11542:BEN[13] 0.00056942
22 *11542:BEN[14] 0.000555171
23 *11542:BEN[15] 0.000552923
24 *11533:BEN[15] 0.000793304
25 *11515:BEN[8] 0.000502066
26 *11515:BEN[9] 0.000523227
27 *11515:BEN[10] 0.000524095
28 *11515:BEN[11] 0.000469468
29 *11515:BEN[12] 0.000512822
30 *11515:BEN[13] 0.000454097
31 *11515:BEN[14] 0.000507196
32 *11515:BEN[15] 0.000444278
33 *11416:X 0.000649505
34 *558:446 6.90636e-06
35 *558:439 0.00145926
36 *558:434 0
37 *558:427 0.000807885
38 *558:422 0
39 *558:415 0.000791299
40 *558:410 0
41 *558:403 0.000824148
42 *558:393 0.000826252
43 *558:381 0.00134048
44 *558:367 0.0135486
45 *558:325 0.0012664
46 *558:320 7.37025e-06
47 *558:313 0.000747139
48 *558:301 0.000836261
49 *558:289 0.000840448
50 *558:277 0.00110365
51 *558:268 0
52 *558:257 0.00132672
53 *558:233 0.00146114
54 *558:228 7.37025e-06
55 *558:221 0.000828703
56 *558:216 6.50316e-06
57 *558:209 0.000854563
58 *558:204 0
59 *558:197 0.000849062
60 *558:185 0.000877826
61 *558:173 0.000848077
62 *558:161 0.0186548
63 *558:155 0.0181134
64 *558:141 0.00197804
65 *558:129 0.00615179
66 *558:127 0.00632121
67 *558:107 0.00202668
68 *558:93 0.000917701
69 *558:81 0.000943228
70 *558:69 0.000886633
71 *558:57 0.000887462
72 *558:47 0.000853668
73 *558:35 0.000992583
74 *558:23 0.0130763
75 *558:10 0.00111763
76 *11524:BEN[8] *576:8 0.000640929
77 *558:10 *590:14 7.32138e-05
78 *558:35 *590:14 6.03995e-05
79 *558:47 *590:14 0.000201009
80 *558:127 *588:22 0.000714759
81 *558:127 *631:12 0.000343662
82 *558:129 *629:58 0.000713005
83 *558:129 *629:72 0.000835074
84 *558:129 *630:54 0.000478214
85 *558:129 *630:66 0.00177045
86 *558:129 *631:66 0.00123304
87 *558:129 *631:68 0.00119231
88 *558:141 *629:74 0.00328549
89 *558:141 *631:68 0.000118019
90 *558:155 *629:74 0.000125765
91 *558:257 *629:74 0.000523223
92 *558:277 *629:74 0.000645727
93 *558:381 *574:16 0.000408572
94 *558:381 *576:8 0.000740019
95 *558:393 *576:8 0.000632385
96 *558:403 *576:8 0.000724704
97 *558:415 *576:8 0.000740019
98 *558:427 *576:8 0.000740013
99 *558:439 *576:8 0.000726659
100 *738:DIODE *558:129 0.000107634
101 *997:DIODE *558:277 0
102 *1192:DIODE *11542:BEN[8] 0
103 *11238:S *558:129 0.000343914
104 *11241:S *558:129 0.000133763
105 *11246:S *558:129 0.000166346
106 *11260:A1 *558:47 0.000173689
107 *11260:A1 *558:57 0.000318236
108 *11260:A1 *558:69 0.000236627
109 *11269:A1 *11515:BEN[14] 0
110 *11515:AD[4] *558:129 1.88904e-05
111 *11515:AD[5] *558:129 0.000146596
112 *11515:AD[9] *558:129 5.90347e-05
113 *11515:DI[12] *558:69 0.000149385
114 *11515:DI[9] *11515:BEN[9] 0
115 *11515:DI[15] *11515:BEN[15] 0
116 *11515:DI[15] *558:35 5.83121e-06
117 *11515:DI[15] *558:367 0.0216769
118 *11515:DI[13] *558:57 4.03077e-05
119 *11515:DI[10] *11515:BEN[10] 0
120 *11515:DI[8] *11515:BEN[8] 0
121 *11515:DI[8] *558:127 0
122 *11524:DI[14] *11524:BEN[14] 0
123 *11524:DI[11] *11524:BEN[11] 0
124 *11524:DI[15] *11524:BEN[15] 0
125 *11524:DI[15] *558:367 0.00338549
126 *11524:DI[13] *11524:BEN[13] 0
127 *11524:vpwrpc *558:367 0.000905554
128 *11533:DI[14] *11533:BEN[14] 0
129 *11542:DI[12] *11542:BEN[12] 0
130 *11542:DI[14] *11542:BEN[14] 8.00167e-05
131 *11542:DI[11] *11542:BEN[11] 0
132 *11542:DI[9] *11542:BEN[9] 0
133 *11542:DI[15] *11542:BEN[15] 0
134 *11542:DI[13] *11542:BEN[13] 7.37942e-05
135 *11542:vpwrpc *558:161 0.00193464
136 *11604:A *558:129 0.000141599
137 *141:14 *558:141 0.000152813
138 *141:24 *558:129 0.000176448
139 *141:24 *558:141 0.000328397
140 *141:38 *558:129 0.000399628
141 *147:38 *11515:BEN[14] 1.35854e-05
142 *147:38 *558:10 0.0011462
143 *147:38 *558:23 8.77562e-05
144 *147:38 *558:35 0.000250723
145 *148:38 *558:10 0.00161895
146 *201:167 *558:129 0
147 *210:11 *558:10 0.00129115
148 *210:11 *558:23 9.31326e-05
149 *210:11 *558:35 0.000359785
150 *210:11 *558:47 0.00048301
151 *228:20 *558:129 0.000185405
152 *232:21 *558:127 0.00139192
153 *232:23 *558:69 8.12667e-05
154 *232:23 *558:81 7.25306e-05
155 *234:17 *558:127 0.000287266
156 *238:7 *11524:BEN[9] 0
157 *247:21 *558:367 6.18018e-05
158 *254:23 *558:367 6.32332e-05
159 *268:23 *11524:BEN[8] 1.59901e-05
160 *268:74 *11524:BEN[8] 0
161 *272:10 *11533:BEN[11] 0
162 *273:12 *11533:BEN[12] 0
163 *273:14 *558:141 0.00259222
164 *273:14 *558:155 0.000132036
165 *273:14 *558:257 0.000530418
166 *273:14 *558:277 0.000654258
167 *274:10 *11533:BEN[13] 0
168 *300:11 *11533:BEN[8] 0
169 *306:16 *11542:BEN[15] 0.000101584
170 *306:16 *558:173 0.000389969
171 *306:16 *558:185 0.000169372
172 *332:7 *11542:BEN[8] 0
173 *353:10 *558:47 0.000411361
174 *353:10 *558:57 0.000607307
175 *353:10 *558:69 0.00076732
176 *353:10 *558:81 0.00083348
177 *353:10 *558:93 0.000695343
178 *353:10 *558:107 0.00064936
179 *365:28 *11515:BEN[9] 0
180 *365:68 *11524:BEN[9] 0
181 *374:85 *558:161 0
182 *378:81 *558:127 1.84712e-05
183 *378:89 *558:127 0.000610461
184 *378:89 *558:129 0
185 *383:50 *558:127 2.99228e-05
186 *383:58 *558:127 0.00207344
187 *383:58 *558:129 0.000851478
188 *387:56 *558:127 0.000690012
189 *389:24 *558:81 8.52211e-05
190 *389:36 *558:81 0.000284439
191 *389:36 *558:93 0.000390264
192 *389:36 *558:107 0.000362092
193 *391:68 *558:129 5.93477e-05
194 *391:86 *558:129 0.00063632
195 *394:58 *558:129 0.000283754
196 *394:68 *11533:BEN[8] 0.000585388
197 *394:68 *558:289 0.000705693
198 *394:68 *558:301 0.000695526
199 *394:68 *558:313 0.000791332
200 *394:68 *558:325 0.000723006
201 *396:104 *558:129 0.0118999
202 *405:44 *11542:BEN[8] 0.000233702
203 *405:44 *558:185 0.000182888
204 *405:44 *558:197 0.000259272
205 *405:44 *558:209 0.000294051
206 *405:44 *558:221 0.000316481
207 *405:44 *558:233 0.000336813
208 *409:34 *558:129 4.01019e-05
209 *413:44 *558:129 3.96088e-05
210 *461:36 *558:129 0.000400028
211 *463:36 *11533:BEN[8] 0.000593857
212 *463:36 *558:289 0.000705693
213 *463:36 *558:301 0.000703835
214 *463:36 *558:313 0.00079964
215 *463:36 *558:325 0.000731314
216 *463:73 *11542:BEN[15] 0.000178633
217 *463:73 *11542:BEN[8] 0.000587107
218 *463:73 *558:173 0.000684032
219 *463:73 *558:185 0.000737511
220 *463:73 *558:197 0.000620202
221 *463:73 *558:209 0.000725122
222 *463:73 *558:221 0.000740019
223 *463:73 *558:233 0.000786179
224 *467:82 *558:173 0.00015166
225 *467:82 *558:185 0.000156928
226 *467:82 *558:197 0.000125244
227 *467:82 *558:209 0.000104111
228 *467:82 *558:221 0.000171239
229 *467:82 *558:233 0.000181806
230 *471:26 *558:381 0.000119351
231 *471:26 *558:415 0.000119351
232 *471:26 *558:427 0.000119351
233 *474:78 *558:129 0.000919087
234 *476:54 *558:129 0.002848
235 *483:44 *558:129 0.00177896
236 *483:44 *558:141 0.000357691
237 *483:44 *558:277 0.000155389
238 *515:16 *558:10 0.00162011
239 *526:22 *11524:BEN[14] 0.000118081
240 *526:24 *11524:BEN[8] 0.000632398
241 *526:24 *558:381 2.92496e-05
242 *526:24 *558:393 0.000623854
243 *526:24 *558:403 0.000716173
244 *526:24 *558:415 0.000731488
245 *526:24 *558:427 0.000731481
246 *526:24 *558:439 0.000718128
247 *552:70 *558:129 0.000160379
*RES
1 *11416:X *558:10 33.945 
2 *558:10 *11515:BEN[15] 7.97 
3 *558:10 *558:23 1.125 
4 *558:23 *558:35 11.23 
5 *558:35 *11515:BEN[14] 9.0275 
6 *558:35 *558:47 9.285 
7 *558:47 *11515:BEN[13] 7.9175 
8 *558:47 *558:57 7.245 
9 *558:57 *11515:BEN[12] 9.0575 
10 *558:57 *558:69 9.03 
11 *558:69 *11515:BEN[11] 8.3075 
12 *558:69 *558:81 9.795 
13 *558:81 *11515:BEN[10] 9.2525 
14 *558:81 *558:93 8.265 
15 *558:93 *11515:BEN[9] 9.2375 
16 *558:93 *558:107 9.755 
17 *558:107 *11515:BEN[8] 6.7125 
18 *558:107 *558:127 47.9225 
19 *558:127 *558:129 191.7 
20 *558:129 *558:141 39.4032 
21 *558:141 *11533:BEN[15] 12.0875 
22 *558:141 *558:155 1.5075 
23 *558:155 *558:161 45.0293 
24 *558:161 *11542:BEN[15] 11.315 
25 *558:161 *558:173 7.6275 
26 *558:173 *11542:BEN[14] 10.6625 
27 *558:173 *558:185 8.265 
28 *558:185 *11542:BEN[13] 10.6475 
29 *558:185 *558:197 6.99 
30 *558:197 *11542:BEN[12] 9.35 
31 *11542:BEN[12] *558:204 0.113077 
32 *558:197 *558:209 8.265 
33 *558:209 *11542:BEN[11] 9.35 
34 *11542:BEN[11] *558:216 0.1125 
35 *558:209 *558:221 8.265 
36 *558:221 *11542:BEN[10] 9.35 
37 *11542:BEN[10] *558:228 0.1275 
38 *558:221 *558:233 8.775 
39 *558:233 *11542:BEN[9] 10.1675 
40 *558:233 *11542:BEN[8] 17.2625 
41 *558:155 *558:257 6.0975 
42 *558:257 *11533:BEN[14] 11.885 
43 *11533:BEN[14] *558:268 0.163333 
44 *558:257 *558:277 13.055 
45 *558:277 *11533:BEN[13] 7.0725 
46 *558:277 *558:289 10.265 
47 *558:289 *11533:BEN[12] 9.0875 
48 *558:289 *558:301 8.265 
49 *558:301 *11533:BEN[11] 9.1025 
50 *558:301 *558:313 9.285 
51 *558:313 *11533:BEN[10] 7.97 
52 *11533:BEN[10] *558:320 0.1275 
53 *558:313 *558:325 8.52 
54 *558:325 *11533:BEN[9] 9.2525 
55 *558:325 *11533:BEN[8] 16.1375 
56 *558:23 *558:367 47.4678 
57 *558:367 *11524:BEN[15] 2.2425 
58 *558:367 *558:381 16.58 
59 *558:381 *11524:BEN[14] 10.4375 
60 *558:381 *558:393 7.245 
61 *558:393 *11524:BEN[13] 9.2975 
62 *558:393 *558:403 8.265 
63 *558:403 *11524:BEN[12] 9.35 
64 *11524:BEN[12] *558:410 0.163333 
65 *558:403 *558:415 8.265 
66 *558:415 *11524:BEN[11] 9.35 
67 *11524:BEN[11] *558:422 0.133636 
68 *558:415 *558:427 8.265 
69 *558:427 *11524:BEN[10] 9.35 
70 *11524:BEN[10] *558:434 0.113077 
71 *558:427 *558:439 8.265 
72 *558:439 *11524:BEN[9] 9.35 
73 *11524:BEN[9] *558:446 0.1125 
74 *558:439 *11524:BEN[8] 17.7425 
*END

*D_NET *559 0.025463
*CONN
*I *11505:A I *D sky130_fd_sc_hd__buf_12
*I *11573:X O *D sky130_fd_sc_hd__buf_12
*CAP
1 *11505:A 7.77769e-05
2 *11573:X 0.000615982
3 *559:12 0.00781407
4 *559:10 0.00835227
5 *559:10 *11609:A 0
6 *559:10 *582:26 0
7 *559:10 *589:20 0.000198154
8 *559:12 *11493:A 0.000201686
9 *559:12 *575:44 0.00520816
10 *559:12 *583:26 1.41218e-05
11 *744:DIODE *559:12 0.000158072
12 *871:DIODE *559:12 0.000455891
13 *872:DIODE *559:12 0.000164874
14 *891:DIODE *559:12 8.40269e-05
15 *1077:DIODE *559:12 0.0001249
16 *11283:S *559:12 0.000431157
17 *11332:A *559:12 9.62058e-05
18 *11397:A *559:10 0.000146088
19 *11398:A *559:10 8.36546e-05
20 *11481:A *559:10 0.000171219
21 *174:108 *11505:A 5.72004e-05
22 *247:43 *559:12 0.000798759
23 *247:59 *559:12 4.77719e-05
24 *247:61 *559:12 0.000161005
25 *461:18 *11505:A 0
*RES
1 *11573:X *559:10 16.67 
2 *559:10 *559:12 100.155 
3 *559:12 *11505:A 7.235 
*END

*D_NET *560 0.0419038
*CONN
*I *11452:A I *D sky130_fd_sc_hd__buf_12
*I *11574:X O *D sky130_fd_sc_hd__buf_12
*CAP
1 *11452:A 0.000285736
2 *11574:X 0.000228314
3 *560:16 0.00235187
4 *560:14 0.00206613
5 *560:12 0.00117291
6 *560:10 0.00140122
7 *560:10 *612:28 0.00048327
8 *560:12 *569:12 0.00585083
9 *560:12 *614:18 0.00103953
10 *560:16 *573:16 0.00182668
11 *11309:A0 *560:16 3.13952e-05
12 *11318:A0 *560:16 0.000691018
13 *11351:A *560:10 0.000161812
14 *184:56 *560:16 0.000268985
15 *186:12 *560:16 0.000159522
16 *356:10 *560:16 0.00417802
17 *526:22 *560:16 0.00273809
18 *537:12 *560:12 0.00756306
19 *537:16 *560:16 0.0094054
*RES
1 *11574:X *560:10 11.57 
2 *560:10 *560:12 69.45 
3 *560:12 *560:14 2 
4 *560:14 *560:16 114.345 
5 *560:16 *11452:A 7.155 
*END

*D_NET *561 0.00129858
*CONN
*I *11415:A I *D sky130_fd_sc_hd__dlygate4sd3_1
*I *11418:X O *D sky130_fd_sc_hd__dlygate4sd3_1
*CAP
1 *11415:A 0.000167453
2 *11418:X 0.000167453
3 *11415:A *592:20 0.000556958
4 *11418:A *11415:A 0.000272469
5 *11512:A *11415:A 8.59565e-05
6 *11593:A *11415:A 4.82919e-05
*RES
1 *11418:X *11415:A 8.84 
*END

*D_NET *562 0.00020033
*CONN
*I *11584:A I *D sky130_fd_sc_hd__clkbuf_2
*I *11419:X O *D sky130_fd_sc_hd__dlygate4sd3_1
*CAP
1 *11584:A 2.95721e-05
2 *11419:X 2.95721e-05
3 *11584:A *598:14 6.84859e-05
4 *360:14 *11584:A 7.27003e-05
*RES
1 *11419:X *11584:A 4.34 
*END

*D_NET *563 0.0221189
*CONN
*I *11202:A I *D sky130_fd_sc_hd__and3_2
*I *11204:A_N I *D sky130_fd_sc_hd__and4b_2
*I *11207:C I *D sky130_fd_sc_hd__and3b_1
*I *11210:A I *D sky130_fd_sc_hd__or2_1
*I *11420:X O *D sky130_fd_sc_hd__dlygate4sd3_1
*CAP
1 *11202:A 0.000779061
2 *11204:A_N 0.00092729
3 *11207:C 0
4 *11210:A 0.00038944
5 *11420:X 0
6 *563:38 0.00231922
7 *563:36 0.00143114
8 *563:8 0.000483744
9 *563:6 0.000912577
10 *11204:A_N *11204:B 4.33258e-05
11 *11210:A *11210:B 0.000159325
12 *11210:A *567:31 0
13 *11210:A *582:18 4.2801e-05
14 *563:36 *589:22 0.00299958
15 *563:36 *602:14 0.000272213
16 *563:38 *11204:B 0.00201364
17 *563:38 *597:10 0
18 *701:DIODE *11204:A_N 0.000193801
19 *11202:C *11202:A 0.00170811
20 *11207:B *11210:A 4.46271e-05
21 *3:25 *563:38 0.000284953
22 *114:10 *11210:A 4.63425e-05
23 *114:10 *563:8 5.18317e-06
24 *164:12 *563:38 8.4828e-05
25 *199:74 *11202:A 0.000385542
26 *199:74 *563:38 4.78859e-05
27 *212:35 *11204:A_N 0.000666454
28 *215:32 *563:36 0.00136162
29 *224:36 *11202:A 0.0026371
30 *224:36 *563:38 0.00186832
31 *239:69 *11202:A 1.07797e-05
*RES
1 *11420:X *563:6 3.6 
2 *563:6 *563:8 1.38 
3 *563:8 *11210:A 9.3 
4 *563:8 *11207:C 3.6 
5 *563:6 *563:36 35.29 
6 *563:36 *563:38 25.86 
7 *563:38 *11204:A_N 15.375 
8 *563:38 *11202:A 35.19 
*END

*D_NET *564 0.0151756
*CONN
*I *11203:A I *D sky130_fd_sc_hd__clkbuf_8
*I *11421:X O *D sky130_fd_sc_hd__dlygate4sd3_1
*CAP
1 *11203:A 1.23867e-05
2 *11421:X 3.77157e-05
3 *564:10 0.00298566
4 *564:8 0.00301099
5 *11326:A *564:10 0.000167355
6 *11421:A *564:8 1.77595e-05
7 *3:25 *564:10 0.000874749
8 *120:10 *564:10 0.0069675
9 *200:66 *564:10 0
10 *204:8 *11203:A 2.68526e-05
11 *220:20 *11203:A 4.77757e-05
12 *245:26 *564:10 0.0010268
*RES
1 *11421:X *564:8 4.05 
2 *564:8 *564:10 80.685 
3 *564:10 *11203:A 4.05 
*END

*D_NET *565 0.0587784
*CONN
*I *11542:EN I *D CF_SRAM_1024x32
*I *11422:X O *D sky130_fd_sc_hd__dlygate4sd3_1
*CAP
1 *11542:EN 0.000377286
2 *11422:X 0
3 *565:10 0.00407079
4 *565:8 0.00369351
5 *565:6 0.00868691
6 *565:4 0.00868691
7 *11542:R_WB *11542:EN 0
8 *307:13 *565:10 0
9 *307:15 *565:6 0.0129915
10 *311:11 *565:10 0
11 *332:11 *565:10 0
12 *359:10 *565:10 0.0114356
13 *361:10 *565:10 0.000536618
14 *398:54 *565:10 0.00829928
*RES
1 *11422:X *565:4 1.6 
2 *565:4 *565:6 121.89 
3 *565:6 *565:8 2 
4 *565:8 *565:10 163.305 
5 *565:10 *11542:EN 7.89125 
*END

*D_NET *566 0.000174981
*CONN
*I *11595:A I *D sky130_fd_sc_hd__clkbuf_2
*I *11423:X O *D sky130_fd_sc_hd__dlygate4sd3_1
*CAP
1 *11595:A 5.88484e-05
2 *11423:X 5.88484e-05
3 *11475:A *11595:A 2.96845e-05
4 *11480:A *11595:A 2.76e-05
*RES
1 *11423:X *11595:A 8.325 
*END

*D_NET *567 0.0208018
*CONN
*I *11207:A_N I *D sky130_fd_sc_hd__and3b_1
*I *11204:B I *D sky130_fd_sc_hd__and4b_2
*I *11210:B I *D sky130_fd_sc_hd__or2_1
*I *11424:X O *D sky130_fd_sc_hd__dlygate4sd3_1
*CAP
1 *11207:A_N 0
2 *11204:B 0.00188064
3 *11210:B 0.000104093
4 *11424:X 0.00174902
5 *567:35 0.00232947
6 *567:31 0.000597456
7 *567:18 0.00200174
8 *11204:B *597:10 0
9 *11204:B *602:12 8.23457e-05
10 *11204:B *603:10 0.000548548
11 *11210:B *582:18 0.000306793
12 *567:35 *579:12 0.00286906
13 *567:35 *633:14 0.00287073
14 *701:DIODE *11204:B 2.65505e-05
15 *11201:A *11204:B 2.42236e-05
16 *11204:A_N *11204:B 4.33258e-05
17 *11207:B *567:31 1.42807e-05
18 *11210:A *11210:B 0.000159325
19 *11210:A *567:31 0
20 *11272:A2 *11204:B 4.66108e-05
21 *11272:B1 *11204:B 2.47827e-05
22 *11272:B2 *11204:B 4.65682e-05
23 *11284:A1 *567:18 0.000268075
24 *11284:B1 *567:18 3.9442e-05
25 *11284:C1 *567:18 0.000201117
26 *3:25 *11204:B 0.000399658
27 *110:18 *11204:B 0.000107878
28 *112:8 *11204:B 5.36384e-06
29 *122:16 *11204:B 0.000308741
30 *122:16 *567:31 0
31 *122:56 *567:18 0
32 *148:16 *567:18 0.000688753
33 *199:74 *11204:B 0.000579267
34 *212:35 *11204:B 0.000113652
35 *215:32 *567:18 0
36 *338:26 *567:18 0.000215447
37 *404:18 *567:18 0.00013521
38 *563:38 *11204:B 0.00201364
*RES
1 *11424:X *567:18 31.435 
2 *567:18 *11210:B 6.465 
3 *567:18 *567:31 4.145 
4 *567:31 *567:35 28.325 
5 *567:35 *11204:B 45.06 
6 *567:31 *11207:A_N 1.6 
*END

*D_NET *568 0.000299756
*CONN
*I *11598:A I *D sky130_fd_sc_hd__buf_4
*I *11425:X O *D sky130_fd_sc_hd__dlygate4sd3_1
*CAP
1 *11598:A 0.000149878
2 *11425:X 0.000149878
*RES
1 *11425:X *11598:A 9.285 
*END

*D_NET *569 0.0374218
*CONN
*I *11454:A I *D sky130_fd_sc_hd__buf_12
*I *11575:X O *D sky130_fd_sc_hd__buf_12
*CAP
1 *11454:A 0.00116326
2 *11575:X 0.000549822
3 *569:16 0.00335825
4 *569:14 0.00219499
5 *569:12 0.00216823
6 *569:10 0.00271805
7 *11454:A *572:24 0.000411657
8 *569:12 *614:18 0.00181313
9 *569:16 *572:24 0.0061108
10 *985:DIODE *569:16 7.0152e-05
11 *986:DIODE *569:16 3.4222e-05
12 *11309:S *11454:A 0.000190931
13 *11318:A0 *569:16 0.000261307
14 *11368:A *569:10 0
15 *11455:A *569:10 0
16 *168:114 *11454:A 0.00045022
17 *168:114 *569:16 0
18 *193:8 *569:16 0.00525223
19 *266:83 *11454:A 0.000117355
20 *418:24 *11454:A 0.000273001
21 *422:16 *11454:A 0.0023959
22 *471:26 *11454:A 1.92979e-05
23 *471:26 *569:16 0.00123887
24 *482:24 *11454:A 8.29471e-05
25 *493:16 *569:16 0.000696372
26 *560:12 *569:12 0.00585083
*RES
1 *11575:X *569:10 13.865 
2 *569:10 *569:12 57.03 
3 *569:12 *569:14 2 
4 *569:14 *569:16 84.8925 
5 *569:16 *11454:A 38.8875 
*END

*D_NET *570 0.0359973
*CONN
*I *11456:A I *D sky130_fd_sc_hd__buf_12
*I *11576:X O *D sky130_fd_sc_hd__buf_12
*CAP
1 *11456:A 0.000423065
2 *11576:X 0.000777435
3 *570:26 0.00145417
4 *570:24 0.00109318
5 *570:18 0.0015721
6 *570:16 0.00559588
7 *570:12 0.00486328
8 *570:12 *617:16 7.00322e-05
9 *11312:A0 *570:26 0.00111768
10 *11321:A0 *570:26 1.82584e-05
11 *11368:A *570:12 0.00012411
12 *11450:A *570:26 0.00186036
13 *11576:A *570:12 5.04972e-05
14 *184:62 *570:26 0.00122369
15 *189:10 *570:26 0.00221042
16 *194:18 *570:26 0.000713827
17 *253:29 *570:16 0.000625288
18 *258:22 *570:18 0.00552887
19 *258:22 *570:26 4.26286e-05
20 *355:12 *570:26 9.28098e-05
21 *355:22 *570:26 0.000547757
22 *365:78 *570:24 0.000118081
23 *385:38 *11456:A 0
24 *548:20 *570:18 0.00587385
25 *549:175 *11456:A 0
*RES
1 *11576:X *570:12 17.81 
2 *570:12 *570:16 45.23 
3 *570:16 *570:18 68.955 
4 *570:18 *570:24 5.14 
5 *570:24 *570:26 48.81 
6 *570:26 *11456:A 9.225 
*END

*D_NET *571 0.0336236
*CONN
*I *11458:A I *D sky130_fd_sc_hd__buf_12
*I *11577:X O *D sky130_fd_sc_hd__buf_12
*CAP
1 *11458:A 0.00039807
2 *11577:X 0.00101539
3 *571:34 0.00157246
4 *571:16 0.00306106
5 *571:14 0.00359865
6 *571:10 0.00272736
7 *571:10 *11626:A 0.000304895
8 *939:DIODE *11458:A 0
9 *11321:A0 *571:34 0.000870498
10 *11371:A *571:10 0
11 *11450:A *571:34 1.26248e-05
12 *11524:BEN[2] *11458:A 0.000184998
13 *11524:DI[3] *571:34 0
14 *11524:vpwrac *571:16 0.000302804
15 *11577:A *571:10 0
16 *115:54 *571:10 0.000267669
17 *115:67 *571:10 6.96144e-05
18 *184:56 *571:34 1.19928e-05
19 *184:62 *571:16 0.00154835
20 *187:36 *571:34 0.00121897
21 *187:38 *571:16 0.00239975
22 *194:18 *571:34 9.51493e-06
23 *195:10 *571:16 0.00610501
24 *247:15 *571:34 0
25 *249:29 *571:14 0.000633757
26 *258:14 *571:34 0.000764505
27 *258:22 *571:34 0.000204282
28 *355:22 *571:34 1.08758e-05
29 *504:14 *571:14 0.00368548
30 *537:16 *571:16 0.000185963
31 *548:20 *571:34 0.000116237
32 *549:115 *571:34 0.000479192
33 *549:127 *571:34 0.00070922
34 *549:143 *571:34 0.000753085
35 *549:157 *571:34 0.000337162
36 *549:175 *11458:A 6.41634e-05
*RES
1 *11577:X *571:10 23.555 
2 *571:10 *571:14 35.57 
3 *571:14 *571:16 77.37 
4 *571:16 *571:34 48.315 
5 *571:34 *11458:A 8.26 
*END

*D_NET *572 0.0358818
*CONN
*I *11461:A I *D sky130_fd_sc_hd__buf_12
*I *11578:X O *D sky130_fd_sc_hd__buf_12
*CAP
1 *11461:A 3.37454e-05
2 *11578:X 0.00129846
3 *572:24 0.00254972
4 *572:22 0.00455712
5 *572:14 0.00333961
6 *572:22 *574:14 0
7 *572:24 *576:8 5.98004e-06
8 wbs_dat_o[27] *572:14 4.78634e-05
9 wbs_dat_o[29] *572:22 0
10 *11399:A *572:22 0.000109549
11 *11400:A *572:22 0
12 *11454:A *572:24 0.000411657
13 *115:67 *572:22 0.00126857
14 *398:10 *572:24 0.00278847
15 *418:34 *572:24 0.000523673
16 *422:16 *572:24 0.000180321
17 *427:14 *572:24 0.00213708
18 *427:16 *572:24 1.50624e-05
19 *471:26 *572:24 0.00117756
20 *482:24 *572:14 0.000306083
21 *493:16 *572:24 0.00687473
22 *504:18 *572:24 0.000199836
23 *548:18 *572:14 0.00194588
24 *569:16 *572:24 0.0061108
*RES
1 *11578:X *572:14 26.425 
2 *572:14 *572:22 39.91 
3 *572:22 *572:24 116.13 
4 *572:24 *11461:A 4.05 
*END

*D_NET *573 0.0316405
*CONN
*I *11465:A I *D sky130_fd_sc_hd__buf_12
*I *11579:X O *D sky130_fd_sc_hd__buf_12
*CAP
1 *11465:A 0.000201368
2 *11579:X 0.00229478
3 *573:16 0.0026128
4 *573:14 0.00470621
5 *573:16 *574:16 0.0104808
6 *573:16 *576:8 0
7 wbs_dat_o[28] *573:14 0
8 *11318:A0 *573:16 0.000551257
9 *11464:A *573:14 0.000155927
10 *11524:BEN[1] *11465:A 6.33103e-05
11 *254:27 *573:14 0.000664318
12 *258:26 *573:14 1.92548e-05
13 *356:10 *573:16 0.00598568
14 *526:22 *573:16 0.00207815
15 *560:16 *573:16 0.00182668
*RES
1 *11579:X *573:14 38.89 
2 *573:14 *573:16 127.095 
3 *573:16 *11465:A 6.465 
*END

*D_NET *574 0.0306551
*CONN
*I *11478:A I *D sky130_fd_sc_hd__buf_12
*I *11580:X O *D sky130_fd_sc_hd__buf_12
*CAP
1 *11478:A 0.000181121
2 *11580:X 0.00166935
3 *574:16 0.0022661
4 *574:14 0.00375433
5 *574:16 *576:8 0.000251207
6 wbs_dat_o[29] *574:14 6.44134e-05
7 *11318:A0 *574:16 0.000550184
8 *11400:A *574:14 0
9 *11580:A *574:14 0.000103592
10 *185:14 *574:14 0.000663715
11 *254:23 *574:14 0.000559485
12 *256:19 *574:16 0.00300803
13 *356:10 *574:16 0.000212328
14 *376:87 *11478:A 3.03775e-05
15 *418:24 *574:16 0.000136967
16 *526:24 *574:16 0.0063146
17 *548:20 *574:14 0
18 *558:381 *574:16 0.000408572
19 *572:22 *574:14 0
20 *573:16 *574:16 0.0104808
*RES
1 *11580:X *574:14 38.5 
2 *574:14 *574:16 122.25 
3 *574:16 *11478:A 6.12 
*END

*D_NET *575 0.0357157
*CONN
*I *11436:A I *D sky130_fd_sc_hd__buf_12
*I *11581:X O *D sky130_fd_sc_hd__buf_12
*CAP
1 *11436:A 0.000134278
2 *11581:X 0.00146216
3 *575:44 0.00139279
4 *575:42 0.0043468
5 *575:30 0.00436947
6 *575:26 0.00274334
7 *575:26 *591:28 0.000101593
8 *575:26 *598:12 3.54399e-05
9 *575:26 *600:16 1.18308e-05
10 *575:26 *601:10 0.000122097
11 *575:26 *623:18 3.01933e-05
12 *575:30 *600:16 0.000494413
13 *575:30 *600:18 2.47149e-05
14 *575:42 *583:14 0.0007392
15 *575:42 *583:22 9.97536e-06
16 *575:44 *11329:A 3.24882e-05
17 *575:44 *582:26 0.00499256
18 *575:44 *583:22 0.000392401
19 *871:DIODE *575:44 0.000306816
20 *11200:A *575:26 0.00015896
21 *11231:B2 *575:26 4.82919e-05
22 *11324:D *575:26 7.9711e-05
23 *11324:D *575:30 0.00261572
24 *11324:RESET_B *575:26 0.000251194
25 *11409:A *575:26 0
26 *11502:A *575:26 0.000439006
27 *11512:A *575:26 0
28 *11581:A *575:26 4.82863e-05
29 *11585:A *575:26 4.82863e-05
30 *11599:A *575:26 0.000132456
31 *119:26 *575:30 0.00191551
32 *145:8 *575:42 9.14049e-05
33 *145:35 *575:42 0.000257017
34 *201:48 *575:26 1.97442e-05
35 *201:48 *575:30 1.91597e-05
36 *338:22 *575:30 0.00063431
37 *338:22 *575:42 0.00198707
38 *382:47 *575:26 1.88656e-05
39 *559:12 *575:44 0.00520816
*RES
1 *11581:X *575:26 34.035 
2 *575:26 *575:30 35.8275 
3 *575:30 *575:42 46.8775 
4 *575:42 *575:44 55.65 
5 *575:44 *11436:A 7.49 
*END

*D_NET *576 0.0311594
*CONN
*I *11500:A I *D sky130_fd_sc_hd__buf_12
*I *11582:X O *D sky130_fd_sc_hd__buf_12
*CAP
1 *11500:A 0.000119215
2 *11582:X 0
3 *576:8 0.0035951
4 *576:6 0.00347589
5 *765:DIODE *576:8 0.000201028
6 *11401:A *576:8 0
7 *11524:BEN[8] *576:8 0.000640929
8 *11524:BEN[0] *576:8 0.000693172
9 *256:19 *576:8 0.000370089
10 *266:68 *576:8 0.000155552
11 *376:87 *576:8 0.00281462
12 *398:10 *576:8 0.000508527
13 *418:24 *576:8 0.00268088
14 *422:32 *576:8 0.000233925
15 *471:26 *576:8 0.00121828
16 *493:16 *576:8 0.000882023
17 *504:18 *576:8 0.00781111
18 *526:22 *576:8 0
19 *526:24 *576:8 0.000483455
20 *549:187 *576:8 0.000714585
21 *558:381 *576:8 0.000740019
22 *558:393 *576:8 0.000632385
23 *558:403 *576:8 0.000724704
24 *558:415 *576:8 0.000740019
25 *558:427 *576:8 0.000740013
26 *558:439 *576:8 0.000726659
27 *572:24 *576:8 5.98004e-06
28 *573:16 *576:8 0
29 *574:16 *576:8 0.000251207
*RES
1 *11582:X *576:6 3.6 
2 *576:6 *576:8 151.065 
3 *576:8 *11500:A 5.085 
*END

*D_NET *577 0.0206815
*CONN
*I *11509:A I *D sky130_fd_sc_hd__buf_12
*I *11583:X O *D sky130_fd_sc_hd__buf_12
*CAP
1 *11509:A 0.000244966
2 *11583:X 0.00124514
3 *577:12 0.00607973
4 *577:10 0.0070799
5 *577:10 *11631:A 3.29217e-05
6 wbs_dat_o[31] *577:10 0
7 *11403:A *577:10 7.75325e-05
8 *11508:A *577:10 0.00011238
9 *374:60 *577:12 0.00428565
10 *407:10 *577:12 0.000126231
11 *409:10 *577:12 0.00139709
*RES
1 *11583:X *577:10 25.0575 
2 *577:10 *577:12 134.242 
3 *577:12 *11509:A 6.81 
*END

*D_NET *578 0.00700454
*CONN
*I *11420:A I *D sky130_fd_sc_hd__dlygate4sd3_1
*I *11584:X O *D sky130_fd_sc_hd__clkbuf_2
*CAP
1 *11420:A 0
2 *11584:X 0.00225042
3 *578:12 0.00225042
4 *578:12 *11610:A 0
5 *578:12 *600:26 0.00140924
6 *11479:A *578:12 0
7 *11483:A *578:12 4.04686e-05
8 *140:24 *578:12 0.000848528
9 *145:35 *578:12 0.000131658
10 *371:42 *578:12 7.38016e-05
*RES
1 *11584:X *578:12 49.76 
2 *578:12 *11420:A 1.6 
*END

*D_NET *579 0.0327452
*CONN
*I *11430:A I *D sky130_fd_sc_hd__buf_12
*I *11585:X O *D sky130_fd_sc_hd__buf_12
*CAP
1 *11430:A 0.000680206
2 *11585:X 0.000588642
3 *579:12 0.00294689
4 *579:10 0.00285533
5 *11430:A *11336:A 5.58436e-05
6 *11430:A *581:12 0.000358583
7 *11430:A *633:20 0.00291753
8 *579:10 *598:12 0
9 *579:10 *599:10 0.000232572
10 *579:10 *611:10 0
11 *579:10 *625:20 0.000147088
12 *579:12 *624:22 0.000870244
13 *579:12 *633:14 0.00105686
14 *579:12 *633:18 0.00127744
15 *579:12 *633:20 0.0023322
16 wbs_dat_o[3] *579:10 9.98662e-05
17 *11263:A1 *579:10 9.64478e-05
18 *11269:C1 *579:10 0.000179329
19 *382:20 *579:10 5.93761e-05
20 *382:47 *579:10 7.53153e-05
21 *515:16 *11430:A 0.00101055
22 *515:16 *579:12 0.0120359
23 *567:35 *579:12 0.00286906
*RES
1 *11585:X *579:10 17.945 
2 *579:10 *579:12 110.332 
3 *579:12 *11430:A 29.4175 
*END

*D_NET *580 0.0329231
*CONN
*I *11417:A I *D sky130_fd_sc_hd__buf_12
*I *11586:X O *D sky130_fd_sc_hd__buf_12
*CAP
1 *11417:A 0.00198134
2 *11586:X 0.000303716
3 *580:24 0.00554402
4 *580:22 0.00366238
5 *580:12 0.00418428
6 *580:10 0.0043883
7 *11417:A *11471:A 0.000224487
8 *11417:A *584:56 0.00074067
9 *580:10 *588:18 0.00041097
10 *580:12 *601:12 0.000795847
11 *580:24 *584:34 0.00191827
12 *11213:A *580:24 0.000311481
13 *11214:A *580:12 0.00122267
14 *11214:A *580:22 1.88904e-05
15 *11298:B1 *11417:A 1.85115e-05
16 *11301:B2 *11417:A 2.88519e-05
17 *11334:A *11417:A 0.0002014
18 *11489:A *580:12 2.30292e-05
19 *11489:A *580:24 0.000127305
20 *11494:A *580:12 4.7101e-05
21 *110:14 *580:12 0.00202735
22 *117:104 *11417:A 0.00134567
23 *118:61 *11417:A 0.000803745
24 *122:56 *580:24 0.0011807
25 *122:58 *580:24 0.000869629
26 *165:20 *11417:A 3.98779e-05
27 *165:111 *11417:A 0.00024987
28 *170:16 *11417:A 1.88602e-05
29 *170:76 *11417:A 0.000109729
30 *173:63 *11417:A 8.73389e-06
31 *173:76 *11417:A 4.82824e-05
32 *201:20 *580:22 1.88904e-05
33 *201:20 *580:24 4.82863e-05
*RES
1 *11586:X *580:10 10.55 
2 *580:10 *580:12 54.27 
3 *580:12 *580:22 5.26 
4 *580:22 *580:24 49.095 
5 *580:24 *11417:A 36.1166 
*END

*D_NET *581 0.0318196
*CONN
*I *11373:A I *D sky130_fd_sc_hd__buf_12
*I *11587:X O *D sky130_fd_sc_hd__buf_12
*CAP
1 *11373:A 3.58421e-05
2 *11587:X 0.000821518
3 *581:12 0.0093008
4 *581:10 0.0100865
5 *581:10 *586:34 0
6 *581:10 *592:28 0
7 *581:12 *11336:A 0.000585247
8 *581:12 *633:20 2.19562e-06
9 *11207:B *581:12 0.00324283
10 *11333:A *581:10 9.17606e-05
11 *11334:A *581:12 0.000240805
12 *11430:A *581:12 0.000358583
13 *114:14 *581:12 0.00511378
14 *140:34 *581:12 0.00011579
15 *145:60 *581:10 0.00012476
16 *167:86 *581:12 0.000125388
17 *515:16 *581:12 0.00157385
*RES
1 *11587:X *581:10 18.71 
2 *581:10 *581:12 126.72 
3 *581:12 *11373:A 2.215 
*END

*D_NET *582 0.0291288
*CONN
*I *11329:A I *D sky130_fd_sc_hd__buf_12
*I *11588:X O *D sky130_fd_sc_hd__buf_12
*CAP
1 *11329:A 0.000556955
2 *11588:X 0.000664607
3 *582:26 0.00153883
4 *582:18 0.00303163
5 *582:10 0.00271436
6 *11329:A *583:26 0.00288818
7 *582:10 *597:10 0
8 *582:10 *626:24 0
9 *582:18 *583:14 6.26532e-05
10 *582:18 *583:22 0.000746157
11 *582:26 *583:22 0.00309495
12 *582:26 *583:26 0.000918475
13 *871:DIODE *11329:A 0.00107985
14 *11210:A *582:18 4.2801e-05
15 *11210:B *582:18 0.000306793
16 *11211:A *582:18 0.000490776
17 *11212:A *582:18 0.00410559
18 *11283:S *11329:A 0.00167521
19 *11324:D *582:10 0
20 *11494:A *582:10 0
21 *11552:A *582:10 0
22 *11588:A *582:10 0.000104343
23 *110:14 *582:10 0
24 *118:12 *582:18 4.75959e-05
25 *247:43 *11329:A 3.4059e-05
26 *559:10 *582:26 0
27 *575:44 *11329:A 3.24882e-05
28 *575:44 *582:26 0.00499256
*RES
1 *11588:X *582:10 15.905 
2 *582:10 *582:18 49.49 
3 *582:18 *582:26 48.62 
4 *582:26 *11329:A 28.615 
*END

*D_NET *583 0.0275653
*CONN
*I *11493:A I *D sky130_fd_sc_hd__buf_12
*I *11589:X O *D sky130_fd_sc_hd__buf_12
*CAP
1 *11493:A 0.000313302
2 *11589:X 0.0021473
3 *583:26 0.00236633
4 *583:22 0.00378095
5 *583:14 0.00387522
6 *583:14 *11638:A 0
7 *11212:A *583:14 0.00306512
8 *11283:S *583:26 0.000157771
9 *11329:A *583:26 0.00288818
10 *11332:A *583:26 0.000266545
11 *11482:A *583:14 9.16237e-05
12 *11491:A *583:14 6.44553e-05
13 *11553:A *583:14 5.06382e-06
14 *11589:A *583:14 3.78278e-05
15 *167:93 *583:26 0.000159325
16 *167:100 *583:26 0.000160302
17 *167:107 *583:26 0.000159321
18 *167:128 *583:26 0.000269551
19 *167:135 *583:26 0.000160302
20 *167:142 *583:26 0.000160302
21 *167:149 *583:26 0.000159321
22 *167:166 *583:26 8.38605e-05
23 *169:24 *583:26 0.000302791
24 *247:43 *583:26 0.000710968
25 *559:12 *11493:A 0.000201686
26 *559:12 *583:26 1.41218e-05
27 *575:42 *583:14 0.0007392
28 *575:42 *583:22 9.97536e-06
29 *575:44 *583:22 0.000392401
30 *582:18 *583:14 6.26532e-05
31 *582:18 *583:22 0.000746157
32 *582:26 *583:22 0.00309495
33 *582:26 *583:26 0.000918475
*RES
1 *11589:X *583:14 48.59 
2 *583:14 *583:22 38.445 
3 *583:22 *583:26 48.4162 
4 *583:26 *11493:A 6.88375 
*END

*D_NET *584 0.0264603
*CONN
*I *11471:A I *D sky130_fd_sc_hd__buf_12
*I *11590:X O *D sky130_fd_sc_hd__buf_12
*CAP
1 *11471:A 0.00113989
2 *11590:X 0.0014759
3 *584:56 0.00338511
4 *584:34 0.00372111
5 *11471:A *11449:A 0.00220328
6 *11471:A *608:12 3.64998e-06
7 *584:34 *601:12 0.000201508
8 *584:34 *601:22 0.000165401
9 *584:56 *608:12 3.82072e-05
10 *11213:A *584:34 0.000250893
11 *11214:A *584:34 1.46828e-05
12 *11284:B1 *584:56 0.000967948
13 *11289:A1 *584:56 4.66108e-05
14 *11289:A2 *584:56 0
15 *11301:B2 *11471:A 5.21046e-05
16 *11322:A2 *11471:A 0.0004869
17 *11334:A *11471:A 0.00218214
18 *11392:A *584:34 0
19 *11393:A *584:34 0.00019913
20 *11397:A *584:34 0.000122801
21 *11417:A *11471:A 0.000224487
22 *11417:A *584:56 0.00074067
23 *11438:A *584:34 0.000479208
24 *11489:A *584:34 0.000507048
25 *11503:A *584:34 0.000189288
26 *11510:A *584:34 0.000197822
27 *11590:A *584:34 2.89429e-05
28 *11591:A *584:34 0.000119866
29 *115:30 *11471:A 3.96653e-05
30 *117:69 *584:56 0.000112123
31 *118:43 *584:34 0.000426304
32 *118:81 *11471:A 0.00132556
33 *122:56 *584:34 0.000388511
34 *165:20 *584:56 0.000290633
35 *170:16 *584:56 1.7635e-05
36 *170:18 *11471:A 4.66108e-05
37 *170:48 *11471:A 0.000452547
38 *172:28 *584:56 0.00048812
39 *202:18 *11471:A 0
40 *217:32 *584:56 2.92496e-05
41 *338:30 *11471:A 7.68414e-06
42 *338:30 *584:56 7.69887e-05
43 *371:26 *584:34 0.000431118
44 *371:26 *584:56 0.000276441
45 *404:24 *11471:A 0.000988255
46 *580:24 *584:34 0.00191827
*RES
1 *11590:X *584:34 49.155 
2 *584:34 *584:56 32.4587 
3 *584:56 *11471:A 49.865 
*END

*D_NET *585 0.0242245
*CONN
*I *11449:A I *D sky130_fd_sc_hd__buf_12
*I *11591:X O *D sky130_fd_sc_hd__buf_12
*CAP
1 *11449:A 0.00215576
2 *11591:X 0.000305585
3 *585:20 0.00270978
4 *585:14 0.00238666
5 *585:12 0.00213823
6 *585:12 *601:24 2.96334e-05
7 *585:14 *608:14 0.0011895
8 *585:14 *622:14 0.000841345
9 *585:20 *11341:A 0.00111594
10 *585:20 *11614:A 0
11 wbs_dat_o[10] *585:12 0.000166738
12 *718:DIODE *585:20 0
13 *11247:A *11449:A 0.000153816
14 *11310:B2 *11449:A 0
15 *11322:A2 *11449:A 0.000894187
16 *11355:A *585:20 0.000366691
17 *11356:A *585:20 0
18 *11394:A *585:12 0.000273277
19 *11438:A *585:12 0.000351468
20 *11471:A *11449:A 0.00220328
21 *11488:A *585:12 0.000625492
22 *115:16 *11449:A 0.000123225
23 *115:30 *585:20 6.57201e-05
24 *167:121 *11449:A 0.000382758
25 *229:46 *11449:A 4.1461e-05
26 *404:24 *11449:A 0.000358525
27 *415:12 *585:14 0.00507161
28 *449:16 *585:14 0.000273835
*RES
1 *11591:X *585:12 15.17 
2 *585:12 *585:14 58.755 
3 *585:14 *585:20 17.875 
4 *585:20 *11449:A 46.67 
*END

*D_NET *586 0.0220294
*CONN
*I *11407:A I *D sky130_fd_sc_hd__buf_12
*I *11592:X O *D sky130_fd_sc_hd__buf_12
*CAP
1 *11407:A 0.00066862
2 *11592:X 0.0023959
3 *586:34 0.00227368
4 *586:22 0.00400096
5 *11407:A *11204:D 5.27992e-05
6 *11407:A *588:22 0.00246961
7 *586:22 *11629:A 0.000194837
8 *586:22 *627:14 1.60203e-05
9 *586:34 *11204:D 0
10 *586:34 *592:28 0.000233373
11 *586:34 *622:14 0.000928102
12 *586:34 *627:14 0.00149662
13 *586:34 *627:24 0.000614655
14 *586:34 *633:10 0
15 wbs_dat_o[1] *586:22 0.000427188
16 wbs_dat_o[5] *586:34 0
17 *11362:A *586:34 0.000116165
18 *11390:A *586:22 0
19 *11495:A *586:34 0.000671555
20 *11512:A *586:22 0
21 *201:48 *586:34 0
22 *201:167 *586:34 0.000706381
23 *234:19 *11407:A 0.00258388
24 *382:16 *586:22 0.00217908
25 *581:10 *586:34 0
*RES
1 *11592:X *586:22 45.965 
2 *586:22 *586:34 44.9525 
3 *586:34 *11407:A 33.9225 
*END

*D_NET *587 0.00468271
*CONN
*I *11416:A I *D sky130_fd_sc_hd__clkbuf_16
*I *11593:X O *D sky130_fd_sc_hd__clkbuf_16
*CAP
1 *11416:A 0.00114119
2 *11593:X 0.00114119
3 *11416:A *11606:A 0.000787939
4 *11416:A *588:18 8.4841e-05
5 *11416:A *595:16 0.000326866
6 *11416:A *627:14 0.000583711
7 *11263:B2 *11416:A 0.000100356
8 *11266:C1 *11416:A 0.000149487
9 *140:89 *11416:A 0.000169665
10 *148:57 *11416:A 0.000197467
*RES
1 *11593:X *11416:A 31.815 
*END

*D_NET *588 0.0235263
*CONN
*I *11410:A I *D sky130_fd_sc_hd__buf_12
*I *11594:X O *D sky130_fd_sc_hd__buf_12
*CAP
1 *11410:A 0
2 *11594:X 0.00254984
3 *588:22 0.00164158
4 *588:20 0.00164158
5 *588:18 0.00254984
6 *588:18 *11634:A 0
7 *588:18 *590:12 0.00033834
8 *588:18 *598:14 0.000307074
9 *588:18 *611:12 0.000706261
10 *588:18 *624:22 0
11 *588:22 *11204:D 2.15594e-05
12 *11266:B2 *588:18 0.000307674
13 *11269:A1 *588:18 0
14 *11407:A *588:22 0.00246961
15 *11416:A *588:18 8.4841e-05
16 *135:10 *588:18 5.10957e-05
17 *139:18 *588:18 8.53113e-06
18 *234:19 *588:22 5.21018e-05
19 *234:25 *588:18 5.93482e-05
20 *236:11 *588:22 0.0054015
21 *383:50 *588:22 0.00399058
22 *387:56 *588:22 0.000219242
23 *558:127 *588:22 0.000714759
24 *580:10 *588:18 0.00041097
*RES
1 *11594:X *588:18 49.925 
2 *588:18 *588:20 2 
3 *588:20 *588:22 75.84 
4 *588:22 *11410:A 3.6 
*END

*D_NET *589 0.0275239
*CONN
*I *11424:A I *D sky130_fd_sc_hd__dlygate4sd3_1
*I *11202:B I *D sky130_fd_sc_hd__and3_2
*I *11595:X O *D sky130_fd_sc_hd__clkbuf_2
*CAP
1 *11424:A 0
2 *11202:B 0
3 *11595:X 0.00108534
4 *589:26 0.00133785
5 *589:24 0.00133785
6 *589:22 0.000993554
7 *589:20 0.00177201
8 *589:14 0.00186379
9 *589:14 *11609:A 0.000195679
10 *589:20 *11609:A 0
11 *589:22 *602:14 0.000312033
12 *589:22 *611:12 0.00164702
13 *589:26 *602:12 0.00117668
14 *11201:A *589:22 8.23457e-05
15 *11397:A *589:20 8.30853e-06
16 *11433:A *589:14 4.99619e-05
17 *11479:A *589:14 0.000347689
18 *11483:A *589:14 0.000381273
19 *3:25 *589:26 0.000764471
20 *117:69 *589:14 0.000235335
21 *122:16 *589:22 0.00265781
22 *162:10 *589:26 0.00051069
23 *199:74 *589:22 4.82863e-05
24 *199:74 *589:26 0.00194161
25 *215:32 *589:22 0.00058512
26 *240:22 *589:26 0.00134967
27 *242:31 *589:26 0.00275841
28 *338:30 *589:14 9.183e-05
29 *448:14 *589:14 0.000791551
30 *559:10 *589:20 0.000198154
31 *563:36 *589:22 0.00299958
*RES
1 *11595:X *589:14 28.19 
2 *589:14 *589:20 16.09 
3 *589:20 *589:22 50.13 
4 *589:22 *589:24 2 
5 *589:24 *589:26 54.93 
6 *589:26 *11202:B 3.6 
7 *589:14 *11424:A 1.6 
*END

*D_NET *590 0.0281801
*CONN
*I *11413:A I *D sky130_fd_sc_hd__buf_12
*I *11596:X O *D sky130_fd_sc_hd__buf_12
*CAP
1 *11413:A 0.000278059
2 *11596:X 0.000482108
3 *590:14 0.00351308
4 *590:12 0.00371713
5 *11413:A *631:12 0
6 *590:12 *598:14 0.000886099
7 *590:12 *633:10 0
8 *743:DIODE *11413:A 0
9 *11335:A *590:12 0.000128507
10 *11515:DI[3] *11413:A 2.18119e-05
11 *11586:A *590:12 4.66108e-05
12 *147:38 *590:14 0.0016503
13 *154:10 *590:14 0.00821677
14 *197:18 *590:14 0
15 *209:21 *590:14 4.49415e-05
16 *210:11 *590:14 0.000115531
17 *353:10 *590:14 0.00758912
18 *354:10 *590:14 0.000245054
19 *376:48 *590:14 0.000571987
20 *558:10 *590:14 7.32138e-05
21 *558:35 *590:14 6.03995e-05
22 *558:47 *590:14 0.000201009
23 *588:18 *590:12 0.00033834
*RES
1 *11596:X *590:12 15.3675 
2 *590:12 *590:14 125.287 
3 *590:14 *11413:A 7.5 
*END

*D_NET *591 0.0241381
*CONN
*I *11204:D I *D sky130_fd_sc_hd__and4b_2
*I *11200:B I *D sky130_fd_sc_hd__nand2_2
*I *11597:X O *D sky130_fd_sc_hd__clkbuf_2
*CAP
1 *11204:D 0.00109523
2 *11200:B 0
3 *11597:X 5.59096e-05
4 *591:51 0.00191033
5 *591:28 0.00186944
6 *591:14 0.00350814
7 *591:10 0.00250972
8 *591:28 *11632:A 0.000429256
9 *591:28 *593:10 0.000177352
10 *591:28 *611:10 4.92096e-05
11 *591:28 *623:18 3.51884e-05
12 *591:51 *601:12 0.000805265
13 *591:51 *623:18 9.69603e-05
14 *591:51 *633:10 0.000602529
15 *11200:A *591:28 0.000196376
16 *11200:A *591:51 6.27288e-05
17 *11204:C *11204:D 0.000601946
18 *11204:C *591:51 0.000352721
19 *11324:CLK *591:28 9.50342e-06
20 *11324:D *591:28 0.000495118
21 *11342:A *591:28 1.94805e-05
22 *11377:A *591:51 0.000163204
23 *11381:A *591:28 0
24 *11407:A *11204:D 5.27992e-05
25 *11409:A *591:28 0
26 *11411:A *591:28 7.71016e-05
27 *11425:A *591:10 0
28 *11429:A *591:28 8.65961e-05
29 *11497:A *591:51 0.000275553
30 *11502:A *591:28 0.000197269
31 *11594:A *591:28 0.000108833
32 *11597:A *591:10 3.89528e-05
33 *110:14 *591:51 0.00163934
34 *112:8 *11204:D 2.31329e-05
35 *206:11 *11204:D 0.00236129
36 *236:11 *11204:D 0.00205425
37 *382:16 *591:14 0.00205425
38 *575:26 *591:28 0.000101593
39 *586:34 *11204:D 0
40 *588:22 *11204:D 2.15594e-05
*RES
1 *11597:X *591:10 6.725 
2 *591:10 *591:14 46.61 
3 *591:14 *591:28 26.055 
4 *591:28 *11200:B 1.6 
5 *591:28 *591:51 28.5425 
6 *591:51 *11204:D 39.1125 
*END

*D_NET *592 0.0322727
*CONN
*I *11217:A I *D sky130_fd_sc_hd__nor2_2
*I *11199:A I *D sky130_fd_sc_hd__inv_16
*I *11598:X O *D sky130_fd_sc_hd__buf_4
*CAP
1 *11217:A 0.000236498
2 *11199:A 0
3 *11598:X 0.00212131
4 *592:34 0.00144933
5 *592:32 0.00144933
6 *592:30 0.000454864
7 *592:28 0.00285109
8 *592:20 0.00475404
9 *592:20 *11606:A 0.00218808
10 *592:20 *11632:A 0.000611369
11 *592:20 *600:16 0.000271077
12 *592:28 *11632:A 0.000574377
13 *592:28 *599:12 0.000662427
14 *592:34 *596:12 0
15 wbs_dat_o[0] *592:20 4.98818e-05
16 wbs_dat_o[3] *592:28 0.000106078
17 *11337:A *592:20 0.000111552
18 *11338:A *592:20 8.53307e-05
19 *11362:A *592:28 0.000203691
20 *11378:A *592:28 4.66108e-05
21 *11382:A *592:28 4.77757e-05
22 *11406:A *592:28 7.22354e-05
23 *11415:A *592:20 0.000556958
24 *11418:A *592:20 0.000126174
25 *11435:A *592:20 1.43253e-05
26 *11437:A *592:20 4.66108e-05
27 *11498:A *592:28 4.99619e-05
28 *11501:A *592:28 0.000237249
29 *11512:A *592:20 0.000347969
30 *11586:A *592:28 0.000118081
31 *11601:A *592:28 4.75991e-05
32 *125:14 *592:34 0.00470757
33 *133:14 *592:34 0.00508343
34 *140:34 *11217:A 0.000716818
35 *140:36 *11217:A 0.000111656
36 *140:36 *592:30 0.000492526
37 *140:113 *592:34 7.96762e-05
38 *145:60 *592:28 0
39 *145:60 *592:34 0
40 *148:24 *11217:A 0.000455383
41 *201:167 *592:28 0.00050039
42 *581:10 *592:28 0
43 *586:34 *592:28 0.000233373
*RES
1 *11598:X *592:20 47.855 
2 *592:20 *592:28 49.825 
3 *592:28 *592:30 4.59 
4 *592:30 *592:32 2 
5 *592:32 *592:34 61.305 
6 *592:34 *11199:A 3.6 
7 *592:30 *11217:A 9.295 
*END

*D_NET *593 0.0112207
*CONN
*I *11606:A I *D sky130_fd_sc_hd__buf_12
*I *11324:Q O *D sky130_fd_sc_hd__dfrtp_1
*CAP
1 *11606:A 0.00385114
2 *11324:Q 0.000158719
3 *593:10 0.00400986
4 *11342:A *593:10 0
5 *11409:A *593:10 0
6 *11416:A *11606:A 0.000787939
7 *11581:A *593:10 0
8 *11593:A *11606:A 4.75991e-05
9 *591:28 *593:10 0.000177352
10 *592:20 *11606:A 0.00218808
*RES
1 *11324:Q *593:10 8.51 
2 *593:10 *11606:A 49.105 
*END

*D_NET *594 0.00182219
*CONN
*I *11607:A I *D sky130_fd_sc_hd__buf_12
*I *11219:X O *D sky130_fd_sc_hd__o221a_1
*CAP
1 *11607:A 0.000819515
2 *11219:X 0.000819515
3 *698:DIODE *11607:A 3.66754e-05
4 *11219:A2 *11607:A 5.83121e-06
5 *11219:B1 *11607:A 0.000140657
6 *11225:C1 *11607:A 0
7 *11408:A *11607:A 0
*RES
1 *11219:X *11607:A 20.265 
*END

*D_NET *595 0.0218746
*CONN
*I *11608:A I *D sky130_fd_sc_hd__buf_12
*I *11254:X O *D sky130_fd_sc_hd__o221a_2
*CAP
1 *11608:A 8.35118e-05
2 *11254:X 0.00172418
3 *595:18 0.00466107
4 *595:16 0.00630174
5 *595:16 *623:18 0.000918788
6 *595:16 *627:14 0.00128492
7 *595:16 *627:24 4.51825e-06
8 *595:18 *604:14 0.000554267
9 *595:18 *627:14 2.32597e-05
10 *595:18 *627:24 0.00477332
11 wbs_dat_o[10] *11608:A 3.18219e-05
12 *11249:A1 *595:16 0
13 *11249:B2 *595:16 0
14 *11254:B1 *595:16 0.000122801
15 *11254:C1 *595:16 0
16 *11266:C1 *595:16 0.000150776
17 *11381:A *595:16 0
18 *11394:A *595:18 0.000463819
19 *11397:A *11608:A 0
20 *11416:A *595:16 0.000326866
21 *11502:A *595:16 0.000171672
22 *119:26 *595:16 0
23 *148:57 *595:16 0.000231524
24 *382:16 *595:16 4.57056e-05
*RES
1 *11254:X *595:16 43.625 
2 *595:16 *595:18 63.585 
3 *595:18 *11608:A 6.98 
*END

*D_NET *596 0.021309
*CONN
*I *11609:A I *D sky130_fd_sc_hd__buf_12
*I *11257:X O *D sky130_fd_sc_hd__o221a_2
*CAP
1 *11609:A 0.00130265
2 *11257:X 0.00127753
3 *596:14 0.00374448
4 *596:12 0.00371936
5 *596:14 *603:12 5.91095e-05
6 *596:14 *611:12 0.000510382
7 *11257:A1 *596:12 0.000153816
8 *11257:A2 *596:12 3.96653e-05
9 *11257:B1 *596:12 0.000120789
10 *11278:B2 *596:14 0.00159457
11 *112:10 *596:12 0.000655326
12 *125:14 *596:12 0
13 *131:16 *596:14 8.41218e-05
14 *145:60 *596:12 9.68709e-05
15 *212:35 *596:12 9.29751e-06
16 *217:26 *596:14 0.00521917
17 *229:40 *596:12 0.00252619
18 *559:10 *11609:A 0
19 *589:14 *11609:A 0.000195679
20 *589:20 *11609:A 0
21 *592:34 *596:12 0
*RES
1 *11257:X *596:12 39.245 
2 *596:12 *596:14 62.205 
3 *596:14 *11609:A 25.34 
*END

*D_NET *597 0.0212297
*CONN
*I *11610:A I *D sky130_fd_sc_hd__buf_12
*I *11260:X O *D sky130_fd_sc_hd__o221a_2
*CAP
1 *11610:A 9.2162e-05
2 *11260:X 0.00249347
3 *597:14 0.00456974
4 *597:12 0.00447758
5 *597:10 0.00249347
6 *597:14 *11636:A 0.000283213
7 *597:14 *601:24 0.0033506
8 *597:14 *626:24 6.42417e-05
9 wbs_dat_o[12] *11610:A 0.00011099
10 wbs_dat_o[7] *597:14 6.7474e-05
11 wbs_dat_o[8] *597:14 0.000160053
12 *11204:B *597:10 0
13 *11260:A2 *597:10 0.000153816
14 *11260:B1 *597:10 0.000518878
15 *11331:A *597:10 4.40899e-05
16 *11383:A *597:10 0.00028442
17 *11385:A *597:10 0
18 *11431:A *11610:A 0
19 *11487:A *597:14 0.000139648
20 *11488:A *597:14 0.00011508
21 *11490:A *597:14 9.48835e-05
22 *11514:A *597:14 0.000307775
23 *11588:A *597:10 0
24 *110:18 *597:10 0
25 *140:34 *597:10 0
26 *143:20 *597:10 0.000345041
27 *145:45 *597:10 0.000732112
28 *164:12 *597:10 0.000330933
29 *214:22 *597:10 0
30 *563:38 *597:10 0
31 *578:12 *11610:A 0
32 *582:10 *597:10 0
*RES
1 *11260:X *597:10 48.57 
2 *597:10 *597:12 2 
3 *597:12 *597:14 59.445 
4 *597:14 *11610:A 7.235 
*END

*D_NET *598 0.0261844
*CONN
*I *11611:A I *D sky130_fd_sc_hd__buf_12
*I *11263:X O *D sky130_fd_sc_hd__o221a_2
*CAP
1 *11611:A 0.000491929
2 *11263:X 0.00070562
3 *598:14 0.00852641
4 *598:12 0.0087401
5 *598:12 *601:10 0
6 *598:12 *625:20 0.000194087
7 *598:14 *11638:A 0.000133253
8 wbs_dat_o[12] *11611:A 0.000124895
9 wbs_dat_o[12] *598:14 4.06895e-05
10 wbs_dat_o[13] *11611:A 4.77757e-05
11 *11269:B1 *598:12 6.74582e-06
12 *11324:D *598:12 4.27224e-05
13 *11414:A *598:12 0
14 *11419:A *598:14 8.31173e-05
15 *11423:A *11611:A 0.000502814
16 *11491:A *598:14 8.23457e-05
17 *11553:A *598:14 1.91597e-05
18 *11584:A *598:14 6.84859e-05
19 *11585:A *598:12 0.000124957
20 *140:76 *598:12 3.68537e-05
21 *145:68 *598:12 6.59891e-05
22 *201:48 *598:12 6.03468e-05
23 *232:35 *598:12 3.42046e-06
24 *360:10 *598:14 0.00393583
25 *360:14 *11611:A 0.000228324
26 *360:14 *598:14 0.000144983
27 *382:20 *598:12 0.000280503
28 *382:47 *598:12 0.000264407
29 *575:26 *598:12 3.54399e-05
30 *579:10 *598:12 0
31 *588:18 *598:14 0.000307074
32 *590:12 *598:14 0.000886099
*RES
1 *11263:X *598:12 18.185 
2 *598:12 *598:14 97.05 
3 *598:14 *11611:A 11.98 
*END

*D_NET *599 0.0250817
*CONN
*I *11612:A I *D sky130_fd_sc_hd__buf_12
*I *11266:X O *D sky130_fd_sc_hd__o221a_2
*CAP
1 *11612:A 0.000661661
2 *11266:X 0.000185859
3 *599:12 0.00506086
4 *599:10 0.00458506
5 *599:10 *611:10 0.00023444
6 *599:12 *11632:A 0.000106834
7 wbs_dat_o[13] *11612:A 0.000161101
8 wbs_dat_o[14] *11612:A 8.41307e-05
9 wbs_dat_o[3] *599:12 0.000232111
10 *11328:A *599:12 0.000301011
11 *11331:A *599:12 0.000123592
12 *11362:A *599:12 0.000155491
13 *11378:A *599:12 2.49909e-05
14 *11380:A *599:12 0.000234722
15 *11383:A *599:12 0.000157959
16 *11385:A *599:12 8.52845e-05
17 *11386:A *599:12 2.75145e-05
18 *11392:A *599:12 0.000509187
19 *11406:A *599:12 0.000122325
20 *11460:A *599:12 0.000156193
21 *11473:A *11612:A 0.0001249
22 *11476:A *11612:A 0
23 *11476:A *599:12 5.83121e-06
24 *11481:A *599:12 0.000156019
25 *11486:A *599:12 0.000123321
26 *11491:A *599:12 4.80285e-05
27 *11496:A *599:12 3.00381e-05
28 *11498:A *599:12 3.00381e-05
29 *11510:A *599:12 4.82919e-05
30 *11553:A *599:12 3.49355e-05
31 *11587:A *599:12 2.14324e-05
32 *11589:A *599:12 1.26985e-05
33 *349:12 *599:12 0.00719091
34 *360:14 *11612:A 0.000434806
35 *448:14 *599:12 0.00269045
36 *448:16 *599:12 2.47079e-05
37 *579:10 *599:10 0.000232572
38 *592:28 *599:12 0.000662427
*RES
1 *11266:X *599:10 10.805 
2 *599:10 *599:12 109.125 
3 *599:12 *11612:A 18.11 
*END

*D_NET *600 0.0330624
*CONN
*I *11349:A I *D sky130_fd_sc_hd__buf_12
*I *11599:X O *D sky130_fd_sc_hd__buf_12
*CAP
1 *11349:A 3.77548e-05
2 *11599:X 0.000816284
3 *600:26 0.00584514
4 *600:24 0.00621854
5 *600:18 0.00220985
6 *600:16 0.00261499
7 *600:16 *626:8 0.00104254
8 *600:16 *626:24 8.34281e-06
9 *600:18 *626:24 0.00278674
10 *11218:A *600:24 6.14776e-05
11 *11231:B2 *600:16 2.88369e-05
12 *11324:D *600:18 0.000888012
13 *11381:A *600:16 0.000305046
14 *11414:A *600:16 0.000269721
15 *11435:A *600:16 9.52799e-05
16 *11513:A *600:16 5.8166e-05
17 *11599:A *600:16 0.000131168
18 *119:26 *600:16 3.63661e-05
19 *122:16 *600:24 0.000179503
20 *123:14 *600:24 0.000181383
21 *140:24 *600:26 0.0014047
22 *167:86 *600:26 0.000261107
23 *201:20 *600:18 0.000541118
24 *201:48 *600:16 0.00181652
25 *201:48 *600:18 0.00139384
26 *338:22 *600:18 0.0016187
27 *575:26 *600:16 1.18308e-05
28 *575:30 *600:16 0.000494413
29 *575:30 *600:18 2.47149e-05
30 *578:12 *600:26 0.00140924
31 *592:20 *600:16 0.000271077
*RES
1 *11599:X *600:16 35.015 
2 *600:16 *600:18 51.855 
3 *600:18 *600:24 12.01 
4 *600:24 *600:26 70.14 
5 *600:26 *11349:A 2.215 
*END

*D_NET *601 0.0258596
*CONN
*I *11613:A I *D sky130_fd_sc_hd__buf_12
*I *11269:X O *D sky130_fd_sc_hd__o221a_2
*CAP
1 *11613:A 0.000378302
2 *11269:X 0.000403375
3 *601:24 0.0028031
4 *601:22 0.00295967
5 *601:12 0.00369807
6 *601:10 0.00356658
7 *11613:A *607:16 0.000162047
8 wbs_dat_o[10] *601:24 0.000197297
9 wbs_dat_o[15] *11613:A 5.83121e-06
10 wbs_dat_o[9] *601:22 7.63125e-05
11 *11200:A *601:12 1.08758e-05
12 *11214:A *601:12 0.000145648
13 *11214:A *601:22 0.000768151
14 *11339:A *601:12 0.000158175
15 *11340:A *11613:A 1.19928e-05
16 *11377:A *601:12 0.000163204
17 *11384:A *601:24 7.30937e-05
18 *11393:A *601:22 0.00019913
19 *11394:A *601:24 0.000138419
20 *11414:A *601:10 6.66119e-05
21 *11426:A *601:24 0.000380609
22 *11431:A *601:24 0.000154926
23 *11438:A *601:22 0.000104286
24 *11460:A *601:22 4.06683e-05
25 *11468:A *11613:A 0.0001249
26 *11474:A *11613:A 0.00016098
27 *11480:A *601:24 4.99619e-05
28 *11483:A *601:24 2.68526e-05
29 *11488:A *601:24 0.000602486
30 *11494:A *601:12 0.0001249
31 *11495:A *601:12 0.000311288
32 *11497:A *601:12 0.000275553
33 *11510:A *601:22 0.000197822
34 *11552:A *601:12 4.66108e-05
35 *11559:A *601:24 3.00381e-05
36 *11560:A *601:24 0.000115779
37 *11563:A *601:24 4.66826e-05
38 *11588:A *601:12 4.82863e-05
39 *11596:A *601:12 0.000191335
40 *110:14 *601:12 0.000455888
41 *360:22 *11613:A 0.000856387
42 *371:26 *601:22 1.12578e-05
43 *382:47 *601:10 3.60913e-05
44 *449:14 *601:24 9.77048e-06
45 *575:26 *601:10 0.000122097
46 *580:12 *601:12 0.000795847
47 *584:34 *601:12 0.000201508
48 *584:34 *601:22 0.000165401
49 *585:12 *601:24 2.96334e-05
50 *591:51 *601:12 0.000805265
51 *597:14 *601:24 0.0033506
52 *598:12 *601:10 0
*RES
1 *11269:X *601:10 11.825 
2 *601:10 *601:12 57.03 
3 *601:12 *601:22 17.59 
4 *601:22 *601:24 53.925 
5 *601:24 *11613:A 15.53 
*END

*D_NET *602 0.0305414
*CONN
*I *11614:A I *D sky130_fd_sc_hd__buf_12
*I *11272:X O *D sky130_fd_sc_hd__o221a_2
*CAP
1 *11614:A 0.000931477
2 *11272:X 0.00107595
3 *602:14 0.00360821
4 *602:12 0.00375269
5 *602:14 *611:12 0
6 wbs_dat_o[16] *11614:A 4.82919e-05
7 *701:DIODE *602:12 2.76356e-05
8 *718:DIODE *11614:A 0.000217382
9 *11204:B *602:12 8.23457e-05
10 *11298:B2 *11614:A 0
11 *11356:A *11614:A 0.000149151
12 *11462:A *11614:A 1.47256e-05
13 *3:25 *602:12 0.000366806
14 *117:104 *11614:A 0.000188393
15 *145:41 *602:14 0.000125484
16 *162:10 *602:12 0.000838857
17 *167:121 *11614:A 1.88218e-05
18 *170:63 *11614:A 7.96104e-06
19 *175:14 *602:14 0.00159398
20 *199:12 *602:12 7.23533e-05
21 *199:74 *602:12 8.09021e-06
22 *215:32 *602:14 0.0036988
23 *220:30 *11614:A 0.000850319
24 *223:28 *602:14 0.010598
25 *228:26 *602:14 0.000309677
26 *360:22 *11614:A 0.00019506
27 *385:16 *11614:A 0
28 *485:16 *11614:A 0
29 *563:36 *602:14 0.000272213
30 *585:20 *11614:A 0
31 *589:22 *602:14 0.000312033
32 *589:26 *602:12 0.00117668
*RES
1 *11272:X *602:12 32 
2 *602:12 *602:14 103.605 
3 *602:14 *11614:A 24.365 
*END

*D_NET *603 0.0324983
*CONN
*I *11615:A I *D sky130_fd_sc_hd__buf_12
*I *11275:X O *D sky130_fd_sc_hd__o221a_2
*CAP
1 *11615:A 0.00128382
2 *11275:X 0.000267661
3 *603:12 0.00339077
4 *603:10 0.0023746
5 *11615:A *610:24 0.000170624
6 *11615:A *612:20 0.000102352
7 *11204:B *603:10 0.000548548
8 *11566:A *11615:A 3.04882e-05
9 *3:25 *603:10 0.000156928
10 *143:12 *603:12 8.23329e-05
11 *173:97 *11615:A 0
12 *199:74 *603:10 0.000984831
13 *217:26 *603:12 4.82429e-05
14 *220:26 *603:12 0.0105067
15 *221:32 *11615:A 0
16 *222:40 *11615:A 0
17 *226:30 *603:12 0.0119748
18 *229:42 *603:12 0.000110219
19 *380:18 *11615:A 9.58678e-06
20 *478:18 *11615:A 3.09166e-05
21 *483:18 *11615:A 0.000365806
22 *596:14 *603:12 5.91095e-05
*RES
1 *11275:X *603:10 16.925 
2 *603:10 *603:12 113.955 
3 *603:12 *11615:A 27.17 
*END

*D_NET *604 0.0280611
*CONN
*I *11616:A I *D sky130_fd_sc_hd__buf_12
*I *11278:X O *D sky130_fd_sc_hd__o221a_2
*CAP
1 *11616:A 0.000200174
2 *11278:X 0.00124147
3 *604:14 0.00262313
4 *604:12 0.00366443
5 *11616:A *610:24 0.000139815
6 *604:12 *11638:A 0
7 *604:14 *607:18 0.00502482
8 *604:14 *613:14 0.00130343
9 *604:14 *622:14 0.00921738
10 *604:14 *627:24 0.000338258
11 wbs_dat_o[18] *11616:A 0.000119762
12 wbs_dat_o[19] *11616:A 0
13 *11278:A1 *604:12 1.56428e-05
14 *11278:A2 *604:12 1.61388e-05
15 *11278:B1 *604:12 3.68344e-06
16 *11278:B2 *604:12 7.41352e-06
17 *11346:A *11616:A 0.000136594
18 *11386:A *604:12 0
19 *11387:A *604:12 0.000341499
20 *11394:A *604:14 0.000195661
21 *11486:A *604:12 6.93254e-05
22 *11514:A *604:12 0.000276111
23 *148:16 *604:12 0.000209243
24 *415:12 *604:14 0.00132936
25 *426:12 *604:14 0.00103351
26 *595:18 *604:14 0.000554267
*RES
1 *11278:X *604:12 25.985 
2 *604:12 *604:14 115.68 
3 *604:14 *11616:A 9.485 
*END

*D_NET *605 0.0250454
*CONN
*I *11617:A I *D sky130_fd_sc_hd__buf_12
*I *11284:X O *D sky130_fd_sc_hd__o221a_2
*CAP
1 *11617:A 0.00313822
2 *11284:X 0
3 *605:6 0.0083903
4 *605:4 0.00525208
5 *11617:A *11621:A 4.75959e-05
6 *11617:A *620:10 0
7 wbs_dat_o[19] *11617:A 3.00381e-05
8 *11284:B1 *605:6 0.0015449
9 *11284:B2 *605:6 1.33285e-05
10 *11304:B2 *11617:A 3.67779e-05
11 *11307:A1 *11617:A 0
12 *11310:A1 *11617:A 0
13 *11310:B2 *11617:A 0
14 *11313:C1 *11617:A 9.82856e-06
15 *11322:A2 *11617:A 0
16 *11322:B1 *11617:A 5.05716e-06
17 *11322:B2 *11617:A 0
18 *11322:C1 *11617:A 2.48249e-05
19 *118:81 *11617:A 1.7635e-05
20 *170:89 *11617:A 0
21 *170:102 *11617:A 0
22 *170:106 *11617:A 0
23 *172:28 *605:6 0.000100056
24 *367:18 *11617:A 4.34795e-05
25 *371:42 *605:6 0.00337846
26 *404:22 *605:6 9.80943e-06
27 *404:24 *605:6 0.00300301
28 *504:12 *11617:A 0
*RES
1 *11284:X *605:4 1.6 
2 *605:4 *605:6 73.245 
3 *605:6 *11617:A 18.0725 
*END

*D_NET *606 0.00148439
*CONN
*I *11618:A I *D sky130_fd_sc_hd__buf_12
*I *11222:X O *D sky130_fd_sc_hd__o221a_1
*CAP
1 *11618:A 0.000512973
2 *11222:X 0.000512973
3 *11618:A *11629:A 0.00029067
4 *11338:A *11618:A 0
5 *11418:A *11618:A 0
6 *11569:A *11618:A 0
7 *515:14 *11618:A 0.000167776
*RES
1 *11222:X *11618:A 16.995 
*END

*D_NET *607 0.0192013
*CONN
*I *11619:A I *D sky130_fd_sc_hd__buf_12
*I *11289:X O *D sky130_fd_sc_hd__o221a_2
*CAP
1 *11619:A 0.000155648
2 *11289:X 0.000872219
3 *607:18 0.00114786
4 *607:16 0.00186443
5 *607:16 *608:12 0
6 *607:18 *613:14 0.000788738
7 *11284:B1 *607:16 8.85061e-05
8 *11289:A1 *607:16 8.8266e-05
9 *11289:A2 *607:16 0.000833228
10 *11292:C1 *607:16 0.000685034
11 *11353:A *11619:A 0
12 *11474:A *607:16 0.000115655
13 *11613:A *607:16 0.000162047
14 *122:89 *607:16 0
15 *165:22 *607:16 3.74533e-05
16 *426:12 *607:18 0.000558191
17 *449:14 *607:16 4.16652e-05
18 *460:14 *607:18 0.00594974
19 *482:24 *607:18 0.000203266
20 *526:12 *607:18 0.00058455
21 *604:14 *607:18 0.00502482
*RES
1 *11289:X *607:16 25.28 
2 *607:16 *607:18 62.895 
3 *607:18 *11619:A 7.745 
*END

*D_NET *608 0.0187867
*CONN
*I *11620:A I *D sky130_fd_sc_hd__buf_12
*I *11292:X O *D sky130_fd_sc_hd__o221a_2
*CAP
1 *11620:A 0.00033208
2 *11292:X 0.000786284
3 *608:14 0.00132044
4 *608:12 0.00177465
5 wbs_dat_o[21] *11620:A 0.000197264
6 *11292:A1 *608:12 4.96965e-05
7 *11434:A *11620:A 0
8 *11468:A *608:12 0.00020589
9 *11471:A *608:12 3.64998e-06
10 *117:104 *608:12 6.72296e-05
11 *122:89 *608:12 0
12 *170:16 *608:12 2.76204e-05
13 *170:18 *608:12 8.73389e-06
14 *338:30 *608:12 4.82919e-05
15 *415:12 *608:14 0.00151745
16 *449:16 *608:14 0.00747654
17 *493:12 *608:14 0.00374321
18 *584:56 *608:12 3.82072e-05
19 *585:14 *608:14 0.0011895
20 *607:16 *608:12 0
*RES
1 *11292:X *608:12 18.14 
2 *608:12 *608:14 67.725 
3 *608:14 *11620:A 10.85 
*END

*D_NET *609 0.0161946
*CONN
*I *11621:A I *D sky130_fd_sc_hd__buf_12
*I *11295:X O *D sky130_fd_sc_hd__o221a_2
*CAP
1 *11621:A 0.00193714
2 *11295:X 0.00234852
3 *609:16 0.00428567
4 *11621:A *617:14 0.00280886
5 *11621:A *617:16 0.00054584
6 wbs_dat_o[19] *11621:A 0.000136433
7 wbs_dat_o[22] *11621:A 0.000268734
8 *716:DIODE *609:16 1.42807e-05
9 *11350:A *11621:A 7.35813e-05
10 *11353:A *11621:A 0.000115522
11 *11361:A *609:16 8.96065e-05
12 *11363:A *11621:A 0.000455757
13 *11363:A *609:16 8.56021e-05
14 *11444:A *11621:A 0.000164352
15 *11469:A *609:16 1.98377e-05
16 *11564:A *609:16 6.72143e-05
17 *11617:A *11621:A 4.75959e-05
18 *170:63 *609:16 4.77719e-05
19 *173:63 *609:16 4.77719e-05
20 *360:22 *609:16 0.00258392
21 *504:12 *11621:A 5.05437e-05
*RES
1 *11295:X *609:16 37.97 
2 *609:16 *11621:A 46.33 
*END

*D_NET *610 0.017431
*CONN
*I *11622:A I *D sky130_fd_sc_hd__buf_12
*I *11298:X O *D sky130_fd_sc_hd__o221a_2
*CAP
1 *11622:A 0.00298771
2 *11298:X 0.0026344
3 *610:24 0.00562211
4 *610:24 *612:20 0.000124895
5 wbs_dat_o[17] *610:24 0.000224344
6 wbs_dat_o[18] *610:24 0.000601074
7 wbs_dat_o[20] *11622:A 0.000255384
8 wbs_dat_o[21] *11622:A 0.000717694
9 wbs_dat_o[23] *11622:A 9.66106e-05
10 *11346:A *11622:A 6.8155e-05
11 *11346:A *610:24 0.00110229
12 *11347:A *610:24 5.27885e-05
13 *11357:A *610:24 0
14 *11358:A *610:24 0.000183864
15 *11359:A *11622:A 0.00013856
16 *11364:A *11622:A 0.000555598
17 *11442:A *610:24 0.000201079
18 *11446:A *11622:A 0.000222361
19 *11448:A *11622:A 1.98869e-05
20 *11466:A *610:24 0.000138705
21 *11566:A *610:24 0
22 *11615:A *610:24 0.000170624
23 *11616:A *610:24 0.000139815
24 *165:130 *610:24 0.000179219
25 *170:76 *610:24 0.000131876
26 *173:76 *610:24 0.000541861
27 *173:97 *610:24 0.000191521
28 *482:24 *610:24 0.000128556
*RES
1 *11298:X *610:24 49.37 
2 *610:24 *11622:A 40.315 
*END

*D_NET *611 0.0261089
*CONN
*I *11343:A I *D sky130_fd_sc_hd__buf_12
*I *11600:X O *D sky130_fd_sc_hd__buf_12
*CAP
1 *11343:A 0.00021455
2 *11600:X 0.00109172
3 *611:12 0.00608497
4 *611:10 0.00696214
5 *611:10 *625:20 4.83935e-05
6 wbs_dat_o[3] *611:10 0
7 *11201:A *611:12 0.00026617
8 *11243:B2 *611:12 0.00163228
9 *11249:A1 *611:12 0.00232935
10 *11263:A1 *611:10 0.000366333
11 *11263:B2 *611:10 0
12 *11266:A2 *611:10 5.06699e-05
13 *11266:B2 *611:10 0.000242826
14 *11278:B2 *611:12 0.000518573
15 *11324:CLK *611:10 0
16 *11501:A *611:10 0
17 *122:16 *611:12 0.00265781
18 *143:10 *11343:A 0.000208187
19 *175:14 *611:12 0.000172807
20 *199:6 *611:12 1.19928e-05
21 *217:26 *611:12 0
22 *218:26 *611:12 0
23 *219:26 *611:12 0
24 *220:26 *611:12 0
25 *234:25 *611:12 0
26 *391:20 *11343:A 0.000102863
27 *491:22 *11343:A 0
28 *579:10 *611:10 0
29 *588:18 *611:12 0.000706261
30 *589:22 *611:12 0.00164702
31 *591:28 *611:10 4.92096e-05
32 *596:14 *611:12 0.000510382
33 *599:10 *611:10 0.00023444
34 *602:14 *611:12 0
*RES
1 *11600:X *611:10 26.36 
2 *611:10 *611:12 137.07 
3 *611:12 *11343:A 10.04 
*END

*D_NET *612 0.0199804
*CONN
*I *11623:A I *D sky130_fd_sc_hd__buf_12
*I *11301:X O *D sky130_fd_sc_hd__o221a_2
*CAP
1 *11623:A 0.00047676
2 *11301:X 0.000939907
3 *612:28 0.00333601
4 *612:20 0.00379916
5 *11623:A *617:16 0.00102256
6 *612:28 *614:16 0.000184878
7 *612:28 *614:18 0.0030334
8 wbs_dat_o[24] *11623:A 0.0001249
9 *734:DIODE *612:28 0.000159741
10 *11304:A1 *612:20 0
11 *11304:B2 *612:20 0.00215927
12 *11322:B2 *612:20 0.000156758
13 *11351:A *612:28 0
14 *11360:A *11623:A 2.68464e-05
15 *11366:A *11623:A 0.000161897
16 *11451:A *612:28 0
17 *11574:A *11623:A 4.99619e-05
18 *11615:A *612:20 0.000102352
19 *115:37 *612:20 0.00283057
20 *118:81 *612:20 0.00042314
21 *165:130 *612:20 6.1357e-05
22 *181:18 *612:20 8.30853e-06
23 *222:40 *612:20 0
24 *226:51 *612:28 0.000273972
25 *229:46 *612:20 4.04619e-05
26 *560:10 *612:28 0.00048327
27 *610:24 *612:20 0.000124895
*RES
1 *11301:X *612:20 41.625 
2 *612:20 *612:28 45.595 
3 *612:28 *11623:A 14.245 
*END

*D_NET *613 0.018958
*CONN
*I *11624:A I *D sky130_fd_sc_hd__buf_12
*I *11304:X O *D sky130_fd_sc_hd__o221a_2
*CAP
1 *11624:A 0.000356617
2 *11304:X 0.000579361
3 *613:14 0.00155725
4 *613:12 0.00178
5 *11304:A1 *613:12 8.53113e-06
6 *11361:A *613:12 0.000331111
7 *11367:A *11624:A 8.7152e-06
8 *11368:A *11624:A 0
9 *11466:A *613:12 0
10 *165:134 *613:12 4.82919e-05
11 *415:12 *613:14 0.00370235
12 *493:12 *613:14 0.00277343
13 *526:12 *613:14 0.00572022
14 *604:14 *613:14 0.00130343
15 *607:18 *613:14 0.000788738
*RES
1 *11304:X *613:12 14.315 
2 *613:12 *613:14 75.66 
3 *613:14 *11624:A 10.085 
*END

*D_NET *614 0.0187423
*CONN
*I *11625:A I *D sky130_fd_sc_hd__buf_12
*I *11307:X O *D sky130_fd_sc_hd__o221a_2
*CAP
1 *11625:A 0.000414023
2 *11307:X 0.000543903
3 *614:18 0.00268821
4 *614:16 0.00281809
5 *734:DIODE *614:16 0.000148084
6 *1232:DIODE *614:18 0.000163199
7 *11301:B2 *614:16 1.46744e-05
8 *11307:A1 *614:16 6.54107e-05
9 *11330:A *614:16 0.000173615
10 *11371:A *11625:A 7.75148e-05
11 *115:37 *614:16 0.00219332
12 *115:37 *614:18 0.00134257
13 *173:125 *614:16 4.66108e-05
14 *178:97 *614:18 0.0001249
15 *224:48 *614:16 0
16 *226:51 *614:16 0.000867485
17 *371:46 *614:16 0.000828977
18 *537:12 *614:18 0.000160819
19 *560:12 *614:18 0.00103953
20 *569:12 *614:18 0.00181313
21 *612:28 *614:16 0.000184878
22 *612:28 *614:18 0.0030334
*RES
1 *11307:X *614:16 28.8425 
2 *614:16 *614:18 59.9625 
3 *614:18 *11625:A 12.08 
*END

*D_NET *615 0.016587
*CONN
*I *11626:A I *D sky130_fd_sc_hd__buf_12
*I *11310:X O *D sky130_fd_sc_hd__o221a_2
*CAP
1 *11626:A 0.000333156
2 *11310:X 0.000675013
3 *615:16 0.00208102
4 *615:12 0.00242288
5 *11626:A *11627:A 0.000423993
6 *11626:A *617:16 0.000865421
7 *615:12 *616:8 0.00132632
8 *615:12 *616:12 0.000204421
9 *615:16 *616:12 0.00449201
10 wbs_dat_o[27] *11626:A 4.77757e-05
11 *11304:B2 *615:12 1.12578e-05
12 *11313:A1 *615:12 0.000326837
13 *11313:A2 *615:12 0.000111796
14 *11313:B1 *615:12 0.000840288
15 *11313:C1 *615:12 0.000122699
16 *11322:A1 *615:12 2.64334e-05
17 *11322:B1 *615:12 6.93523e-06
18 *11375:A *11626:A 0.0001249
19 *183:14 *615:12 0.00105156
20 *183:14 *615:16 0.000787365
21 *571:10 *11626:A 0.000304895
*RES
1 *11310:X *615:12 27.8875 
2 *615:12 *615:16 48.8525 
3 *615:16 *11626:A 15.315 
*END

*D_NET *616 0.0190039
*CONN
*I *11627:A I *D sky130_fd_sc_hd__buf_12
*I *11313:X O *D sky130_fd_sc_hd__o221a_2
*CAP
1 *11627:A 0.00150745
2 *11313:X 0.00065726
3 *616:12 0.00463902
4 *616:8 0.00378883
5 *11627:A *617:16 0.00105372
6 wbs_dat_o[26] *11627:A 0.000233568
7 wbs_dat_o[27] *11627:A 0.000234181
8 wbs_dat_o[28] *11627:A 4.82919e-05
9 *11375:A *11627:A 0.0001249
10 *11459:A *11627:A 0.000269916
11 *11626:A *11627:A 0.000423993
12 *615:12 *616:8 0.00132632
13 *615:12 *616:12 0.000204421
14 *615:16 *616:12 0.00449201
*RES
1 *11313:X *616:8 14.14 
2 *616:8 *616:12 46.265 
3 *616:12 *11627:A 32.505 
*END

*D_NET *617 0.0216541
*CONN
*I *11628:A I *D sky130_fd_sc_hd__buf_12
*I *11316:X O *D sky130_fd_sc_hd__o221a_2
*CAP
1 *11628:A 0.000222207
2 *11316:X 0.00233705
3 *617:16 0.00437165
4 *617:14 0.00648649
5 wbs_dat_o[22] *617:16 0.00010607
6 wbs_dat_o[24] *617:16 0.000115146
7 wbs_dat_o[26] *617:16 0.000134029
8 wbs_dat_o[27] *617:16 0.000108156
9 wbs_dat_o[28] *617:16 0.000108561
10 wbs_dat_o[29] *11628:A 4.82919e-05
11 *11313:B1 *617:14 2.45812e-05
12 *11316:A2 *617:14 6.16226e-06
13 *11347:A *617:14 5.92178e-05
14 *11360:A *617:16 0.000190907
15 *11368:A *617:16 0.00033733
16 *11399:A *617:16 5.05521e-05
17 *11455:A *617:16 0.000520696
18 *11477:A *11628:A 1.19928e-05
19 *11574:A *617:16 4.85763e-05
20 *11621:A *617:14 0.00280886
21 *11621:A *617:16 0.00054584
22 *11623:A *617:16 0.00102256
23 *11626:A *617:16 0.000865421
24 *11627:A *617:16 0.00105372
25 *504:12 *617:14 0
26 *570:12 *617:16 7.00322e-05
*RES
1 *11316:X *617:14 37.7825 
2 *617:14 *617:16 72.555 
3 *617:16 *11628:A 4.9975 
*END

*D_NET *618 0.00551764
*CONN
*I *11629:A I *D sky130_fd_sc_hd__buf_12
*I *11225:X O *D sky130_fd_sc_hd__o221a_1
*CAP
1 *11629:A 0.00126776
2 *11225:X 0.00126776
3 *11231:C1 *11629:A 2.97004e-06
4 *11324:RESET_B *11629:A 0.000493426
5 *11390:A *11629:A 0.0007216
6 *11409:A *11629:A 4.89295e-05
7 *11411:A *11629:A 0.000275003
8 *11618:A *11629:A 0.00029067
9 *119:44 *11629:A 0.000187197
10 *119:48 *11629:A 0.000454705
11 *515:14 *11629:A 0.000312778
12 *586:22 *11629:A 0.000194837
*RES
1 *11225:X *11629:A 38.71 
*END

*D_NET *619 0.025489
*CONN
*I *11630:A I *D sky130_fd_sc_hd__buf_12
*I *11319:X O *D sky130_fd_sc_hd__o221a_2
*CAP
1 *11630:A 0.000151623
2 *11319:X 0
3 *619:6 0.00665632
4 *619:4 0.0065047
5 *619:6 *620:12 0.0118146
6 *11313:B1 *619:6 0.000162311
7 *11402:A *11630:A 0
8 *11470:A *619:6 0.000153171
9 *11568:A *619:6 1.1392e-05
10 *11582:A *11630:A 3.49086e-05
11 *493:16 *11630:A 0
*RES
1 *11319:X *619:4 1.6 
2 *619:4 *619:6 121.2 
3 *619:6 *11630:A 8 
*END

*D_NET *620 0.0235377
*CONN
*I *11631:A I *D sky130_fd_sc_hd__buf_12
*I *11322:X O *D sky130_fd_sc_hd__o221a_2
*CAP
1 *11631:A 0.000109687
2 *11322:X 9.23095e-05
3 *620:12 0.00474022
4 *620:10 0.00472284
5 *11313:B1 *620:10 8.30853e-06
6 *11352:A *620:12 0.000161529
7 *11365:A *620:12 0.000112383
8 *11367:A *620:12 0.000284962
9 *11369:A *620:12 8.23457e-05
10 *11376:A *620:12 0.00016031
11 *11389:A *620:12 4.99619e-05
12 *11451:A *620:12 0.000499552
13 *11453:A *620:12 8.52845e-05
14 *11464:A *620:12 0.000243858
15 *11508:A *11631:A 0.00011238
16 *11508:A *620:12 4.66108e-05
17 *11570:A *620:12 1.71773e-05
18 *11571:A *620:12 1.71773e-05
19 *11576:A *620:12 3.1522e-05
20 *11577:A *620:12 4.58565e-05
21 *11578:A *620:12 3.15169e-05
22 *11580:A *620:12 1.71773e-05
23 *11582:A *620:12 1.71773e-05
24 *11617:A *620:10 0
25 *577:10 *11631:A 3.29217e-05
26 *619:6 *620:12 0.0118146
*RES
1 *11322:X *620:10 6.98 
2 *620:10 *620:12 116.37 
3 *620:12 *11631:A 7.745 
*END

*D_NET *621 0.0059714
*CONN
*I *11632:A I *D sky130_fd_sc_hd__buf_12
*I *11228:X O *D sky130_fd_sc_hd__o221a_1
*CAP
1 *11632:A 0.00151779
2 *11228:X 0.00151779
3 *11632:A *626:8 4.11493e-05
4 wbs_dat_o[3] *11632:A 4.66108e-05
5 *745:DIODE *11632:A 0
6 *11240:B1 *11632:A 1.3166e-05
7 *11240:B2 *11632:A 5.13899e-05
8 *11240:C1 *11632:A 1.83756e-05
9 *11382:A *11632:A 4.77757e-05
10 *11391:A *11632:A 5.64507e-05
11 *11429:A *11632:A 8.65961e-05
12 *11435:A *11632:A 0.000326985
13 *11501:A *11632:A 0.000237249
14 *11512:A *11632:A 8.30853e-06
15 *201:48 *11632:A 0.000268138
16 *201:69 *11632:A 5.70594e-06
17 *201:71 *11632:A 6.07575e-06
18 *231:21 *11632:A 0
19 *591:28 *11632:A 0.000429256
20 *592:20 *11632:A 0.000611369
21 *592:28 *11632:A 0.000574377
22 *599:12 *11632:A 0.000106834
*RES
1 *11228:X *11632:A 36.93 
*END

*D_NET *622 0.030727
*CONN
*I *11341:A I *D sky130_fd_sc_hd__buf_12
*I *11601:X O *D sky130_fd_sc_hd__buf_12
*CAP
1 *11341:A 0.00130976
2 *11601:X 0.00038115
3 *622:14 0.00472125
4 *622:12 0.00379264
5 *622:14 *627:24 0.00109385
6 *11339:A *622:12 0.00026538
7 *11378:A *622:12 0.000228752
8 *11497:A *622:12 0.00016439
9 *118:81 *11341:A 3.90349e-05
10 *143:10 *11341:A 0
11 *165:12 *11341:A 0
12 *169:24 *11341:A 8.63095e-05
13 *172:28 *11341:A 0.000951338
14 *177:6 *11341:A 0.00047388
15 *391:20 *11341:A 8.32056e-05
16 *415:12 *622:14 0.00503331
17 *585:14 *622:14 0.000841345
18 *585:20 *11341:A 0.00111594
19 *586:34 *622:14 0.000928102
20 *604:14 *622:14 0.00921738
*RES
1 *11601:X *622:12 12.935 
2 *622:12 *622:14 123.96 
3 *622:14 *11341:A 35.48 
*END

*D_NET *623 0.00960784
*CONN
*I *11633:A I *D sky130_fd_sc_hd__buf_12
*I *11231:X O *D sky130_fd_sc_hd__o221a_1
*CAP
1 *11633:A 0
2 *11231:X 0.00315275
3 *623:18 0.00315275
4 *623:18 *11634:A 0
5 wbs_dat_o[4] *623:18 0.000113797
6 *11324:D *623:18 0.000643305
7 *11324:RESET_B *623:18 0.00102018
8 *11412:A *623:18 1.94805e-05
9 *11414:A *623:18 0
10 *11497:A *623:18 0
11 *11502:A *623:18 8.17064e-05
12 *11596:A *623:18 0.000147152
13 *110:14 *623:18 0.00019558
14 *575:26 *623:18 3.01933e-05
15 *591:28 *623:18 3.51884e-05
16 *591:51 *623:18 9.69603e-05
17 *595:16 *623:18 0.000918788
*RES
1 *11231:X *623:18 48.85 
2 *623:18 *11633:A 3.6 
*END

*D_NET *624 0.0110814
*CONN
*I *11634:A I *D sky130_fd_sc_hd__buf_12
*I *11234:X O *D sky130_fd_sc_hd__o221a_1
*CAP
1 *11634:A 0.00126194
2 *11234:X 0.00248785
3 *624:22 0.0037498
4 *624:22 *625:20 0
5 wbs_dat_o[4] *11634:A 0
6 *11269:A1 *624:22 0.00013661
7 *11372:A *11634:A 0.000637548
8 *11379:A *11634:A 0.000172705
9 *11406:A *11634:A 5.11729e-05
10 *11406:A *624:22 8.66976e-06
11 *11497:A *11634:A 0.00015428
12 *11497:A *624:22 0
13 *515:14 *624:22 0.00132919
14 *515:16 *624:22 0.000221428
15 *579:12 *624:22 0.000870244
16 *588:18 *11634:A 0
17 *588:18 *624:22 0
18 *623:18 *11634:A 0
*RES
1 *11234:X *624:22 46.5325 
2 *624:22 *11634:A 21.6975 
*END

*D_NET *625 0.0134877
*CONN
*I *11635:A I *D sky130_fd_sc_hd__buf_12
*I *11237:X O *D sky130_fd_sc_hd__o221a_2
*CAP
1 *11635:A 0.00280833
2 *11237:X 0.00163904
3 *625:20 0.00444737
4 *11635:A *626:24 8.65961e-05
5 *625:20 *628:8 0.000217203
6 *625:20 *628:12 2.6189e-05
7 *11234:A1 *625:20 0.000234785
8 *11234:A2 *625:20 4.66108e-05
9 *11234:B1 *625:20 6.33103e-05
10 *11237:A1 *625:20 0.000194538
11 *11237:B1 *625:20 9.1631e-06
12 *11263:A1 *625:20 0.000194546
13 *11266:A1 *625:20 0.0010597
14 *11269:A1 *11635:A 0.000176264
15 *11380:A *11635:A 0.000112284
16 *11504:A *11635:A 8.81882e-05
17 *110:14 *11635:A 0
18 *140:76 *625:20 8.66613e-05
19 *140:89 *625:20 1.12643e-05
20 *145:60 *11635:A 0.000481115
21 *232:35 *625:20 0.000316614
22 *382:47 *625:20 0.000798377
23 *579:10 *625:20 0.000147088
24 *598:12 *625:20 0.000194087
25 *611:10 *625:20 4.83935e-05
26 *624:22 *625:20 0
*RES
1 *11237:X *625:20 43.695 
2 *625:20 *11635:A 42.065 
*END

*D_NET *626 0.0165028
*CONN
*I *11636:A I *D sky130_fd_sc_hd__buf_12
*I *11240:X O *D sky130_fd_sc_hd__o221a_2
*CAP
1 *11636:A 0.000206681
2 *11240:X 0.00143837
3 *626:24 0.00308622
4 *626:8 0.0043179
5 wbs_dat_o[6] *626:24 0.000163204
6 wbs_dat_o[7] *11636:A 0.000325811
7 *11342:A *626:8 0.000235941
8 *11381:A *626:8 0.000305046
9 *11391:A *626:8 4.77757e-05
10 *11414:A *626:8 0.000269721
11 *11482:A *11636:A 0.000179569
12 *11482:A *626:24 4.82919e-05
13 *11490:A *626:24 0.000236126
14 *11492:A *626:24 0.00013194
15 *11494:A *626:24 0.000532206
16 *11513:A *626:8 8.40269e-05
17 *11632:A *626:8 4.11493e-05
18 *11635:A *626:24 8.65961e-05
19 *110:14 *626:24 9.14049e-05
20 *201:48 *626:8 0.00015413
21 *201:69 *626:8 4.66108e-05
22 *338:10 *626:24 0.000289004
23 *582:10 *626:24 0
24 *597:14 *11636:A 0.000283213
25 *597:14 *626:24 6.42417e-05
26 *600:16 *626:8 0.00104254
27 *600:16 *626:24 8.34281e-06
28 *600:18 *626:24 0.00278674
*RES
1 *11240:X *626:8 28.63 
2 *626:8 *626:24 49.18 
3 *626:24 *11636:A 8.845 
*END

*D_NET *627 0.0179327
*CONN
*I *11637:A I *D sky130_fd_sc_hd__buf_12
*I *11243:X O *D sky130_fd_sc_hd__o221a_2
*CAP
1 *11637:A 0
2 *11243:X 0.00176631
3 *627:24 0.00100615
4 *627:14 0.00277246
5 *627:14 *628:8 0.00030812
6 wbs_dat_o[8] *627:24 0
7 *11249:B1 *627:14 7.88971e-05
8 *11324:CLK *627:14 8.78365e-05
9 *11381:A *627:14 0
10 *11392:A *627:24 4.62198e-05
11 *11416:A *627:14 0.000583711
12 *11429:A *627:14 0.000406379
13 *11501:A *627:14 5.10398e-05
14 *119:34 *627:14 0.000628509
15 *119:36 *627:14 6.69608e-06
16 *382:16 *627:14 0.000544934
17 *586:22 *627:14 1.60203e-05
18 *586:34 *627:14 0.00149662
19 *586:34 *627:24 0.000614655
20 *595:16 *627:14 0.00128492
21 *595:16 *627:24 4.51825e-06
22 *595:18 *627:14 2.32597e-05
23 *595:18 *627:24 0.00477332
24 *604:14 *627:24 0.000338258
25 *622:14 *627:24 0.00109385
*RES
1 *11243:X *627:14 49.385 
2 *627:14 *627:24 49.825 
3 *627:24 *11637:A 1.6 
*END

*D_NET *628 0.0181987
*CONN
*I *11638:A I *D sky130_fd_sc_hd__buf_12
*I *11249:X O *D sky130_fd_sc_hd__o221a_2
*CAP
1 *11638:A 0.00163746
2 *11249:X 0.000367898
3 *628:12 0.00501541
4 *628:8 0.00374585
5 wbs_dat_o[9] *11638:A 0.000198945
6 *11249:B1 *628:8 0.000309285
7 *11266:A1 *628:8 4.60584e-05
8 *11266:B1 *628:8 0.000141677
9 *11386:A *11638:A 0.000103329
10 *11555:A *11638:A 3.00381e-05
11 *11589:A *11638:A 0
12 *123:14 *628:12 0.00316878
13 *123:16 *628:8 5.89682e-05
14 *123:16 *628:12 7.10593e-06
15 *360:10 *11638:A 0.000838812
16 *382:47 *628:12 0.00184431
17 *583:14 *11638:A 0
18 *598:14 *11638:A 0.000133253
19 *604:12 *11638:A 0
20 *625:20 *628:8 0.000217203
21 *625:20 *628:12 2.6189e-05
22 *627:14 *628:8 0.00030812
*RES
1 *11249:X *628:8 10.1725 
2 *628:8 *628:12 48.8525 
3 *628:12 *11638:A 32.1 
*END

*D_NET *629 0.126862
*CONN
*I *11542:BEN[31] I *D CF_SRAM_1024x32
*I *11542:BEN[30] I *D CF_SRAM_1024x32
*I *11542:BEN[29] I *D CF_SRAM_1024x32
*I *11542:BEN[28] I *D CF_SRAM_1024x32
*I *11542:BEN[27] I *D CF_SRAM_1024x32
*I *11542:BEN[26] I *D CF_SRAM_1024x32
*I *11542:BEN[25] I *D CF_SRAM_1024x32
*I *11542:BEN[24] I *D CF_SRAM_1024x32
*I *11533:BEN[31] I *D CF_SRAM_1024x32
*I *11533:BEN[30] I *D CF_SRAM_1024x32
*I *11533:BEN[29] I *D CF_SRAM_1024x32
*I *11533:BEN[28] I *D CF_SRAM_1024x32
*I *11533:BEN[27] I *D CF_SRAM_1024x32
*I *11533:BEN[26] I *D CF_SRAM_1024x32
*I *11533:BEN[25] I *D CF_SRAM_1024x32
*I *11533:BEN[24] I *D CF_SRAM_1024x32
*I *11515:BEN[31] I *D CF_SRAM_1024x32
*I *11515:BEN[30] I *D CF_SRAM_1024x32
*I *11515:BEN[29] I *D CF_SRAM_1024x32
*I *11515:BEN[28] I *D CF_SRAM_1024x32
*I *11603:X O *D sky130_fd_sc_hd__clkbuf_16
*CAP
1 *11542:BEN[31] 0.000611763
2 *11542:BEN[30] 0.00157637
3 *11542:BEN[29] 0.000497764
4 *11542:BEN[28] 0.000431176
5 *11542:BEN[27] 0.000338738
6 *11542:BEN[26] 9.50503e-05
7 *11542:BEN[25] 0.000500748
8 *11542:BEN[24] 0.000121724
9 *11533:BEN[31] 0.000934434
10 *11533:BEN[30] 0.000416158
11 *11533:BEN[29] 0.000356329
12 *11533:BEN[28] 0.000350259
13 *11533:BEN[27] 0.000413557
14 *11533:BEN[26] 0.00041269
15 *11533:BEN[25] 0.000367601
16 *11533:BEN[24] 0.000344944
17 *11515:BEN[31] 0.000803755
18 *11515:BEN[30] 0.000290252
19 *11515:BEN[29] 0.000316023
20 *11515:BEN[28] 0.000442949
21 *11603:X 0.000308279
22 *629:255 0.00188346
23 *629:250 0
24 *629:243 0.00163456
25 *629:219 0.000816618
26 *629:215 0.00147038
27 *629:203 0.00154335
28 *629:189 0.0122979
29 *629:155 0.00177963
30 *629:150 6.06962e-06
31 *629:143 0.00128077
32 *629:138 0
33 *629:131 0.00143297
34 *629:119 0.00151776
35 *629:107 0.00137925
36 *629:95 0.00127944
37 *629:82 0.00104006
38 *629:78 0.0117125
39 *629:74 0.00836052
40 *629:72 0.00855322
41 *629:58 0.00175291
42 *629:44 0.00117028
43 *629:30 0.000956731
44 *629:17 0
45 *629:10 0.00122155
46 *629:74 *11533:BEN[23] 0
47 *629:74 *630:74 0
48 *629:74 *630:266 0
49 *629:74 *631:68 0.00153169
50 *629:74 *631:80 0.00017127
51 *629:74 *631:199 0.000196448
52 *1131:DIODE *629:203 0
53 *1134:DIODE *11542:BEN[25] 0
54 *1153:DIODE *11542:BEN[31] 0
55 *11515:BEN[27] *629:10 1.14169e-05
56 *11515:DI[29] *11515:BEN[29] 0
57 *11515:DI[29] *629:30 5.83121e-06
58 *11533:DI[10] *629:74 1.03755e-05
59 *11533:DI[27] *11533:BEN[27] 0
60 *11533:DI[24] *11533:BEN[24] 0
61 *11533:DI[24] *629:74 0
62 *11533:DI[24] *629:82 0
63 *11533:DI[26] *11533:BEN[26] 0
64 *11533:DI[31] *11533:BEN[31] 0
65 *11603:A *629:10 0.000333651
66 *141:24 *629:58 0.000713005
67 *141:24 *629:72 0.000883885
68 *141:24 *629:74 4.63336e-05
69 *141:34 *629:30 4.77719e-05
70 *229:28 *629:30 1.1392e-05
71 *273:14 *629:74 0.00026313
72 *279:15 *629:74 0.00245757
73 *284:15 *629:74 0.00528542
74 *292:11 *629:74 0.00122436
75 *292:11 *629:78 4.24562e-05
76 *292:11 *629:189 0.000105159
77 *318:5 *11542:BEN[24] 0
78 *318:11 *629:189 1.79536e-05
79 *319:5 *11542:BEN[25] 0
80 *319:23 *629:189 1.79536e-05
81 *320:20 *11542:BEN[27] 0.000287339
82 *321:26 *11542:BEN[27] 0.000596901
83 *325:5 *11542:BEN[31] 0
84 *325:24 *11542:BEN[31] 4.56378e-05
85 *383:64 *629:44 0.000914052
86 *387:66 *629:44 0.000914052
87 *391:88 *629:44 0.000177535
88 *394:60 *629:10 0.000600158
89 *394:60 *629:30 0.000415096
90 *396:104 *629:72 1.71207e-05
91 *396:104 *629:74 0.0142928
92 *398:80 *629:74 0
93 *402:82 *629:74 0
94 *409:72 *629:189 0.00631305
95 *411:80 *629:189 0.00622341
96 *416:102 *11542:BEN[27] 5.68762e-05
97 *420:50 *629:203 0.000319442
98 *420:50 *629:215 0.000288944
99 *420:50 *629:243 0.000428375
100 *433:86 *11542:BEN[28] 0.000351188
101 *456:57 *11542:BEN[30] 0
102 *456:57 *629:243 0
103 *456:57 *629:255 0
104 *461:36 *629:74 0.000240873
105 *463:36 *629:10 0.000598745
106 *463:36 *629:30 0.000421987
107 *465:46 *11542:BEN[30] 0
108 *474:80 *629:74 0.000153142
109 *483:44 *629:72 0.000169048
110 *483:44 *629:74 0.000510905
111 *558:129 *629:58 0.000713005
112 *558:129 *629:72 0.000835074
113 *558:141 *629:74 0.00328549
114 *558:155 *629:74 0.000125765
115 *558:257 *629:74 0.000523223
116 *558:277 *629:74 0.000645727
*RES
1 *11603:X *629:10 13.8 
2 *629:10 *11515:BEN[28] 7.97 
3 *11515:BEN[28] *629:17 0.18375 
4 *629:10 *629:30 12.755 
5 *629:30 *11515:BEN[29] 4.56 
6 *629:30 *629:44 14.305 
7 *629:44 *11515:BEN[30] 3.99 
8 *629:44 *629:58 16.58 
9 *629:58 *11515:BEN[31] 12.185 
10 *629:58 *629:72 10.6275 
11 *629:72 *629:74 261.735 
12 *629:74 *629:78 0.9375 
13 *629:78 *629:82 5.555 
14 *629:82 *11533:BEN[24] 5.97 
15 *629:82 *629:95 10.01 
16 *629:95 *11533:BEN[25] 8.27 
17 *629:95 *629:107 7.5 
18 *629:107 *11533:BEN[26] 9.05 
19 *629:107 *629:119 8.265 
20 *629:119 *11533:BEN[27] 9.065 
21 *629:119 *629:131 9.285 
22 *629:131 *11533:BEN[28] 7.97 
23 *11533:BEN[28] *629:138 0.1225 
24 *629:131 *629:143 8.265 
25 *629:143 *11533:BEN[29] 7.97 
26 *11533:BEN[29] *629:150 0.105 
27 *629:143 *629:155 7.245 
28 *629:155 *11533:BEN[30] 9.11 
29 *629:155 *11533:BEN[31] 17.39 
30 *629:78 *629:189 47.4073 
31 *629:189 *11542:BEN[24] 1.89 
32 *629:189 *629:203 16.925 
33 *629:203 *11542:BEN[25] 10.43 
34 *629:203 *629:215 7.5 
35 *629:215 *629:219 8.315 
36 *629:219 *11542:BEN[26] 1.44 
37 *629:219 *11542:BEN[27] 13.225 
38 *629:215 *629:243 16.17 
39 *629:243 *11542:BEN[28] 9.35 
40 *11542:BEN[28] *629:250 0.1225 
41 *629:243 *629:255 7.245 
42 *629:255 *11542:BEN[29] 10.475 
43 *629:255 *11542:BEN[30] 18.755 
44 *11542:BEN[30] *11542:BEN[31] 14.665 
*END

*D_NET *630 0.152006
*CONN
*I *11533:BEN[23] I *D CF_SRAM_1024x32
*I *11533:BEN[22] I *D CF_SRAM_1024x32
*I *11533:BEN[21] I *D CF_SRAM_1024x32
*I *11533:BEN[20] I *D CF_SRAM_1024x32
*I *11533:BEN[19] I *D CF_SRAM_1024x32
*I *11533:BEN[18] I *D CF_SRAM_1024x32
*I *11533:BEN[17] I *D CF_SRAM_1024x32
*I *11542:BEN[23] I *D CF_SRAM_1024x32
*I *11542:BEN[22] I *D CF_SRAM_1024x32
*I *11542:BEN[21] I *D CF_SRAM_1024x32
*I *11542:BEN[20] I *D CF_SRAM_1024x32
*I *11542:BEN[19] I *D CF_SRAM_1024x32
*I *11542:BEN[18] I *D CF_SRAM_1024x32
*I *11542:BEN[17] I *D CF_SRAM_1024x32
*I *11542:BEN[16] I *D CF_SRAM_1024x32
*I *11533:BEN[16] I *D CF_SRAM_1024x32
*I *11515:BEN[23] I *D CF_SRAM_1024x32
*I *11515:BEN[22] I *D CF_SRAM_1024x32
*I *11515:BEN[21] I *D CF_SRAM_1024x32
*I *11515:BEN[20] I *D CF_SRAM_1024x32
*I *11604:X O *D sky130_fd_sc_hd__clkbuf_16
*CAP
1 *11533:BEN[23] 0.000869385
2 *11533:BEN[22] 0.000350259
3 *11533:BEN[21] 0.000350259
4 *11533:BEN[20] 0.000417025
5 *11533:BEN[19] 0.000441467
6 *11533:BEN[18] 0.0004406
7 *11533:BEN[17] 0.000383051
8 *11542:BEN[23] 0.000842588
9 *11542:BEN[22] 0.000452274
10 *11542:BEN[21] 0.000459448
11 *11542:BEN[20] 0.000459284
12 *11542:BEN[19] 0.000475097
13 *11542:BEN[18] 0.0004901
14 *11542:BEN[17] 0.000568289
15 *11542:BEN[16] 0.000619148
16 *11533:BEN[16] 0.000666023
17 *11515:BEN[23] 0.000855669
18 *11515:BEN[22] 0.000493354
19 *11515:BEN[21] 0.000471563
20 *11515:BEN[20] 0.00047243
21 *11604:X 0.000371284
22 *630:266 0.00173749
23 *630:253 0.00131136
24 *630:241 0.00150511
25 *630:225 0.00159537
26 *630:213 0.00137748
27 *630:201 0.00129056
28 *630:172 0.00164556
29 *630:159 0.00100728
30 *630:146 0.000851891
31 *630:134 0.000903723
32 *630:122 0.000919346
33 *630:110 0.000906968
34 *630:96 0.00979477
35 *630:86 0.00972775
36 *630:74 0.00718256
37 *630:72 0.00635844
38 *630:66 0.00123174
39 *630:54 0.00258194
40 *630:36 0.00118078
41 *630:22 0.000775057
42 *630:10 0.00101123
43 *630:54 *631:68 0.000624705
44 *630:66 *631:68 0.00429433
45 *630:74 *631:68 0.0113766
46 *630:74 *631:80 0.000419697
47 *630:74 *631:199 0.000485721
48 *1081:DIODE *630:72 2.49909e-05
49 *11238:S *630:66 0.000340587
50 *11241:S *630:66 0.000141606
51 *11246:S *630:66 0.000163019
52 *11515:DI[22] *11515:BEN[22] 6.08364e-05
53 *11515:DI[22] *630:54 1.68788e-05
54 *11533:CLKin *11533:BEN[17] 0
55 *11533:CLKin *630:96 0.0136997
56 *11533:TM *11533:BEN[16] 0
57 *11542:WLBI *11542:BEN[16] 0
58 *11542:CLKin *630:96 0.0137039
59 *11542:TM *11542:BEN[16] 2.58341e-05
60 *141:38 *630:66 0.000407472
61 *217:11 *630:10 4.93654e-05
62 *277:15 *11533:BEN[16] 0
63 *279:15 *630:213 0
64 *279:15 *630:225 0
65 *282:11 *11533:BEN[20] 0
66 *292:11 *630:74 0.0010415
67 *292:11 *630:86 0.000213712
68 *292:11 *630:201 0.000177906
69 *309:23 *630:96 0.000267195
70 *309:116 *11542:BEN[16] 0
71 *310:7 *11542:BEN[17] 0
72 *310:52 *11542:BEN[17] 0
73 *311:9 *11542:BEN[18] 0
74 *315:9 *11542:BEN[21] 0
75 *394:60 *630:10 0.000555968
76 *394:60 *630:22 0.000695343
77 *394:60 *630:36 0.000588923
78 *405:44 *11542:BEN[16] 9.90012e-05
79 *405:44 *630:110 0.000202182
80 *405:44 *630:122 0.000260709
81 *405:44 *630:134 0.000296298
82 *405:44 *630:146 0.000316472
83 *405:44 *630:159 0.000314955
84 *405:44 *630:172 2.97206e-06
85 *409:34 *630:66 3.82741e-05
86 *413:44 *630:66 3.79595e-05
87 *418:99 *630:74 4.1977e-05
88 *420:50 *11542:BEN[23] 0.000272945
89 *420:50 *630:122 0.000169879
90 *420:50 *630:134 0.000299268
91 *420:50 *630:146 0.000319442
92 *420:50 *630:159 0.000319442
93 *420:50 *630:172 0.000305052
94 *422:104 *630:96 0.00645037
95 *427:64 *11542:BEN[16] 0.000136081
96 *427:64 *630:110 0.000278465
97 *427:64 *630:122 0.00013364
98 *427:88 *630:213 0.00010395
99 *463:36 *630:10 0.000554556
100 *463:36 *630:22 0.000703652
101 *463:36 *630:36 0.000597231
102 *476:64 *630:74 0.0177359
103 *483:44 *630:54 0.000142305
104 *483:44 *630:66 0.00100841
105 *491:44 *630:74 0.00339498
106 *558:129 *630:54 0.000478214
107 *558:129 *630:66 0.00177045
108 *629:74 *11533:BEN[23] 0
109 *629:74 *630:74 0
110 *629:74 *630:266 0
*RES
1 *11604:X *630:10 13.29 
2 *630:10 *11515:BEN[20] 8.48 
3 *630:10 *630:22 8.265 
4 *630:22 *11515:BEN[21] 8.465 
5 *630:22 *630:36 8.99 
6 *630:36 *11515:BEN[22] 7.215 
7 *630:36 *630:54 14.375 
8 *630:54 *11515:BEN[23] 13.025 
9 *630:54 *630:66 49.575 
10 *630:66 *630:72 4.795 
11 *630:72 *630:74 224.505 
12 *630:74 *11533:BEN[16] 12.62 
13 *630:74 *630:86 4.5675 
14 *630:86 *630:96 45.0167 
15 *630:96 *11542:BEN[16] 13.3475 
16 *630:96 *630:110 5.5875 
17 *630:110 *11542:BEN[17] 10.55 
18 *630:110 *630:122 7.245 
19 *630:122 *11542:BEN[18] 9.515 
20 *630:122 *630:134 8.265 
21 *630:134 *11542:BEN[19] 9.5 
22 *630:134 *630:146 8.265 
23 *630:146 *11542:BEN[20] 9.35 
24 *630:146 *630:159 8.265 
25 *630:159 *11542:BEN[21] 9.35 
26 *630:159 *630:172 8.265 
27 *630:172 *11542:BEN[22] 9.35 
28 *630:172 *11542:BEN[23] 17.63 
29 *630:86 *630:201 10.0475 
30 *630:201 *11533:BEN[17] 6.495 
31 *630:201 *630:213 9.245 
32 *630:213 *11533:BEN[18] 9.53 
33 *630:213 *630:225 8.265 
34 *630:225 *11533:BEN[19] 9.545 
35 *630:225 *630:241 11.115 
36 *630:241 *11533:BEN[20] 9.125 
37 *630:241 *630:253 7.245 
38 *630:253 *11533:BEN[21] 7.97 
39 *630:253 *630:266 8.265 
40 *630:266 *11533:BEN[22] 7.97 
41 *630:266 *11533:BEN[23] 16.25 
*END

*D_NET *631 0.139566
*CONN
*I *11533:BEN[0] I *D CF_SRAM_1024x32
*I *11533:BEN[1] I *D CF_SRAM_1024x32
*I *11533:BEN[2] I *D CF_SRAM_1024x32
*I *11533:BEN[3] I *D CF_SRAM_1024x32
*I *11533:BEN[4] I *D CF_SRAM_1024x32
*I *11533:BEN[5] I *D CF_SRAM_1024x32
*I *11533:BEN[6] I *D CF_SRAM_1024x32
*I *11542:BEN[7] I *D CF_SRAM_1024x32
*I *11542:BEN[0] I *D CF_SRAM_1024x32
*I *11542:BEN[1] I *D CF_SRAM_1024x32
*I *11542:BEN[2] I *D CF_SRAM_1024x32
*I *11542:BEN[3] I *D CF_SRAM_1024x32
*I *11542:BEN[4] I *D CF_SRAM_1024x32
*I *11542:BEN[5] I *D CF_SRAM_1024x32
*I *11542:BEN[6] I *D CF_SRAM_1024x32
*I *11533:BEN[7] I *D CF_SRAM_1024x32
*I *11515:BEN[0] I *D CF_SRAM_1024x32
*I *11515:BEN[1] I *D CF_SRAM_1024x32
*I *11515:BEN[2] I *D CF_SRAM_1024x32
*I *11515:BEN[3] I *D CF_SRAM_1024x32
*I *11605:X O *D sky130_fd_sc_hd__clkbuf_16
*CAP
1 *11533:BEN[0] 0.000668532
2 *11533:BEN[1] 0.000445673
3 *11533:BEN[2] 0.000410044
4 *11533:BEN[3] 0.000378858
5 *11533:BEN[4] 0.000394237
6 *11533:BEN[5] 0.00046106
7 *11533:BEN[6] 0.000459692
8 *11542:BEN[7] 0.000254202
9 *11542:BEN[0] 0.000732178
10 *11542:BEN[1] 0.000569877
11 *11542:BEN[2] 0.000507974
12 *11542:BEN[3] 0.000536154
13 *11542:BEN[4] 0.000503246
14 *11542:BEN[5] 0.000497135
15 *11542:BEN[6] 0.000948826
16 *11533:BEN[7] 0.000787773
17 *11515:BEN[0] 0.000479569
18 *11515:BEN[1] 0.000472627
19 *11515:BEN[2] 0.000500153
20 *11515:BEN[3] 0.000464675
21 *11605:X 0.000453508
22 *631:265 0.00124651
23 *631:248 0.000705795
24 *631:235 0.00071013
25 *631:223 0.000694368
26 *631:211 0.000744887
27 *631:199 0.00107779
28 *631:159 0.00143908
29 *631:146 0.000847398
30 *631:134 0.000923373
31 *631:122 0.000847031
32 *631:110 0.00130244
33 *631:86 0.0176141
34 *631:80 0.0176402
35 *631:68 0.00718507
36 *631:66 0.0069317
37 *631:50 0.00129482
38 *631:36 0.000825895
39 *631:24 0.00082702
40 *631:12 0.00105635
41 *11515:BEN[0] *11515:ScanInDL 0
42 *631:66 *11515:ScanInDL 0
43 *738:DIODE *631:68 3.23391e-05
44 *1081:DIODE *631:68 0.000103905
45 *1118:DIODE *11542:BEN[0] 0
46 *1142:DIODE *11542:BEN[1] 0
47 *1176:DIODE *631:68 5.8499e-05
48 *1184:DIODE *631:68 0.000175219
49 *11413:A *631:12 0
50 *11515:AD[0] *631:68 0.000147487
51 *11515:AD[4] *631:68 7.96104e-06
52 *11515:DI[20] *631:68 0.000196458
53 *11533:DI[3] *11533:BEN[3] 0
54 *11533:DI[5] *11533:BEN[5] 0
55 *11533:DI[6] *11533:BEN[6] 2.05457e-05
56 *11533:DI[10] *631:68 1.79483e-05
57 *11542:DI[1] *11542:BEN[0] 1.93765e-05
58 *11542:DI[6] *631:110 0
59 *11542:DI[2] *11542:BEN[2] 0
60 *11542:DI[7] *11542:BEN[7] 1.04217e-05
61 *11604:A *631:68 7.70938e-05
62 *141:14 *631:68 0.000159677
63 *141:24 *631:68 0.00233481
64 *228:20 *631:68 7.80528e-05
65 *228:22 *631:68 0.00033772
66 *273:14 *631:68 0.00437091
67 *280:9 *11533:BEN[0] 0
68 *291:11 *11533:BEN[1] 0
69 *304:69 *631:68 0.000141599
70 *312:5 *11542:BEN[0] 0
71 *318:31 *11542:BEN[6] 0
72 *323:7 *11542:BEN[1] 0
73 *327:9 *11542:BEN[6] 0.0001577
74 *327:9 *11542:BEN[7] 0.000245518
75 *329:21 *11542:BEN[7] 5.83121e-06
76 *329:51 *631:68 0.000182579
77 *330:7 *11542:BEN[6] 0
78 *330:21 *11542:BEN[6] 1.79536e-05
79 *330:21 *631:86 0.00226144
80 *331:95 *631:68 7.06865e-05
81 *353:10 *631:24 0.000596828
82 *353:10 *631:36 0.000853534
83 *353:10 *631:50 0.000696609
84 *357:10 *11533:BEN[0] 0
85 *383:58 *631:12 0.00063538
86 *387:58 *631:24 0.000596828
87 *387:58 *631:36 0.000861842
88 *387:58 *631:50 0.000704917
89 *394:58 *631:66 0.00120382
90 *394:68 *11533:BEN[0] 0.000329381
91 *394:68 *631:211 0.000711261
92 *394:68 *631:223 0.000614573
93 *394:68 *631:235 0.000695526
94 *394:68 *631:248 0.000673592
95 *394:68 *631:265 0.000614573
96 *396:102 *631:66 1.02032e-05
97 *396:102 *631:68 0.00140666
98 *398:28 *631:68 1.88904e-05
99 *402:44 *631:68 1.88904e-05
100 *405:34 *631:68 0.000272562
101 *405:44 *11542:BEN[0] 0.000326647
102 *405:44 *631:110 0.000319451
103 *405:44 *631:122 0.000316481
104 *405:44 *631:134 0.000273719
105 *405:44 *631:146 0.000314405
106 *405:44 *631:159 0.000265651
107 *411:42 *631:68 0.000153139
108 *416:30 *631:68 0.000333068
109 *418:48 *631:68 1.07797e-05
110 *420:38 *631:68 8.57752e-05
111 *427:50 *631:68 2.38115e-05
112 *427:64 *11542:BEN[0] 0.000345226
113 *456:43 *631:68 8.6313e-05
114 *463:36 *11533:BEN[0] 0.000733356
115 *463:36 *631:211 0.000711261
116 *463:36 *631:223 0.000622881
117 *463:36 *631:235 0.000703835
118 *463:36 *631:248 0.0006819
119 *463:36 *631:265 0.000622881
120 *463:73 *11542:BEN[0] 0.000146322
121 *463:73 *631:110 0.000740019
122 *463:73 *631:122 0.000740019
123 *463:73 *631:134 0.000678963
124 *463:73 *631:146 0.000771344
125 *463:73 *631:159 0.000624621
126 *467:82 *631:110 0.000171239
127 *467:82 *631:122 0.000171239
128 *467:82 *631:159 0.000144823
129 *476:54 *631:68 0.00122711
130 *476:62 *631:68 0.00174822
131 *476:64 *631:68 0.00164212
132 *491:44 *631:68 0.00300836
133 *491:44 *631:199 0.000109394
134 *552:30 *631:68 1.91703e-05
135 *552:50 *631:68 0.000291326
136 *552:70 *631:68 0.000606514
137 *555:20 *631:68 0.000220017
138 *558:127 *631:12 0.000343662
139 *558:129 *631:66 0.00123304
140 *558:129 *631:68 0.00119231
141 *558:141 *631:68 0.000118019
142 *629:74 *631:68 0.00153169
143 *629:74 *631:80 0.00017127
144 *629:74 *631:199 0.000196448
145 *630:54 *631:68 0.000624705
146 *630:66 *631:68 0.00429433
147 *630:74 *631:68 0.0113766
148 *630:74 *631:80 0.000419697
149 *630:74 *631:199 0.000485721
*RES
1 *11605:X *631:12 16.31 
2 *631:12 *11515:BEN[3] 6.4725 
3 *631:12 *631:24 8.99 
4 *631:24 *11515:BEN[2] 9.2075 
5 *631:24 *631:36 10.05 
6 *631:36 *11515:BEN[1] 8.6075 
7 *631:36 *631:50 10.265 
8 *631:50 *11515:BEN[0] 6.5925 
9 *631:50 *631:66 20.8625 
10 *631:66 *631:68 257.017 
11 *631:68 *11533:BEN[7] 13.0475 
12 *631:68 *631:80 4.8225 
13 *631:80 *631:86 43.8057 
14 *631:86 *11542:BEN[6] 8.3 
15 *11542:BEN[6] *631:110 17.7875 
16 *631:110 *11542:BEN[5] 9.5075 
17 *631:110 *631:122 8.265 
18 *631:122 *11542:BEN[4] 9.4925 
19 *631:122 *631:134 7.755 
20 *631:134 *11542:BEN[3] 10.1825 
21 *631:134 *631:146 8.775 
22 *631:146 *11542:BEN[2] 9.695 
23 *631:146 *631:159 6.99 
24 *631:159 *11542:BEN[1] 10.6325 
25 *631:159 *11542:BEN[0] 18.9125 
26 *631:86 *11542:BEN[7] 6.785 
27 *631:80 *631:199 11.8325 
28 *631:199 *11533:BEN[6] 7.1625 
29 *631:199 *631:211 10.265 
30 *631:211 *11533:BEN[5] 9.1475 
31 *631:211 *631:223 7.245 
32 *631:223 *11533:BEN[4] 8.1125 
33 *631:223 *631:235 8.265 
34 *631:235 *11533:BEN[3] 7.97 
35 *631:235 *631:248 8.01 
36 *631:248 *11533:BEN[2] 8.78 
37 *631:248 *631:265 7.245 
38 *631:265 *11533:BEN[1] 9.2525 
39 *631:265 *11533:BEN[0] 17.5325 
*END

*D_NET *632 0.00145353
*CONN
*I *11515:SM I *D CF_SRAM_1024x32
*I *11518:LO O *D sky130_fd_sc_hd__conb_1
*CAP
1 *11515:SM 0.000726763
2 *11518:LO 0.000726763
3 *11515:SM *11515:ScanInDR 0
4 *474:78 *11515:SM 0
*RES
1 *11518:LO *11515:SM 11.0238 
*END

*D_NET *633 0.0309022
*CONN
*I *11336:A I *D sky130_fd_sc_hd__buf_12
*I *11602:X O *D sky130_fd_sc_hd__buf_12
*CAP
1 *11336:A 0.000393571
2 *11602:X 0.000612301
3 *633:20 0.0050384
4 *633:18 0.00522741
5 *633:14 0.00371638
6 *633:10 0.0037461
7 *11207:B *633:18 8.41307e-05
8 *11334:A *11336:A 0.000163204
9 *11335:A *633:10 0
10 *11374:A *633:10 6.05715e-05
11 *11430:A *11336:A 5.58436e-05
12 *11430:A *633:20 0.00291753
13 *11495:A *633:10 0
14 *11602:A *633:10 0
15 *119:16 *633:10 0.000113797
16 *201:48 *633:10 4.57752e-05
17 *567:35 *633:14 0.00287073
18 *579:12 *633:14 0.00105686
19 *579:12 *633:18 0.00127744
20 *579:12 *633:20 0.0023322
21 *581:12 *11336:A 0.000585247
22 *581:12 *633:20 2.19562e-06
23 *586:34 *633:10 0
24 *590:12 *633:10 0
25 *591:51 *633:10 0.000602529
*RES
1 *11602:X *633:10 17.435 
2 *633:10 *633:14 43.245 
3 *633:14 *633:18 12.0225 
4 *633:18 *633:20 63.4125 
5 *633:20 *11336:A 11.545 
*END

*D_NET *634 0.00192823
*CONN
*I *11515:ScanInCC I *D CF_SRAM_1024x32
*I *11519:LO O *D sky130_fd_sc_hd__conb_1
*CAP
1 *11515:ScanInCC 0.000444512
2 *11519:LO 0.000444512
3 *699:DIODE *11515:ScanInCC 0
4 *11515:AD[3] *11515:ScanInCC 0.000614696
5 *205:7 *11515:ScanInCC 0
6 *385:79 *11515:ScanInCC 6.39431e-05
7 *387:64 *11515:ScanInCC 1.61872e-05
8 *478:28 *11515:ScanInCC 0.000332719
9 *478:33 *11515:ScanInCC 1.16578e-05
*RES
1 *11519:LO *11515:ScanInCC 11.1175 
*END

*D_NET *635 0.00146447
*CONN
*I *11515:ScanInDL I *D CF_SRAM_1024x32
*I *11520:LO O *D sky130_fd_sc_hd__conb_1
*CAP
1 *11515:ScanInDL 0.000732237
2 *11520:LO 0.000732237
3 *11515:BEN[0] *11515:ScanInDL 0
4 *11515:DI[0] *11515:ScanInDL 0
5 *631:66 *11515:ScanInDL 0
*RES
1 *11520:LO *11515:ScanInDL 11.7325 
*END

*D_NET *636 0.00232618
*CONN
*I *11515:ScanInDR I *D CF_SRAM_1024x32
*I *11521:LO O *D sky130_fd_sc_hd__conb_1
*CAP
1 *11515:ScanInDR 0.000591897
2 *11521:LO 0.000591897
3 *11515:SM *11515:ScanInDR 0
4 *11515:DI[16] *11515:ScanInDR 0.000118081
5 *212:12 *11515:ScanInDR 0.000841384
6 *378:89 *11515:ScanInDR 9.21064e-05
7 *461:36 *11515:ScanInDR 9.08126e-05
*RES
1 *11521:LO *11515:ScanInDR 16.79 
*END

*D_NET *637 0.00237054
*CONN
*I *11515:TM I *D CF_SRAM_1024x32
*I *11522:LO O *D sky130_fd_sc_hd__conb_1
*CAP
1 *11515:TM 0.000692986
2 *11522:LO 0.000692986
3 *11515:TM *11515:WLBI 0.000984565
4 *11515:BEN[16] *11515:TM 0
*RES
1 *11522:LO *11515:TM 13.3525 
*END

*D_NET *638 0.00250907
*CONN
*I *11515:WLBI I *D CF_SRAM_1024x32
*I *11523:LO O *D sky130_fd_sc_hd__conb_1
*CAP
1 *11515:WLBI 0.000341562
2 *11523:LO 0.000341562
3 *11515:BEN[16] *11515:WLBI 0
4 *11515:TM *11515:WLBI 0.000984565
5 *213:18 *11515:WLBI 0.000841384
*RES
1 *11523:LO *11515:WLBI 11.9237 
*END

*D_NET *639 0.00145728
*CONN
*I *11524:SM I *D CF_SRAM_1024x32
*I *11528:LO O *D sky130_fd_sc_hd__conb_1
*CAP
1 *11524:SM 0.000678185
2 *11528:LO 0.000678185
3 *11524:SM *11524:ScanInDR 0
4 *837:DIODE *11524:SM 1.0076e-05
5 *244:93 *11524:SM 7.75151e-05
6 *427:24 *11524:SM 1.33205e-05
*RES
1 *11528:LO *11524:SM 11.9838 
*END

*D_NET *640 0.00142488
*CONN
*I *11524:ScanInCC I *D CF_SRAM_1024x32
*I *11529:LO O *D sky130_fd_sc_hd__conb_1
*CAP
1 *11524:ScanInCC 0.000534728
2 *11529:LO 0.000534728
3 *11524:AD[3] *11524:ScanInCC 4.23612e-05
4 *237:7 *11524:ScanInCC 0
5 *237:57 *11524:ScanInCC 0
6 *478:78 *11524:ScanInCC 0.000313059
*RES
1 *11529:LO *11524:ScanInCC 11.1175 
*END

*D_NET *641 0.00140242
*CONN
*I *11524:ScanInDL I *D CF_SRAM_1024x32
*I *11530:LO O *D sky130_fd_sc_hd__conb_1
*CAP
1 *11524:ScanInDL 0.00070121
2 *11530:LO 0.00070121
3 *11524:BEN[0] *11524:ScanInDL 0
*RES
1 *11530:LO *11524:ScanInDL 11.5075 
*END

*D_NET *642 0.00157127
*CONN
*I *11524:ScanInDR I *D CF_SRAM_1024x32
*I *11531:LO O *D sky130_fd_sc_hd__conb_1
*CAP
1 *11524:ScanInDR 0.000571488
2 *11531:LO 0.000571488
3 *11524:SM *11524:ScanInDR 0
4 *11524:DI[16] *11524:ScanInDR 0
5 *244:9 *11524:ScanInDR 6.55906e-05
6 *244:93 *11524:ScanInDR 0.000205953
7 *244:97 *11524:ScanInDR 0.000156754
8 *418:72 *11524:ScanInDR 0
*RES
1 *11531:LO *11524:ScanInDR 11.92 
*END

*D_NET *643 0.00212961
*CONN
*I *11524:TM I *D CF_SRAM_1024x32
*I *11532:LO O *D sky130_fd_sc_hd__conb_1
*CAP
1 *11524:TM 0.000696
2 *11532:LO 0.000696
3 *11524:BEN[16] *11524:TM 3.23285e-05
4 *11524:WLBI *11524:TM 0.000666947
5 *245:120 *11524:TM 2.55252e-05
6 *245:140 *11524:TM 1.28131e-05
*RES
1 *11532:LO *11524:TM 13.5625 
*END
